p cnf 1444 14803
1 2 3 4 0
5 6 7 8 0
9 10 11 12 0
13 14 15 16 0
17 18 19 20 0
21 22 23 24 0
25 26 27 28 0
29 30 31 32 0
33 34 35 36 0
37 38 39 40 0
41 42 43 44 0
45 46 47 48 0
49 50 51 52 0
53 54 55 56 0
57 58 59 60 0
61 62 63 64 0
65 66 67 68 0
69 70 71 72 0
73 74 75 76 0
77 78 79 80 0
81 82 83 84 0
85 86 87 88 0
89 90 91 92 0
93 94 95 96 0
97 98 99 100 0
101 102 103 104 0
105 106 107 108 0
109 110 111 112 0
113 114 115 116 0
117 118 119 120 0
121 122 123 124 0
125 126 127 128 0
129 130 131 132 0
133 134 135 136 0
137 138 139 140 0
141 142 143 144 0
145 146 147 148 0
149 150 151 152 0
153 154 155 156 0
157 158 159 160 0
161 162 163 164 0
165 166 167 168 0
169 170 171 172 0
173 174 175 176 0
177 178 179 180 0
181 182 183 184 0
185 186 187 188 0
189 190 191 192 0
193 194 195 196 0
197 198 199 200 0
201 202 203 204 0
205 206 207 208 0
209 210 211 212 0
213 214 215 216 0
217 218 219 220 0
221 222 223 224 0
225 226 227 228 0
229 230 231 232 0
233 234 235 236 0
237 238 239 240 0
241 242 243 244 0
245 246 247 248 0
249 250 251 252 0
253 254 255 256 0
257 258 259 260 0
261 262 263 264 0
265 266 267 268 0
269 270 271 272 0
273 274 275 276 0
277 278 279 280 0
281 282 283 284 0
285 286 287 288 0
289 290 291 292 0
293 294 295 296 0
297 298 299 300 0
301 302 303 304 0
305 306 307 308 0
309 310 311 312 0
313 314 315 316 0
317 318 319 320 0
321 322 323 324 0
325 326 327 328 0
329 330 331 332 0
333 334 335 336 0
337 338 339 340 0
341 342 343 344 0
345 346 347 348 0
349 350 351 352 0
353 354 355 356 0
357 358 359 360 0
361 362 363 364 0
365 366 367 368 0
369 370 371 372 0
373 374 375 376 0
377 378 379 380 0
381 382 383 384 0
385 386 387 388 0
389 390 391 392 0
393 394 395 396 0
397 398 399 400 0
401 402 403 404 0
405 406 407 408 0
409 410 411 412 0
413 414 415 416 0
417 418 419 420 0
421 422 423 424 0
425 426 427 428 0
429 430 431 432 0
433 434 435 436 0
437 438 439 440 0
441 442 443 444 0
445 446 447 448 0
449 450 451 452 0
453 454 455 456 0
457 458 459 460 0
461 462 463 464 0
465 466 467 468 0
469 470 471 472 0
473 474 475 476 0
477 478 479 480 0
481 482 483 484 0
485 486 487 488 0
489 490 491 492 0
493 494 495 496 0
497 498 499 500 0
501 502 503 504 0
505 506 507 508 0
509 510 511 512 0
513 514 515 516 0
517 518 519 520 0
521 522 523 524 0
525 526 527 528 0
529 530 531 532 0
533 534 535 536 0
537 538 539 540 0
541 542 543 544 0
545 546 547 548 0
549 550 551 552 0
553 554 555 556 0
557 558 559 560 0
561 562 563 564 0
565 566 567 568 0
569 570 571 572 0
573 574 575 576 0
577 578 579 580 0
581 582 583 584 0
585 586 587 588 0
589 590 591 592 0
593 594 595 596 0
597 598 599 600 0
601 602 603 604 0
605 606 607 608 0
609 610 611 612 0
613 614 615 616 0
617 618 619 620 0
621 622 623 624 0
625 626 627 628 0
629 630 631 632 0
633 634 635 636 0
637 638 639 640 0
641 642 643 644 0
645 646 647 648 0
649 650 651 652 0
653 654 655 656 0
657 658 659 660 0
661 662 663 664 0
665 666 667 668 0
669 670 671 672 0
673 674 675 676 0
677 678 679 680 0
681 682 683 684 0
685 686 687 688 0
689 690 691 692 0
693 694 695 696 0
697 698 699 700 0
701 702 703 704 0
705 706 707 708 0
709 710 711 712 0
713 714 715 716 0
717 718 719 720 0
721 722 723 724 0
725 726 727 728 0
729 730 731 732 0
733 734 735 736 0
737 738 739 740 0
741 742 743 744 0
745 746 747 748 0
749 750 751 752 0
753 754 755 756 0
757 758 759 760 0
761 762 763 764 0
765 766 767 768 0
769 770 771 772 0
773 774 775 776 0
777 778 779 780 0
781 782 783 784 0
785 786 787 788 0
789 790 791 792 0
793 794 795 796 0
797 798 799 800 0
801 802 803 804 0
805 806 807 808 0
809 810 811 812 0
813 814 815 816 0
817 818 819 820 0
821 822 823 824 0
825 826 827 828 0
829 830 831 832 0
833 834 835 836 0
837 838 839 840 0
841 842 843 844 0
845 846 847 848 0
849 850 851 852 0
853 854 855 856 0
857 858 859 860 0
861 862 863 864 0
865 866 867 868 0
869 870 871 872 0
873 874 875 876 0
877 878 879 880 0
881 882 883 884 0
885 886 887 888 0
889 890 891 892 0
893 894 895 896 0
897 898 899 900 0
901 902 903 904 0
905 906 907 908 0
909 910 911 912 0
913 914 915 916 0
917 918 919 920 0
921 922 923 924 0
925 926 927 928 0
929 930 931 932 0
933 934 935 936 0
937 938 939 940 0
941 942 943 944 0
945 946 947 948 0
949 950 951 952 0
953 954 955 956 0
957 958 959 960 0
961 962 963 964 0
965 966 967 968 0
969 970 971 972 0
973 974 975 976 0
977 978 979 980 0
981 982 983 984 0
985 986 987 988 0
989 990 991 992 0
993 994 995 996 0
997 998 999 1000 0
1001 1002 1003 1004 0
1005 1006 1007 1008 0
1009 1010 1011 1012 0
1013 1014 1015 1016 0
1017 1018 1019 1020 0
1021 1022 1023 1024 0
1025 1026 1027 1028 0
1029 1030 1031 1032 0
1033 1034 1035 1036 0
1037 1038 1039 1040 0
1041 1042 1043 1044 0
1045 1046 1047 1048 0
1049 1050 1051 1052 0
1053 1054 1055 1056 0
1057 1058 1059 1060 0
1061 1062 1063 1064 0
1065 1066 1067 1068 0
1069 1070 1071 1072 0
1073 1074 1075 1076 0
1077 1078 1079 1080 0
1081 1082 1083 1084 0
1085 1086 1087 1088 0
1089 1090 1091 1092 0
1093 1094 1095 1096 0
1097 1098 1099 1100 0
1101 1102 1103 1104 0
1105 1106 1107 1108 0
1109 1110 1111 1112 0
1113 1114 1115 1116 0
1117 1118 1119 1120 0
1121 1122 1123 1124 0
1125 1126 1127 1128 0
1129 1130 1131 1132 0
1133 1134 1135 1136 0
1137 1138 1139 1140 0
1141 1142 1143 1144 0
1145 1146 1147 1148 0
1149 1150 1151 1152 0
1153 1154 1155 1156 0
1157 1158 1159 1160 0
1161 1162 1163 1164 0
1165 1166 1167 1168 0
1169 1170 1171 1172 0
1173 1174 1175 1176 0
1177 1178 1179 1180 0
1181 1182 1183 1184 0
1185 1186 1187 1188 0
1189 1190 1191 1192 0
1193 1194 1195 1196 0
1197 1198 1199 1200 0
1201 1202 1203 1204 0
1205 1206 1207 1208 0
1209 1210 1211 1212 0
1213 1214 1215 1216 0
1217 1218 1219 1220 0
1221 1222 1223 1224 0
1225 1226 1227 1228 0
1229 1230 1231 1232 0
1233 1234 1235 1236 0
1237 1238 1239 1240 0
1241 1242 1243 1244 0
1245 1246 1247 1248 0
1249 1250 1251 1252 0
1253 1254 1255 1256 0
1257 1258 1259 1260 0
1261 1262 1263 1264 0
1265 1266 1267 1268 0
1269 1270 1271 1272 0
1273 1274 1275 1276 0
1277 1278 1279 1280 0
1281 1282 1283 1284 0
1285 1286 1287 1288 0
1289 1290 1291 1292 0
1293 1294 1295 1296 0
1297 1298 1299 1300 0
1301 1302 1303 1304 0
1305 1306 1307 1308 0
1309 1310 1311 1312 0
1313 1314 1315 1316 0
1317 1318 1319 1320 0
1321 1322 1323 1324 0
1325 1326 1327 1328 0
1329 1330 1331 1332 0
1333 1334 1335 1336 0
1337 1338 1339 1340 0
1341 1342 1343 1344 0
1345 1346 1347 1348 0
1349 1350 1351 1352 0
1353 1354 1355 1356 0
1357 1358 1359 1360 0
1361 1362 1363 1364 0
1365 1366 1367 1368 0
1369 1370 1371 1372 0
1373 1374 1375 1376 0
1377 1378 1379 1380 0
1381 1382 1383 1384 0
1385 1386 1387 1388 0
1389 1390 1391 1392 0
1393 1394 1395 1396 0
1397 1398 1399 1400 0
1401 1402 1403 1404 0
1405 1406 1407 1408 0
1409 1410 1411 1412 0
1413 1414 1415 1416 0
1417 1418 1419 1420 0
1421 1422 1423 1424 0
1425 1426 1427 1428 0
1429 1430 1431 1432 0
1433 1434 1435 1436 0
1437 1438 1439 1440 0
1441 1442 1443 1444 0
-1 -5 0
-2 -6 0
-3 -7 0
-4 -8 0
-1 -73 0
-2 -74 0
-3 -75 0
-4 -76 0
-1 -77 0
-2 -78 0
-3 -79 0
-4 -80 0
-1 -169 0
-2 -170 0
-3 -171 0
-4 -172 0
-1 -213 0
-2 -214 0
-3 -215 0
-4 -216 0
-1 -257 0
-2 -258 0
-3 -259 0
-4 -260 0
-1 -277 0
-2 -278 0
-3 -279 0
-4 -280 0
-1 -313 0
-2 -314 0
-3 -315 0
-4 -316 0
-1 -373 0
-2 -374 0
-3 -375 0
-4 -376 0
-1 -545 0
-2 -546 0
-3 -547 0
-4 -548 0
-1 -597 0
-2 -598 0
-3 -599 0
-4 -600 0
-1 -925 0
-2 -926 0
-3 -927 0
-4 -928 0
-1 -977 0
-2 -978 0
-3 -979 0
-4 -980 0
-1 -1149 0
-2 -1150 0
-3 -1151 0
-4 -1152 0
-1 -1209 0
-2 -1210 0
-3 -1211 0
-4 -1212 0
-1 -1245 0
-2 -1246 0
-3 -1247 0
-4 -1248 0
-1 -1265 0
-2 -1266 0
-3 -1267 0
-4 -1268 0
-1 -1309 0
-2 -1310 0
-3 -1311 0
-4 -1312 0
-1 -1353 0
-2 -1354 0
-3 -1355 0
-4 -1356 0
-1 -1369 0
-2 -1370 0
-3 -1371 0
-4 -1372 0
-5 -9 0
-6 -10 0
-7 -11 0
-8 -12 0
-5 -81 0
-6 -82 0
-7 -83 0
-8 -84 0
-5 -173 0
-6 -174 0
-7 -175 0
-8 -176 0
-5 -217 0
-6 -218 0
-7 -219 0
-8 -220 0
-5 -261 0
-6 -262 0
-7 -263 0
-8 -264 0
-5 -281 0
-6 -282 0
-7 -283 0
-8 -284 0
-5 -317 0
-6 -318 0
-7 -319 0
-8 -320 0
-5 -377 0
-6 -378 0
-7 -379 0
-8 -380 0
-5 -549 0
-6 -550 0
-7 -551 0
-8 -552 0
-5 -601 0
-6 -602 0
-7 -603 0
-8 -604 0
-5 -929 0
-6 -930 0
-7 -931 0
-8 -932 0
-5 -981 0
-6 -982 0
-7 -983 0
-8 -984 0
-5 -1153 0
-6 -1154 0
-7 -1155 0
-8 -1156 0
-5 -1213 0
-6 -1214 0
-7 -1215 0
-8 -1216 0
-5 -1249 0
-6 -1250 0
-7 -1251 0
-8 -1252 0
-5 -1269 0
-6 -1270 0
-7 -1271 0
-8 -1272 0
-5 -1313 0
-6 -1314 0
-7 -1315 0
-8 -1316 0
-5 -1357 0
-6 -1358 0
-7 -1359 0
-8 -1360 0
-5 -1373 0
-6 -1374 0
-7 -1375 0
-8 -1376 0
-9 -13 0
-10 -14 0
-11 -15 0
-12 -16 0
-9 -85 0
-10 -86 0
-11 -87 0
-12 -88 0
-9 -177 0
-10 -178 0
-11 -179 0
-12 -180 0
-9 -221 0
-10 -222 0
-11 -223 0
-12 -224 0
-9 -265 0
-10 -266 0
-11 -267 0
-12 -268 0
-9 -285 0
-10 -286 0
-11 -287 0
-12 -288 0
-9 -305 0
-10 -306 0
-11 -307 0
-12 -308 0
-9 -321 0
-10 -322 0
-11 -323 0
-12 -324 0
-9 -553 0
-10 -554 0
-11 -555 0
-12 -556 0
-9 -605 0
-10 -606 0
-11 -607 0
-12 -608 0
-9 -933 0
-10 -934 0
-11 -935 0
-12 -936 0
-9 -985 0
-10 -986 0
-11 -987 0
-12 -988 0
-9 -1141 0
-10 -1142 0
-11 -1143 0
-12 -1144 0
-9 -1157 0
-10 -1158 0
-11 -1159 0
-12 -1160 0
-9 -1253 0
-10 -1254 0
-11 -1255 0
-12 -1256 0
-9 -1273 0
-10 -1274 0
-11 -1275 0
-12 -1276 0
-9 -1317 0
-10 -1318 0
-11 -1319 0
-12 -1320 0
-9 -1361 0
-10 -1362 0
-11 -1363 0
-12 -1364 0
-9 -1377 0
-10 -1378 0
-11 -1379 0
-12 -1380 0
-13 -17 0
-14 -18 0
-15 -19 0
-16 -20 0
-13 -89 0
-14 -90 0
-15 -91 0
-16 -92 0
-13 -181 0
-14 -182 0
-15 -183 0
-16 -184 0
-13 -225 0
-14 -226 0
-15 -227 0
-16 -228 0
-13 -269 0
-14 -270 0
-15 -271 0
-16 -272 0
-13 -289 0
-14 -290 0
-15 -291 0
-16 -292 0
-13 -309 0
-14 -310 0
-15 -311 0
-16 -312 0
-13 -325 0
-14 -326 0
-15 -327 0
-16 -328 0
-13 -533 0
-14 -534 0
-15 -535 0
-16 -536 0
-13 -557 0
-14 -558 0
-15 -559 0
-16 -560 0
-13 -913 0
-14 -914 0
-15 -915 0
-16 -916 0
-13 -937 0
-14 -938 0
-15 -939 0
-16 -940 0
-13 -1145 0
-14 -1146 0
-15 -1147 0
-16 -1148 0
-13 -1161 0
-14 -1162 0
-15 -1163 0
-16 -1164 0
-13 -1257 0
-14 -1258 0
-15 -1259 0
-16 -1260 0
-13 -1277 0
-14 -1278 0
-15 -1279 0
-16 -1280 0
-13 -1321 0
-14 -1322 0
-15 -1323 0
-16 -1324 0
-13 -1365 0
-14 -1366 0
-15 -1367 0
-16 -1368 0
-13 -1381 0
-14 -1382 0
-15 -1383 0
-16 -1384 0
-17 -21 0
-18 -22 0
-19 -23 0
-20 -24 0
-17 -93 0
-18 -94 0
-19 -95 0
-20 -96 0
-17 -153 0
-18 -154 0
-19 -155 0
-20 -156 0
-17 -185 0
-18 -186 0
-19 -187 0
-20 -188 0
-17 -273 0
-18 -274 0
-19 -275 0
-20 -276 0
-17 -293 0
-18 -294 0
-19 -295 0
-20 -296 0
-17 -313 0
-18 -314 0
-19 -315 0
-20 -316 0
-17 -329 0
-18 -330 0
-19 -331 0
-20 -332 0
-17 -537 0
-18 -538 0
-19 -539 0
-20 -540 0
-17 -561 0
-18 -562 0
-19 -563 0
-20 -564 0
-17 -917 0
-18 -918 0
-19 -919 0
-20 -920 0
-17 -941 0
-18 -942 0
-19 -943 0
-20 -944 0
-17 -1149 0
-18 -1150 0
-19 -1151 0
-20 -1152 0
-17 -1165 0
-18 -1166 0
-19 -1167 0
-20 -1168 0
-17 -1261 0
-18 -1262 0
-19 -1263 0
-20 -1264 0
-17 -1281 0
-18 -1282 0
-19 -1283 0
-20 -1284 0
-17 -1293 0
-18 -1294 0
-19 -1295 0
-20 -1296 0
-17 -1325 0
-18 -1326 0
-19 -1327 0
-20 -1328 0
-17 -1385 0
-18 -1386 0
-19 -1387 0
-20 -1388 0
-21 -25 0
-22 -26 0
-23 -27 0
-24 -28 0
-21 -97 0
-22 -98 0
-23 -99 0
-24 -100 0
-21 -157 0
-22 -158 0
-23 -159 0
-24 -160 0
-21 -189 0
-22 -190 0
-23 -191 0
-24 -192 0
-21 -277 0
-22 -278 0
-23 -279 0
-24 -280 0
-21 -297 0
-22 -298 0
-23 -299 0
-24 -300 0
-21 -317 0
-22 -318 0
-23 -319 0
-24 -320 0
-21 -333 0
-22 -334 0
-23 -335 0
-24 -336 0
-21 -541 0
-22 -542 0
-23 -543 0
-24 -544 0
-21 -565 0
-22 -566 0
-23 -567 0
-24 -568 0
-21 -921 0
-22 -922 0
-23 -923 0
-24 -924 0
-21 -945 0
-22 -946 0
-23 -947 0
-24 -948 0
-21 -1153 0
-22 -1154 0
-23 -1155 0
-24 -1156 0
-21 -1169 0
-22 -1170 0
-23 -1171 0
-24 -1172 0
-21 -1265 0
-22 -1266 0
-23 -1267 0
-24 -1268 0
-21 -1285 0
-22 -1286 0
-23 -1287 0
-24 -1288 0
-21 -1297 0
-22 -1298 0
-23 -1299 0
-24 -1300 0
-21 -1329 0
-22 -1330 0
-23 -1331 0
-24 -1332 0
-21 -1389 0
-22 -1390 0
-23 -1391 0
-24 -1392 0
-25 -29 0
-26 -30 0
-27 -31 0
-28 -32 0
-25 -101 0
-26 -102 0
-27 -103 0
-28 -104 0
-25 -161 0
-26 -162 0
-27 -163 0
-28 -164 0
-25 -193 0
-26 -194 0
-27 -195 0
-28 -196 0
-25 -281 0
-26 -282 0
-27 -283 0
-28 -284 0
-25 -301 0
-26 -302 0
-27 -303 0
-28 -304 0
-25 -321 0
-26 -322 0
-27 -323 0
-28 -324 0
-25 -337 0
-26 -338 0
-27 -339 0
-28 -340 0
-25 -545 0
-26 -546 0
-27 -547 0
-28 -548 0
-25 -569 0
-26 -570 0
-27 -571 0
-28 -572 0
-25 -925 0
-26 -926 0
-27 -927 0
-28 -928 0
-25 -949 0
-26 -950 0
-27 -951 0
-28 -952 0
-25 -1157 0
-26 -1158 0
-27 -1159 0
-28 -1160 0
-25 -1173 0
-26 -1174 0
-27 -1175 0
-28 -1176 0
-25 -1269 0
-26 -1270 0
-27 -1271 0
-28 -1272 0
-25 -1289 0
-26 -1290 0
-27 -1291 0
-28 -1292 0
-25 -1301 0
-26 -1302 0
-27 -1303 0
-28 -1304 0
-25 -1333 0
-26 -1334 0
-27 -1335 0
-28 -1336 0
-25 -1393 0
-26 -1394 0
-27 -1395 0
-28 -1396 0
-29 -33 0
-30 -34 0
-31 -35 0
-32 -36 0
-29 -105 0
-30 -106 0
-31 -107 0
-32 -108 0
-29 -165 0
-30 -166 0
-31 -167 0
-32 -168 0
-29 -197 0
-30 -198 0
-31 -199 0
-32 -200 0
-29 -229 0
-30 -230 0
-31 -231 0
-32 -232 0
-29 -285 0
-30 -286 0
-31 -287 0
-32 -288 0
-29 -325 0
-30 -326 0
-31 -327 0
-32 -328 0
-29 -341 0
-30 -342 0
-31 -343 0
-32 -344 0
-29 -549 0
-30 -550 0
-31 -551 0
-32 -552 0
-29 -573 0
-30 -574 0
-31 -575 0
-32 -576 0
-29 -929 0
-30 -930 0
-31 -931 0
-32 -932 0
-29 -953 0
-30 -954 0
-31 -955 0
-32 -956 0
-29 -1161 0
-30 -1162 0
-31 -1163 0
-32 -1164 0
-29 -1177 0
-30 -1178 0
-31 -1179 0
-32 -1180 0
-29 -1217 0
-30 -1218 0
-31 -1219 0
-32 -1220 0
-29 -1273 0
-30 -1274 0
-31 -1275 0
-32 -1276 0
-29 -1305 0
-30 -1306 0
-31 -1307 0
-32 -1308 0
-29 -1337 0
-30 -1338 0
-31 -1339 0
-32 -1340 0
-29 -1397 0
-30 -1398 0
-31 -1399 0
-32 -1400 0
-33 -37 0
-34 -38 0
-35 -39 0
-36 -40 0
-33 -109 0
-34 -110 0
-35 -111 0
-36 -112 0
-33 -169 0
-34 -170 0
-35 -171 0
-36 -172 0
-33 -201 0
-34 -202 0
-35 -203 0
-36 -204 0
-33 -233 0
-34 -234 0
-35 -235 0
-36 -236 0
-33 -289 0
-34 -290 0
-35 -291 0
-36 -292 0
-33 -329 0
-34 -330 0
-35 -331 0
-36 -332 0
-33 -345 0
-34 -346 0
-35 -347 0
-36 -348 0
-33 -553 0
-34 -554 0
-35 -555 0
-36 -556 0
-33 -577 0
-34 -578 0
-35 -579 0
-36 -580 0
-33 -933 0
-34 -934 0
-35 -935 0
-36 -936 0
-33 -957 0
-34 -958 0
-35 -959 0
-36 -960 0
-33 -1165 0
-34 -1166 0
-35 -1167 0
-36 -1168 0
-33 -1181 0
-34 -1182 0
-35 -1183 0
-36 -1184 0
-33 -1221 0
-34 -1222 0
-35 -1223 0
-36 -1224 0
-33 -1277 0
-34 -1278 0
-35 -1279 0
-36 -1280 0
-33 -1309 0
-34 -1310 0
-35 -1311 0
-36 -1312 0
-33 -1341 0
-34 -1342 0
-35 -1343 0
-36 -1344 0
-33 -1401 0
-34 -1402 0
-35 -1403 0
-36 -1404 0
-37 -41 0
-38 -42 0
-39 -43 0
-40 -44 0
-37 -113 0
-38 -114 0
-39 -115 0
-40 -116 0
-37 -173 0
-38 -174 0
-39 -175 0
-40 -176 0
-37 -205 0
-38 -206 0
-39 -207 0
-40 -208 0
-37 -237 0
-38 -238 0
-39 -239 0
-40 -240 0
-37 -293 0
-38 -294 0
-39 -295 0
-40 -296 0
-37 -333 0
-38 -334 0
-39 -335 0
-40 -336 0
-37 -349 0
-38 -350 0
-39 -351 0
-40 -352 0
-37 -557 0
-38 -558 0
-39 -559 0
-40 -560 0
-37 -581 0
-38 -582 0
-39 -583 0
-40 -584 0
-37 -937 0
-38 -938 0
-39 -939 0
-40 -940 0
-37 -961 0
-38 -962 0
-39 -963 0
-40 -964 0
-37 -1169 0
-38 -1170 0
-39 -1171 0
-40 -1172 0
-37 -1185 0
-38 -1186 0
-39 -1187 0
-40 -1188 0
-37 -1225 0
-38 -1226 0
-39 -1227 0
-40 -1228 0
-37 -1281 0
-38 -1282 0
-39 -1283 0
-40 -1284 0
-37 -1313 0
-38 -1314 0
-39 -1315 0
-40 -1316 0
-37 -1345 0
-38 -1346 0
-39 -1347 0
-40 -1348 0
-37 -1405 0
-38 -1406 0
-39 -1407 0
-40 -1408 0
-41 -45 0
-42 -46 0
-43 -47 0
-44 -48 0
-41 -117 0
-42 -118 0
-43 -119 0
-44 -120 0
-41 -177 0
-42 -178 0
-43 -179 0
-44 -180 0
-41 -209 0
-42 -210 0
-43 -211 0
-44 -212 0
-41 -241 0
-42 -242 0
-43 -243 0
-44 -244 0
-41 -297 0
-42 -298 0
-43 -299 0
-44 -300 0
-41 -337 0
-42 -338 0
-43 -339 0
-44 -340 0
-41 -353 0
-42 -354 0
-43 -355 0
-44 -356 0
-41 -561 0
-42 -562 0
-43 -563 0
-44 -564 0
-41 -585 0
-42 -586 0
-43 -587 0
-44 -588 0
-41 -941 0
-42 -942 0
-43 -943 0
-44 -944 0
-41 -965 0
-42 -966 0
-43 -967 0
-44 -968 0
-41 -1173 0
-42 -1174 0
-43 -1175 0
-44 -1176 0
-41 -1189 0
-42 -1190 0
-43 -1191 0
-44 -1192 0
-41 -1229 0
-42 -1230 0
-43 -1231 0
-44 -1232 0
-41 -1285 0
-42 -1286 0
-43 -1287 0
-44 -1288 0
-41 -1317 0
-42 -1318 0
-43 -1319 0
-44 -1320 0
-41 -1349 0
-42 -1350 0
-43 -1351 0
-44 -1352 0
-41 -1409 0
-42 -1410 0
-43 -1411 0
-44 -1412 0
-45 -49 0
-46 -50 0
-47 -51 0
-48 -52 0
-45 -121 0
-46 -122 0
-47 -123 0
-48 -124 0
-45 -181 0
-46 -182 0
-47 -183 0
-48 -184 0
-45 -213 0
-46 -214 0
-47 -215 0
-48 -216 0
-45 -245 0
-46 -246 0
-47 -247 0
-48 -248 0
-45 -301 0
-46 -302 0
-47 -303 0
-48 -304 0
-45 -341 0
-46 -342 0
-47 -343 0
-48 -344 0
-45 -357 0
-46 -358 0
-47 -359 0
-48 -360 0
-45 -565 0
-46 -566 0
-47 -567 0
-48 -568 0
-45 -589 0
-46 -590 0
-47 -591 0
-48 -592 0
-45 -945 0
-46 -946 0
-47 -947 0
-48 -948 0
-45 -969 0
-46 -970 0
-47 -971 0
-48 -972 0
-45 -1177 0
-46 -1178 0
-47 -1179 0
-48 -1180 0
-45 -1193 0
-46 -1194 0
-47 -1195 0
-48 -1196 0
-45 -1233 0
-46 -1234 0
-47 -1235 0
-48 -1236 0
-45 -1289 0
-46 -1290 0
-47 -1291 0
-48 -1292 0
-45 -1321 0
-46 -1322 0
-47 -1323 0
-48 -1324 0
-45 -1353 0
-46 -1354 0
-47 -1355 0
-48 -1356 0
-45 -1413 0
-46 -1414 0
-47 -1415 0
-48 -1416 0
-49 -53 0
-50 -54 0
-51 -55 0
-52 -56 0
-49 -125 0
-50 -126 0
-51 -127 0
-52 -128 0
-49 -185 0
-50 -186 0
-51 -187 0
-52 -188 0
-49 -217 0
-50 -218 0
-51 -219 0
-52 -220 0
-49 -229 0
-50 -230 0
-51 -231 0
-52 -232 0
-49 -249 0
-50 -250 0
-51 -251 0
-52 -252 0
-49 -345 0
-50 -346 0
-51 -347 0
-52 -348 0
-49 -361 0
-50 -362 0
-51 -363 0
-52 -364 0
-49 -569 0
-50 -570 0
-51 -571 0
-52 -572 0
-49 -593 0
-50 -594 0
-51 -595 0
-52 -596 0
-49 -949 0
-50 -950 0
-51 -951 0
-52 -952 0
-49 -973 0
-50 -974 0
-51 -975 0
-52 -976 0
-49 -1181 0
-50 -1182 0
-51 -1183 0
-52 -1184 0
-49 -1197 0
-50 -1198 0
-51 -1199 0
-52 -1200 0
-49 -1217 0
-50 -1218 0
-51 -1219 0
-52 -1220 0
-49 -1237 0
-50 -1238 0
-51 -1239 0
-52 -1240 0
-49 -1325 0
-50 -1326 0
-51 -1327 0
-52 -1328 0
-49 -1357 0
-50 -1358 0
-51 -1359 0
-52 -1360 0
-49 -1417 0
-50 -1418 0
-51 -1419 0
-52 -1420 0
-53 -57 0
-54 -58 0
-55 -59 0
-56 -60 0
-53 -129 0
-54 -130 0
-55 -131 0
-56 -132 0
-53 -189 0
-54 -190 0
-55 -191 0
-56 -192 0
-53 -221 0
-54 -222 0
-55 -223 0
-56 -224 0
-53 -233 0
-54 -234 0
-55 -235 0
-56 -236 0
-53 -253 0
-54 -254 0
-55 -255 0
-56 -256 0
-53 -349 0
-54 -350 0
-55 -351 0
-56 -352 0
-53 -365 0
-54 -366 0
-55 -367 0
-56 -368 0
-53 -573 0
-54 -574 0
-55 -575 0
-56 -576 0
-53 -597 0
-54 -598 0
-55 -599 0
-56 -600 0
-53 -953 0
-54 -954 0
-55 -955 0
-56 -956 0
-53 -977 0
-54 -978 0
-55 -979 0
-56 -980 0
-53 -1185 0
-54 -1186 0
-55 -1187 0
-56 -1188 0
-53 -1201 0
-54 -1202 0
-55 -1203 0
-56 -1204 0
-53 -1221 0
-54 -1222 0
-55 -1223 0
-56 -1224 0
-53 -1241 0
-54 -1242 0
-55 -1243 0
-56 -1244 0
-53 -1329 0
-54 -1330 0
-55 -1331 0
-56 -1332 0
-53 -1361 0
-54 -1362 0
-55 -1363 0
-56 -1364 0
-53 -1421 0
-54 -1422 0
-55 -1423 0
-56 -1424 0
-57 -61 0
-58 -62 0
-59 -63 0
-60 -64 0
-57 -133 0
-58 -134 0
-59 -135 0
-60 -136 0
-57 -193 0
-58 -194 0
-59 -195 0
-60 -196 0
-57 -225 0
-58 -226 0
-59 -227 0
-60 -228 0
-57 -237 0
-58 -238 0
-59 -239 0
-60 -240 0
-57 -257 0
-58 -258 0
-59 -259 0
-60 -260 0
-57 -353 0
-58 -354 0
-59 -355 0
-60 -356 0
-57 -369 0
-58 -370 0
-59 -371 0
-60 -372 0
-57 -577 0
-58 -578 0
-59 -579 0
-60 -580 0
-57 -601 0
-58 -602 0
-59 -603 0
-60 -604 0
-57 -957 0
-58 -958 0
-59 -959 0
-60 -960 0
-57 -981 0
-58 -982 0
-59 -983 0
-60 -984 0
-57 -1189 0
-58 -1190 0
-59 -1191 0
-60 -1192 0
-57 -1205 0
-58 -1206 0
-59 -1207 0
-60 -1208 0
-57 -1225 0
-58 -1226 0
-59 -1227 0
-60 -1228 0
-57 -1245 0
-58 -1246 0
-59 -1247 0
-60 -1248 0
-57 -1333 0
-58 -1334 0
-59 -1335 0
-60 -1336 0
-57 -1365 0
-58 -1366 0
-59 -1367 0
-60 -1368 0
-57 -1425 0
-58 -1426 0
-59 -1427 0
-60 -1428 0
-61 -65 0
-62 -66 0
-63 -67 0
-64 -68 0
-61 -137 0
-62 -138 0
-63 -139 0
-64 -140 0
-61 -153 0
-62 -154 0
-63 -155 0
-64 -156 0
-61 -197 0
-62 -198 0
-63 -199 0
-64 -200 0
-61 -241 0
-62 -242 0
-63 -243 0
-64 -244 0
-61 -261 0
-62 -262 0
-63 -263 0
-64 -264 0
-61 -357 0
-62 -358 0
-63 -359 0
-64 -360 0
-61 -373 0
-62 -374 0
-63 -375 0
-64 -376 0
-61 -581 0
-62 -582 0
-63 -583 0
-64 -584 0
-61 -605 0
-62 -606 0
-63 -607 0
-64 -608 0
-61 -961 0
-62 -962 0
-63 -963 0
-64 -964 0
-61 -985 0
-62 -986 0
-63 -987 0
-64 -988 0
-61 -1193 0
-62 -1194 0
-63 -1195 0
-64 -1196 0
-61 -1209 0
-62 -1210 0
-63 -1211 0
-64 -1212 0
-61 -1229 0
-62 -1230 0
-63 -1231 0
-64 -1232 0
-61 -1249 0
-62 -1250 0
-63 -1251 0
-64 -1252 0
-61 -1293 0
-62 -1294 0
-63 -1295 0
-64 -1296 0
-61 -1337 0
-62 -1338 0
-63 -1339 0
-64 -1340 0
-61 -1429 0
-62 -1430 0
-63 -1431 0
-64 -1432 0
-65 -69 0
-66 -70 0
-67 -71 0
-68 -72 0
-65 -141 0
-66 -142 0
-67 -143 0
-68 -144 0
-65 -157 0
-66 -158 0
-67 -159 0
-68 -160 0
-65 -201 0
-66 -202 0
-67 -203 0
-68 -204 0
-65 -245 0
-66 -246 0
-67 -247 0
-68 -248 0
-65 -265 0
-66 -266 0
-67 -267 0
-68 -268 0
-65 -361 0
-66 -362 0
-67 -363 0
-68 -364 0
-65 -377 0
-66 -378 0
-67 -379 0
-68 -380 0
-65 -533 0
-66 -534 0
-67 -535 0
-68 -536 0
-65 -585 0
-66 -586 0
-67 -587 0
-68 -588 0
-65 -913 0
-66 -914 0
-67 -915 0
-68 -916 0
-65 -965 0
-66 -966 0
-67 -967 0
-68 -968 0
-65 -1197 0
-66 -1198 0
-67 -1199 0
-68 -1200 0
-65 -1213 0
-66 -1214 0
-67 -1215 0
-68 -1216 0
-65 -1233 0
-66 -1234 0
-67 -1235 0
-68 -1236 0
-65 -1253 0
-66 -1254 0
-67 -1255 0
-68 -1256 0
-65 -1297 0
-66 -1298 0
-67 -1299 0
-68 -1300 0
-65 -1341 0
-66 -1342 0
-67 -1343 0
-68 -1344 0
-65 -1433 0
-66 -1434 0
-67 -1435 0
-68 -1436 0
-69 -73 0
-70 -74 0
-71 -75 0
-72 -76 0
-69 -145 0
-70 -146 0
-71 -147 0
-72 -148 0
-69 -161 0
-70 -162 0
-71 -163 0
-72 -164 0
-69 -205 0
-70 -206 0
-71 -207 0
-72 -208 0
-69 -249 0
-70 -250 0
-71 -251 0
-72 -252 0
-69 -269 0
-70 -270 0
-71 -271 0
-72 -272 0
-69 -305 0
-70 -306 0
-71 -307 0
-72 -308 0
-69 -365 0
-70 -366 0
-71 -367 0
-72 -368 0
-69 -537 0
-70 -538 0
-71 -539 0
-72 -540 0
-69 -589 0
-70 -590 0
-71 -591 0
-72 -592 0
-69 -917 0
-70 -918 0
-71 -919 0
-72 -920 0
-69 -969 0
-70 -970 0
-71 -971 0
-72 -972 0
-69 -1141 0
-70 -1142 0
-71 -1143 0
-72 -1144 0
-69 -1201 0
-70 -1202 0
-71 -1203 0
-72 -1204 0
-69 -1237 0
-70 -1238 0
-71 -1239 0
-72 -1240 0
-69 -1257 0
-70 -1258 0
-71 -1259 0
-72 -1260 0
-69 -1301 0
-70 -1302 0
-71 -1303 0
-72 -1304 0
-69 -1345 0
-70 -1346 0
-71 -1347 0
-72 -1348 0
-69 -1437 0
-70 -1438 0
-71 -1439 0
-72 -1440 0
-73 -149 0
-74 -150 0
-75 -151 0
-76 -152 0
-73 -165 0
-74 -166 0
-75 -167 0
-76 -168 0
-73 -209 0
-74 -210 0
-75 -211 0
-76 -212 0
-73 -253 0
-74 -254 0
-75 -255 0
-76 -256 0
-73 -273 0
-74 -274 0
-75 -275 0
-76 -276 0
-73 -309 0
-74 -310 0
-75 -311 0
-76 -312 0
-73 -369 0
-74 -370 0
-75 -371 0
-76 -372 0
-73 -541 0
-74 -542 0
-75 -543 0
-76 -544 0
-73 -593 0
-74 -594 0
-75 -595 0
-76 -596 0
-73 -921 0
-74 -922 0
-75 -923 0
-76 -924 0
-73 -973 0
-74 -974 0
-75 -975 0
-76 -976 0
-73 -1145 0
-74 -1146 0
-75 -1147 0
-76 -1148 0
-73 -1205 0
-74 -1206 0
-75 -1207 0
-76 -1208 0
-73 -1241 0
-74 -1242 0
-75 -1243 0
-76 -1244 0
-73 -1261 0
-74 -1262 0
-75 -1263 0
-76 -1264 0
-73 -1305 0
-74 -1306 0
-75 -1307 0
-76 -1308 0
-73 -1349 0
-74 -1350 0
-75 -1351 0
-76 -1352 0
-73 -1441 0
-74 -1442 0
-75 -1443 0
-76 -1444 0
-77 -81 0
-78 -82 0
-79 -83 0
-80 -84 0
-77 -149 0
-78 -150 0
-79 -151 0
-80 -152 0
-77 -153 0
-78 -154 0
-79 -155 0
-80 -156 0
-77 -245 0
-78 -246 0
-79 -247 0
-80 -248 0
-77 -289 0
-78 -290 0
-79 -291 0
-80 -292 0
-77 -333 0
-78 -334 0
-79 -335 0
-80 -336 0
-77 -353 0
-78 -354 0
-79 -355 0
-80 -356 0
-77 -389 0
-78 -390 0
-79 -391 0
-80 -392 0
-77 -449 0
-78 -450 0
-79 -451 0
-80 -452 0
-77 -621 0
-78 -622 0
-79 -623 0
-80 -624 0
-77 -673 0
-78 -674 0
-79 -675 0
-80 -676 0
-77 -1001 0
-78 -1002 0
-79 -1003 0
-80 -1004 0
-77 -1053 0
-78 -1054 0
-79 -1055 0
-80 -1056 0
-77 -1225 0
-78 -1226 0
-79 -1227 0
-80 -1228 0
-77 -1285 0
-78 -1286 0
-79 -1287 0
-80 -1288 0
-77 -1321 0
-78 -1322 0
-79 -1323 0
-80 -1324 0
-77 -1341 0
-78 -1342 0
-79 -1343 0
-80 -1344 0
-77 -1385 0
-78 -1386 0
-79 -1387 0
-80 -1388 0
-77 -1429 0
-78 -1430 0
-79 -1431 0
-80 -1432 0
-81 -85 0
-82 -86 0
-83 -87 0
-84 -88 0
-81 -157 0
-82 -158 0
-83 -159 0
-84 -160 0
-81 -249 0
-82 -250 0
-83 -251 0
-84 -252 0
-81 -293 0
-82 -294 0
-83 -295 0
-84 -296 0
-81 -337 0
-82 -338 0
-83 -339 0
-84 -340 0
-81 -357 0
-82 -358 0
-83 -359 0
-84 -360 0
-81 -393 0
-82 -394 0
-83 -395 0
-84 -396 0
-81 -453 0
-82 -454 0
-83 -455 0
-84 -456 0
-81 -625 0
-82 -626 0
-83 -627 0
-84 -628 0
-81 -677 0
-82 -678 0
-83 -679 0
-84 -680 0
-81 -1005 0
-82 -1006 0
-83 -1007 0
-84 -1008 0
-81 -1057 0
-82 -1058 0
-83 -1059 0
-84 -1060 0
-81 -1229 0
-82 -1230 0
-83 -1231 0
-84 -1232 0
-81 -1289 0
-82 -1290 0
-83 -1291 0
-84 -1292 0
-81 -1325 0
-82 -1326 0
-83 -1327 0
-84 -1328 0
-81 -1345 0
-82 -1346 0
-83 -1347 0
-84 -1348 0
-81 -1389 0
-82 -1390 0
-83 -1391 0
-84 -1392 0
-81 -1433 0
-82 -1434 0
-83 -1435 0
-84 -1436 0
-85 -89 0
-86 -90 0
-87 -91 0
-88 -92 0
-85 -161 0
-86 -162 0
-87 -163 0
-88 -164 0
-85 -253 0
-86 -254 0
-87 -255 0
-88 -256 0
-85 -297 0
-86 -298 0
-87 -299 0
-88 -300 0
-85 -341 0
-86 -342 0
-87 -343 0
-88 -344 0
-85 -361 0
-86 -362 0
-87 -363 0
-88 -364 0
-85 -381 0
-86 -382 0
-87 -383 0
-88 -384 0
-85 -397 0
-86 -398 0
-87 -399 0
-88 -400 0
-85 -629 0
-86 -630 0
-87 -631 0
-88 -632 0
-85 -681 0
-86 -682 0
-87 -683 0
-88 -684 0
-85 -1009 0
-86 -1010 0
-87 -1011 0
-88 -1012 0
-85 -1061 0
-86 -1062 0
-87 -1063 0
-88 -1064 0
-85 -1217 0
-86 -1218 0
-87 -1219 0
-88 -1220 0
-85 -1233 0
-86 -1234 0
-87 -1235 0
-88 -1236 0
-85 -1329 0
-86 -1330 0
-87 -1331 0
-88 -1332 0
-85 -1349 0
-86 -1350 0
-87 -1351 0
-88 -1352 0
-85 -1393 0
-86 -1394 0
-87 -1395 0
-88 -1396 0
-85 -1437 0
-86 -1438 0
-87 -1439 0
-88 -1440 0
-89 -93 0
-90 -94 0
-91 -95 0
-92 -96 0
-89 -165 0
-90 -166 0
-91 -167 0
-92 -168 0
-89 -257 0
-90 -258 0
-91 -259 0
-92 -260 0
-89 -301 0
-90 -302 0
-91 -303 0
-92 -304 0
-89 -345 0
-90 -346 0
-91 -347 0
-92 -348 0
-89 -365 0
-90 -366 0
-91 -367 0
-92 -368 0
-89 -385 0
-90 -386 0
-91 -387 0
-92 -388 0
-89 -401 0
-90 -402 0
-91 -403 0
-92 -404 0
-89 -609 0
-90 -610 0
-91 -611 0
-92 -612 0
-89 -633 0
-90 -634 0
-91 -635 0
-92 -636 0
-89 -989 0
-90 -990 0
-91 -991 0
-92 -992 0
-89 -1013 0
-90 -1014 0
-91 -1015 0
-92 -1016 0
-89 -1221 0
-90 -1222 0
-91 -1223 0
-92 -1224 0
-89 -1237 0
-90 -1238 0
-91 -1239 0
-92 -1240 0
-89 -1333 0
-90 -1334 0
-91 -1335 0
-92 -1336 0
-89 -1353 0
-90 -1354 0
-91 -1355 0
-92 -1356 0
-89 -1397 0
-90 -1398 0
-91 -1399 0
-92 -1400 0
-89 -1441 0
-90 -1442 0
-91 -1443 0
-92 -1444 0
-93 -97 0
-94 -98 0
-95 -99 0
-96 -100 0
-93 -169 0
-94 -170 0
-95 -171 0
-96 -172 0
-93 -229 0
-94 -230 0
-95 -231 0
-96 -232 0
-93 -261 0
-94 -262 0
-95 -263 0
-96 -264 0
-93 -349 0
-94 -350 0
-95 -351 0
-96 -352 0
-93 -369 0
-94 -370 0
-95 -371 0
-96 -372 0
-93 -389 0
-94 -390 0
-95 -391 0
-96 -392 0
-93 -405 0
-94 -406 0
-95 -407 0
-96 -408 0
-93 -613 0
-94 -614 0
-95 -615 0
-96 -616 0
-93 -637 0
-94 -638 0
-95 -639 0
-96 -640 0
-93 -993 0
-94 -994 0
-95 -995 0
-96 -996 0
-93 -1017 0
-94 -1018 0
-95 -1019 0
-96 -1020 0
-93 -1225 0
-94 -1226 0
-95 -1227 0
-96 -1228 0
-93 -1241 0
-94 -1242 0
-95 -1243 0
-96 -1244 0
-93 -1337 0
-94 -1338 0
-95 -1339 0
-96 -1340 0
-93 -1357 0
-94 -1358 0
-95 -1359 0
-96 -1360 0
-93 -1369 0
-94 -1370 0
-95 -1371 0
-96 -1372 0
-93 -1401 0
-94 -1402 0
-95 -1403 0
-96 -1404 0
-97 -101 0
-98 -102 0
-99 -103 0
-100 -104 0
-97 -173 0
-98 -174 0
-99 -175 0
-100 -176 0
-97 -233 0
-98 -234 0
-99 -235 0
-100 -236 0
-97 -265 0
-98 -266 0
-99 -267 0
-100 -268 0
-97 -353 0
-98 -354 0
-99 -355 0
-100 -356 0
-97 -373 0
-98 -374 0
-99 -375 0
-100 -376 0
-97 -393 0
-98 -394 0
-99 -395 0
-100 -396 0
-97 -409 0
-98 -410 0
-99 -411 0
-100 -412 0
-97 -617 0
-98 -618 0
-99 -619 0
-100 -620 0
-97 -641 0
-98 -642 0
-99 -643 0
-100 -644 0
-97 -997 0
-98 -998 0
-99 -999 0
-100 -1000 0
-97 -1021 0
-98 -1022 0
-99 -1023 0
-100 -1024 0
-97 -1229 0
-98 -1230 0
-99 -1231 0
-100 -1232 0
-97 -1245 0
-98 -1246 0
-99 -1247 0
-100 -1248 0
-97 -1341 0
-98 -1342 0
-99 -1343 0
-100 -1344 0
-97 -1361 0
-98 -1362 0
-99 -1363 0
-100 -1364 0
-97 -1373 0
-98 -1374 0
-99 -1375 0
-100 -1376 0
-97 -1405 0
-98 -1406 0
-99 -1407 0
-100 -1408 0
-101 -105 0
-102 -106 0
-103 -107 0
-104 -108 0
-101 -177 0
-102 -178 0
-103 -179 0
-104 -180 0
-101 -237 0
-102 -238 0
-103 -239 0
-104 -240 0
-101 -269 0
-102 -270 0
-103 -271 0
-104 -272 0
-101 -357 0
-102 -358 0
-103 -359 0
-104 -360 0
-101 -377 0
-102 -378 0
-103 -379 0
-104 -380 0
-101 -397 0
-102 -398 0
-103 -399 0
-104 -400 0
-101 -413 0
-102 -414 0
-103 -415 0
-104 -416 0
-101 -621 0
-102 -622 0
-103 -623 0
-104 -624 0
-101 -645 0
-102 -646 0
-103 -647 0
-104 -648 0
-101 -1001 0
-102 -1002 0
-103 -1003 0
-104 -1004 0
-101 -1025 0
-102 -1026 0
-103 -1027 0
-104 -1028 0
-101 -1233 0
-102 -1234 0
-103 -1235 0
-104 -1236 0
-101 -1249 0
-102 -1250 0
-103 -1251 0
-104 -1252 0
-101 -1345 0
-102 -1346 0
-103 -1347 0
-104 -1348 0
-101 -1365 0
-102 -1366 0
-103 -1367 0
-104 -1368 0
-101 -1377 0
-102 -1378 0
-103 -1379 0
-104 -1380 0
-101 -1409 0
-102 -1410 0
-103 -1411 0
-104 -1412 0
-105 -109 0
-106 -110 0
-107 -111 0
-108 -112 0
-105 -181 0
-106 -182 0
-107 -183 0
-108 -184 0
-105 -241 0
-106 -242 0
-107 -243 0
-108 -244 0
-105 -273 0
-106 -274 0
-107 -275 0
-108 -276 0
-105 -305 0
-106 -306 0
-107 -307 0
-108 -308 0
-105 -361 0
-106 -362 0
-107 -363 0
-108 -364 0
-105 -401 0
-106 -402 0
-107 -403 0
-108 -404 0
-105 -417 0
-106 -418 0
-107 -419 0
-108 -420 0
-105 -625 0
-106 -626 0
-107 -627 0
-108 -628 0
-105 -649 0
-106 -650 0
-107 -651 0
-108 -652 0
-105 -1005 0
-106 -1006 0
-107 -1007 0
-108 -1008 0
-105 -1029 0
-106 -1030 0
-107 -1031 0
-108 -1032 0
-105 -1237 0
-106 -1238 0
-107 -1239 0
-108 -1240 0
-105 -1253 0
-106 -1254 0
-107 -1255 0
-108 -1256 0
-105 -1293 0
-106 -1294 0
-107 -1295 0
-108 -1296 0
-105 -1349 0
-106 -1350 0
-107 -1351 0
-108 -1352 0
-105 -1381 0
-106 -1382 0
-107 -1383 0
-108 -1384 0
-105 -1413 0
-106 -1414 0
-107 -1415 0
-108 -1416 0
-109 -113 0
-110 -114 0
-111 -115 0
-112 -116 0
-109 -185 0
-110 -186 0
-111 -187 0
-112 -188 0
-109 -245 0
-110 -246 0
-111 -247 0
-112 -248 0
-109 -277 0
-110 -278 0
-111 -279 0
-112 -280 0
-109 -309 0
-110 -310 0
-111 -311 0
-112 -312 0
-109 -365 0
-110 -366 0
-111 -367 0
-112 -368 0
-109 -405 0
-110 -406 0
-111 -407 0
-112 -408 0
-109 -421 0
-110 -422 0
-111 -423 0
-112 -424 0
-109 -629 0
-110 -630 0
-111 -631 0
-112 -632 0
-109 -653 0
-110 -654 0
-111 -655 0
-112 -656 0
-109 -1009 0
-110 -1010 0
-111 -1011 0
-112 -1012 0
-109 -1033 0
-110 -1034 0
-111 -1035 0
-112 -1036 0
-109 -1241 0
-110 -1242 0
-111 -1243 0
-112 -1244 0
-109 -1257 0
-110 -1258 0
-111 -1259 0
-112 -1260 0
-109 -1297 0
-110 -1298 0
-111 -1299 0
-112 -1300 0
-109 -1353 0
-110 -1354 0
-111 -1355 0
-112 -1356 0
-109 -1385 0
-110 -1386 0
-111 -1387 0
-112 -1388 0
-109 -1417 0
-110 -1418 0
-111 -1419 0
-112 -1420 0
-113 -117 0
-114 -118 0
-115 -119 0
-116 -120 0
-113 -189 0
-114 -190 0
-115 -191 0
-116 -192 0
-113 -249 0
-114 -250 0
-115 -251 0
-116 -252 0
-113 -281 0
-114 -282 0
-115 -283 0
-116 -284 0
-113 -313 0
-114 -314 0
-115 -315 0
-116 -316 0
-113 -369 0
-114 -370 0
-115 -371 0
-116 -372 0
-113 -409 0
-114 -410 0
-115 -411 0
-116 -412 0
-113 -425 0
-114 -426 0
-115 -427 0
-116 -428 0
-113 -633 0
-114 -634 0
-115 -635 0
-116 -636 0
-113 -657 0
-114 -658 0
-115 -659 0
-116 -660 0
-113 -1013 0
-114 -1014 0
-115 -1015 0
-116 -1016 0
-113 -1037 0
-114 -1038 0
-115 -1039 0
-116 -1040 0
-113 -1245 0
-114 -1246 0
-115 -1247 0
-116 -1248 0
-113 -1261 0
-114 -1262 0
-115 -1263 0
-116 -1264 0
-113 -1301 0
-114 -1302 0
-115 -1303 0
-116 -1304 0
-113 -1357 0
-114 -1358 0
-115 -1359 0
-116 -1360 0
-113 -1389 0
-114 -1390 0
-115 -1391 0
-116 -1392 0
-113 -1421 0
-114 -1422 0
-115 -1423 0
-116 -1424 0
-117 -121 0
-118 -122 0
-119 -123 0
-120 -124 0
-117 -193 0
-118 -194 0
-119 -195 0
-120 -196 0
-117 -253 0
-118 -254 0
-119 -255 0
-120 -256 0
-117 -285 0
-118 -286 0
-119 -287 0
-120 -288 0
-117 -317 0
-118 -318 0
-119 -319 0
-120 -320 0
-117 -373 0
-118 -374 0
-119 -375 0
-120 -376 0
-117 -413 0
-118 -414 0
-119 -415 0
-120 -416 0
-117 -429 0
-118 -430 0
-119 -431 0
-120 -432 0
-117 -637 0
-118 -638 0
-119 -639 0
-120 -640 0
-117 -661 0
-118 -662 0
-119 -663 0
-120 -664 0
-117 -1017 0
-118 -1018 0
-119 -1019 0
-120 -1020 0
-117 -1041 0
-118 -1042 0
-119 -1043 0
-120 -1044 0
-117 -1249 0
-118 -1250 0
-119 -1251 0
-120 -1252 0
-117 -1265 0
-118 -1266 0
-119 -1267 0
-120 -1268 0
-117 -1305 0
-118 -1306 0
-119 -1307 0
-120 -1308 0
-117 -1361 0
-118 -1362 0
-119 -1363 0
-120 -1364 0
-117 -1393 0
-118 -1394 0
-119 -1395 0
-120 -1396 0
-117 -1425 0
-118 -1426 0
-119 -1427 0
-120 -1428 0
-121 -125 0
-122 -126 0
-123 -127 0
-124 -128 0
-121 -197 0
-122 -198 0
-123 -199 0
-124 -200 0
-121 -257 0
-122 -258 0
-123 -259 0
-124 -260 0
-121 -289 0
-122 -290 0
-123 -291 0
-124 -292 0
-121 -321 0
-122 -322 0
-123 -323 0
-124 -324 0
-121 -377 0
-122 -378 0
-123 -379 0
-124 -380 0
-121 -417 0
-122 -418 0
-123 -419 0
-124 -420 0
-121 -433 0
-122 -434 0
-123 -435 0
-124 -436 0
-121 -641 0
-122 -642 0
-123 -643 0
-124 -644 0
-121 -665 0
-122 -666 0
-123 -667 0
-124 -668 0
-121 -1021 0
-122 -1022 0
-123 -1023 0
-124 -1024 0
-121 -1045 0
-122 -1046 0
-123 -1047 0
-124 -1048 0
-121 -1253 0
-122 -1254 0
-123 -1255 0
-124 -1256 0
-121 -1269 0
-122 -1270 0
-123 -1271 0
-124 -1272 0
-121 -1309 0
-122 -1310 0
-123 -1311 0
-124 -1312 0
-121 -1365 0
-122 -1366 0
-123 -1367 0
-124 -1368 0
-121 -1397 0
-122 -1398 0
-123 -1399 0
-124 -1400 0
-121 -1429 0
-122 -1430 0
-123 -1431 0
-124 -1432 0
-125 -129 0
-126 -130 0
-127 -131 0
-128 -132 0
-125 -201 0
-126 -202 0
-127 -203 0
-128 -204 0
-125 -261 0
-126 -262 0
-127 -263 0
-128 -264 0
-125 -293 0
-126 -294 0
-127 -295 0
-128 -296 0
-125 -305 0
-126 -306 0
-127 -307 0
-128 -308 0
-125 -325 0
-126 -326 0
-127 -327 0
-128 -328 0
-125 -421 0
-126 -422 0
-127 -423 0
-128 -424 0
-125 -437 0
-126 -438 0
-127 -439 0
-128 -440 0
-125 -645 0
-126 -646 0
-127 -647 0
-128 -648 0
-125 -669 0
-126 -670 0
-127 -671 0
-128 -672 0
-125 -1025 0
-126 -1026 0
-127 -1027 0
-128 -1028 0
-125 -1049 0
-126 -1050 0
-127 -1051 0
-128 -1052 0
-125 -1257 0
-126 -1258 0
-127 -1259 0
-128 -1260 0
-125 -1273 0
-126 -1274 0
-127 -1275 0
-128 -1276 0
-125 -1293 0
-126 -1294 0
-127 -1295 0
-128 -1296 0
-125 -1313 0
-126 -1314 0
-127 -1315 0
-128 -1316 0
-125 -1401 0
-126 -1402 0
-127 -1403 0
-128 -1404 0
-125 -1433 0
-126 -1434 0
-127 -1435 0
-128 -1436 0
-129 -133 0
-130 -134 0
-131 -135 0
-132 -136 0
-129 -205 0
-130 -206 0
-131 -207 0
-132 -208 0
-129 -265 0
-130 -266 0
-131 -267 0
-132 -268 0
-129 -297 0
-130 -298 0
-131 -299 0
-132 -300 0
-129 -309 0
-130 -310 0
-131 -311 0
-132 -312 0
-129 -329 0
-130 -330 0
-131 -331 0
-132 -332 0
-129 -425 0
-130 -426 0
-131 -427 0
-132 -428 0
-129 -441 0
-130 -442 0
-131 -443 0
-132 -444 0
-129 -649 0
-130 -650 0
-131 -651 0
-132 -652 0
-129 -673 0
-130 -674 0
-131 -675 0
-132 -676 0
-129 -1029 0
-130 -1030 0
-131 -1031 0
-132 -1032 0
-129 -1053 0
-130 -1054 0
-131 -1055 0
-132 -1056 0
-129 -1261 0
-130 -1262 0
-131 -1263 0
-132 -1264 0
-129 -1277 0
-130 -1278 0
-131 -1279 0
-132 -1280 0
-129 -1297 0
-130 -1298 0
-131 -1299 0
-132 -1300 0
-129 -1317 0
-130 -1318 0
-131 -1319 0
-132 -1320 0
-129 -1405 0
-130 -1406 0
-131 -1407 0
-132 -1408 0
-129 -1437 0
-130 -1438 0
-131 -1439 0
-132 -1440 0
-133 -137 0
-134 -138 0
-135 -139 0
-136 -140 0
-133 -209 0
-134 -210 0
-135 -211 0
-136 -212 0
-133 -269 0
-134 -270 0
-135 -271 0
-136 -272 0
-133 -301 0
-134 -302 0
-135 -303 0
-136 -304 0
-133 -313 0
-134 -314 0
-135 -315 0
-136 -316 0
-133 -333 0
-134 -334 0
-135 -335 0
-136 -336 0
-133 -429 0
-134 -430 0
-135 -431 0
-136 -432 0
-133 -445 0
-134 -446 0
-135 -447 0
-136 -448 0
-133 -653 0
-134 -654 0
-135 -655 0
-136 -656 0
-133 -677 0
-134 -678 0
-135 -679 0
-136 -680 0
-133 -1033 0
-134 -1034 0
-135 -1035 0
-136 -1036 0
-133 -1057 0
-134 -1058 0
-135 -1059 0
-136 -1060 0
-133 -1265 0
-134 -1266 0
-135 -1267 0
-136 -1268 0
-133 -1281 0
-134 -1282 0
-135 -1283 0
-136 -1284 0
-133 -1301 0
-134 -1302 0
-135 -1303 0
-136 -1304 0
-133 -1321 0
-134 -1322 0
-135 -1323 0
-136 -1324 0
-133 -1409 0
-134 -1410 0
-135 -1411 0
-136 -1412 0
-133 -1441 0
-134 -1442 0
-135 -1443 0
-136 -1444 0
-137 -141 0
-138 -142 0
-139 -143 0
-140 -144 0
-137 -213 0
-138 -214 0
-139 -215 0
-140 -216 0
-137 -229 0
-138 -230 0
-139 -231 0
-140 -232 0
-137 -273 0
-138 -274 0
-139 -275 0
-140 -276 0
-137 -317 0
-138 -318 0
-139 -319 0
-140 -320 0
-137 -337 0
-138 -338 0
-139 -339 0
-140 -340 0
-137 -433 0
-138 -434 0
-139 -435 0
-140 -436 0
-137 -449 0
-138 -450 0
-139 -451 0
-140 -452 0
-137 -657 0
-138 -658 0
-139 -659 0
-140 -660 0
-137 -681 0
-138 -682 0
-139 -683 0
-140 -684 0
-137 -1037 0
-138 -1038 0
-139 -1039 0
-140 -1040 0
-137 -1061 0
-138 -1062 0
-139 -1063 0
-140 -1064 0
-137 -1269 0
-138 -1270 0
-139 -1271 0
-140 -1272 0
-137 -1285 0
-138 -1286 0
-139 -1287 0
-140 -1288 0
-137 -1305 0
-138 -1306 0
-139 -1307 0
-140 -1308 0
-137 -1325 0
-138 -1326 0
-139 -1327 0
-140 -1328 0
-137 -1369 0
-138 -1370 0
-139 -1371 0
-140 -1372 0
-137 -1413 0
-138 -1414 0
-139 -1415 0
-140 -1416 0
-141 -145 0
-142 -146 0
-143 -147 0
-144 -148 0
-141 -217 0
-142 -218 0
-143 -219 0
-144 -220 0
-141 -233 0
-142 -234 0
-143 -235 0
-144 -236 0
-141 -277 0
-142 -278 0
-143 -279 0
-144 -280 0
-141 -321 0
-142 -322 0
-143 -323 0
-144 -324 0
-141 -341 0
-142 -342 0
-143 -343 0
-144 -344 0
-141 -437 0
-142 -438 0
-143 -439 0
-144 -440 0
-141 -453 0
-142 -454 0
-143 -455 0
-144 -456 0
-141 -609 0
-142 -610 0
-143 -611 0
-144 -612 0
-141 -661 0
-142 -662 0
-143 -663 0
-144 -664 0
-141 -989 0
-142 -990 0
-143 -991 0
-144 -992 0
-141 -1041 0
-142 -1042 0
-143 -1043 0
-144 -1044 0
-141 -1273 0
-142 -1274 0
-143 -1275 0
-144 -1276 0
-141 -1289 0
-142 -1290 0
-143 -1291 0
-144 -1292 0
-141 -1309 0
-142 -1310 0
-143 -1311 0
-144 -1312 0
-141 -1329 0
-142 -1330 0
-143 -1331 0
-144 -1332 0
-141 -1373 0
-142 -1374 0
-143 -1375 0
-144 -1376 0
-141 -1417 0
-142 -1418 0
-143 -1419 0
-144 -1420 0
-145 -149 0
-146 -150 0
-147 -151 0
-148 -152 0
-145 -221 0
-146 -222 0
-147 -223 0
-148 -224 0
-145 -237 0
-146 -238 0
-147 -239 0
-148 -240 0
-145 -281 0
-146 -282 0
-147 -283 0
-148 -284 0
-145 -325 0
-146 -326 0
-147 -327 0
-148 -328 0
-145 -345 0
-146 -346 0
-147 -347 0
-148 -348 0
-145 -381 0
-146 -382 0
-147 -383 0
-148 -384 0
-145 -441 0
-146 -442 0
-147 -443 0
-148 -444 0
-145 -613 0
-146 -614 0
-147 -615 0
-148 -616 0
-145 -665 0
-146 -666 0
-147 -667 0
-148 -668 0
-145 -993 0
-146 -994 0
-147 -995 0
-148 -996 0
-145 -1045 0
-146 -1046 0
-147 -1047 0
-148 -1048 0
-145 -1217 0
-146 -1218 0
-147 -1219 0
-148 -1220 0
-145 -1277 0
-146 -1278 0
-147 -1279 0
-148 -1280 0
-145 -1313 0
-146 -1314 0
-147 -1315 0
-148 -1316 0
-145 -1333 0
-146 -1334 0
-147 -1335 0
-148 -1336 0
-145 -1377 0
-146 -1378 0
-147 -1379 0
-148 -1380 0
-145 -1421 0
-146 -1422 0
-147 -1423 0
-148 -1424 0
-149 -225 0
-150 -226 0
-151 -227 0
-152 -228 0
-149 -241 0
-150 -242 0
-151 -243 0
-152 -244 0
-149 -285 0
-150 -286 0
-151 -287 0
-152 -288 0
-149 -329 0
-150 -330 0
-151 -331 0
-152 -332 0
-149 -349 0
-150 -350 0
-151 -351 0
-152 -352 0
-149 -385 0
-150 -386 0
-151 -387 0
-152 -388 0
-149 -445 0
-150 -446 0
-151 -447 0
-152 -448 0
-149 -617 0
-150 -618 0
-151 -619 0
-152 -620 0
-149 -669 0
-150 -670 0
-151 -671 0
-152 -672 0
-149 -997 0
-150 -998 0
-151 -999 0
-152 -1000 0
-149 -1049 0
-150 -1050 0
-151 -1051 0
-152 -1052 0
-149 -1221 0
-150 -1222 0
-151 -1223 0
-152 -1224 0
-149 -1281 0
-150 -1282 0
-151 -1283 0
-152 -1284 0
-149 -1317 0
-150 -1318 0
-151 -1319 0
-152 -1320 0
-149 -1337 0
-150 -1338 0
-151 -1339 0
-152 -1340 0
-149 -1381 0
-150 -1382 0
-151 -1383 0
-152 -1384 0
-149 -1425 0
-150 -1426 0
-151 -1427 0
-152 -1428 0
-153 -157 0
-154 -158 0
-155 -159 0
-156 -160 0
-153 -225 0
-154 -226 0
-155 -227 0
-156 -228 0
-153 -229 0
-154 -230 0
-155 -231 0
-156 -232 0
-153 -321 0
-154 -322 0
-155 -323 0
-156 -324 0
-153 -365 0
-154 -366 0
-155 -367 0
-156 -368 0
-153 -409 0
-154 -410 0
-155 -411 0
-156 -412 0
-153 -429 0
-154 -430 0
-155 -431 0
-156 -432 0
-153 -465 0
-154 -466 0
-155 -467 0
-156 -468 0
-153 -525 0
-154 -526 0
-155 -527 0
-156 -528 0
-153 -697 0
-154 -698 0
-155 -699 0
-156 -700 0
-153 -749 0
-154 -750 0
-155 -751 0
-156 -752 0
-153 -1077 0
-154 -1078 0
-155 -1079 0
-156 -1080 0
-153 -1129 0
-154 -1130 0
-155 -1131 0
-156 -1132 0
-153 -1301 0
-154 -1302 0
-155 -1303 0
-156 -1304 0
-153 -1361 0
-154 -1362 0
-155 -1363 0
-156 -1364 0
-153 -1397 0
-154 -1398 0
-155 -1399 0
-156 -1400 0
-153 -1417 0
-154 -1418 0
-155 -1419 0
-156 -1420 0
-157 -161 0
-158 -162 0
-159 -163 0
-160 -164 0
-157 -233 0
-158 -234 0
-159 -235 0
-160 -236 0
-157 -325 0
-158 -326 0
-159 -327 0
-160 -328 0
-157 -369 0
-158 -370 0
-159 -371 0
-160 -372 0
-157 -413 0
-158 -414 0
-159 -415 0
-160 -416 0
-157 -433 0
-158 -434 0
-159 -435 0
-160 -436 0
-157 -469 0
-158 -470 0
-159 -471 0
-160 -472 0
-157 -529 0
-158 -530 0
-159 -531 0
-160 -532 0
-157 -701 0
-158 -702 0
-159 -703 0
-160 -704 0
-157 -753 0
-158 -754 0
-159 -755 0
-160 -756 0
-157 -1081 0
-158 -1082 0
-159 -1083 0
-160 -1084 0
-157 -1133 0
-158 -1134 0
-159 -1135 0
-160 -1136 0
-157 -1305 0
-158 -1306 0
-159 -1307 0
-160 -1308 0
-157 -1365 0
-158 -1366 0
-159 -1367 0
-160 -1368 0
-157 -1401 0
-158 -1402 0
-159 -1403 0
-160 -1404 0
-157 -1421 0
-158 -1422 0
-159 -1423 0
-160 -1424 0
-161 -165 0
-162 -166 0
-163 -167 0
-164 -168 0
-161 -237 0
-162 -238 0
-163 -239 0
-164 -240 0
-161 -329 0
-162 -330 0
-163 -331 0
-164 -332 0
-161 -373 0
-162 -374 0
-163 -375 0
-164 -376 0
-161 -417 0
-162 -418 0
-163 -419 0
-164 -420 0
-161 -437 0
-162 -438 0
-163 -439 0
-164 -440 0
-161 -457 0
-162 -458 0
-163 -459 0
-164 -460 0
-161 -473 0
-162 -474 0
-163 -475 0
-164 -476 0
-161 -705 0
-162 -706 0
-163 -707 0
-164 -708 0
-161 -757 0
-162 -758 0
-163 -759 0
-164 -760 0
-161 -1085 0
-162 -1086 0
-163 -1087 0
-164 -1088 0
-161 -1137 0
-162 -1138 0
-163 -1139 0
-164 -1140 0
-161 -1293 0
-162 -1294 0
-163 -1295 0
-164 -1296 0
-161 -1309 0
-162 -1310 0
-163 -1311 0
-164 -1312 0
-161 -1405 0
-162 -1406 0
-163 -1407 0
-164 -1408 0
-161 -1425 0
-162 -1426 0
-163 -1427 0
-164 -1428 0
-165 -169 0
-166 -170 0
-167 -171 0
-168 -172 0
-165 -241 0
-166 -242 0
-167 -243 0
-168 -244 0
-165 -333 0
-166 -334 0
-167 -335 0
-168 -336 0
-165 -377 0
-166 -378 0
-167 -379 0
-168 -380 0
-165 -421 0
-166 -422 0
-167 -423 0
-168 -424 0
-165 -441 0
-166 -442 0
-167 -443 0
-168 -444 0
-165 -461 0
-166 -462 0
-167 -463 0
-168 -464 0
-165 -477 0
-166 -478 0
-167 -479 0
-168 -480 0
-165 -685 0
-166 -686 0
-167 -687 0
-168 -688 0
-165 -709 0
-166 -710 0
-167 -711 0
-168 -712 0
-165 -1065 0
-166 -1066 0
-167 -1067 0
-168 -1068 0
-165 -1089 0
-166 -1090 0
-167 -1091 0
-168 -1092 0
-165 -1297 0
-166 -1298 0
-167 -1299 0
-168 -1300 0
-165 -1313 0
-166 -1314 0
-167 -1315 0
-168 -1316 0
-165 -1409 0
-166 -1410 0
-167 -1411 0
-168 -1412 0
-165 -1429 0
-166 -1430 0
-167 -1431 0
-168 -1432 0
-169 -173 0
-170 -174 0
-171 -175 0
-172 -176 0
-169 -245 0
-170 -246 0
-171 -247 0
-172 -248 0
-169 -305 0
-170 -306 0
-171 -307 0
-172 -308 0
-169 -337 0
-170 -338 0
-171 -339 0
-172 -340 0
-169 -425 0
-170 -426 0
-171 -427 0
-172 -428 0
-169 -445 0
-170 -446 0
-171 -447 0
-172 -448 0
-169 -465 0
-170 -466 0
-171 -467 0
-172 -468 0
-169 -481 0
-170 -482 0
-171 -483 0
-172 -484 0
-169 -689 0
-170 -690 0
-171 -691 0
-172 -692 0
-169 -713 0
-170 -714 0
-171 -715 0
-172 -716 0
-169 -1069 0
-170 -1070 0
-171 -1071 0
-172 -1072 0
-169 -1093 0
-170 -1094 0
-171 -1095 0
-172 -1096 0
-169 -1301 0
-170 -1302 0
-171 -1303 0
-172 -1304 0
-169 -1317 0
-170 -1318 0
-171 -1319 0
-172 -1320 0
-169 -1413 0
-170 -1414 0
-171 -1415 0
-172 -1416 0
-169 -1433 0
-170 -1434 0
-171 -1435 0
-172 -1436 0
-173 -177 0
-174 -178 0
-175 -179 0
-176 -180 0
-173 -249 0
-174 -250 0
-175 -251 0
-176 -252 0
-173 -309 0
-174 -310 0
-175 -311 0
-176 -312 0
-173 -341 0
-174 -342 0
-175 -343 0
-176 -344 0
-173 -429 0
-174 -430 0
-175 -431 0
-176 -432 0
-173 -449 0
-174 -450 0
-175 -451 0
-176 -452 0
-173 -469 0
-174 -470 0
-175 -471 0
-176 -472 0
-173 -485 0
-174 -486 0
-175 -487 0
-176 -488 0
-173 -693 0
-174 -694 0
-175 -695 0
-176 -696 0
-173 -717 0
-174 -718 0
-175 -719 0
-176 -720 0
-173 -1073 0
-174 -1074 0
-175 -1075 0
-176 -1076 0
-173 -1097 0
-174 -1098 0
-175 -1099 0
-176 -1100 0
-173 -1305 0
-174 -1306 0
-175 -1307 0
-176 -1308 0
-173 -1321 0
-174 -1322 0
-175 -1323 0
-176 -1324 0
-173 -1417 0
-174 -1418 0
-175 -1419 0
-176 -1420 0
-173 -1437 0
-174 -1438 0
-175 -1439 0
-176 -1440 0
-177 -181 0
-178 -182 0
-179 -183 0
-180 -184 0
-177 -253 0
-178 -254 0
-179 -255 0
-180 -256 0
-177 -313 0
-178 -314 0
-179 -315 0
-180 -316 0
-177 -345 0
-178 -346 0
-179 -347 0
-180 -348 0
-177 -433 0
-178 -434 0
-179 -435 0
-180 -436 0
-177 -453 0
-178 -454 0
-179 -455 0
-180 -456 0
-177 -473 0
-178 -474 0
-179 -475 0
-180 -476 0
-177 -489 0
-178 -490 0
-179 -491 0
-180 -492 0
-177 -697 0
-178 -698 0
-179 -699 0
-180 -700 0
-177 -721 0
-178 -722 0
-179 -723 0
-180 -724 0
-177 -1077 0
-178 -1078 0
-179 -1079 0
-180 -1080 0
-177 -1101 0
-178 -1102 0
-179 -1103 0
-180 -1104 0
-177 -1309 0
-178 -1310 0
-179 -1311 0
-180 -1312 0
-177 -1325 0
-178 -1326 0
-179 -1327 0
-180 -1328 0
-177 -1421 0
-178 -1422 0
-179 -1423 0
-180 -1424 0
-177 -1441 0
-178 -1442 0
-179 -1443 0
-180 -1444 0
-181 -185 0
-182 -186 0
-183 -187 0
-184 -188 0
-181 -257 0
-182 -258 0
-183 -259 0
-184 -260 0
-181 -317 0
-182 -318 0
-183 -319 0
-184 -320 0
-181 -349 0
-182 -350 0
-183 -351 0
-184 -352 0
-181 -381 0
-182 -382 0
-183 -383 0
-184 -384 0
-181 -437 0
-182 -438 0
-183 -439 0
-184 -440 0
-181 -477 0
-182 -478 0
-183 -479 0
-184 -480 0
-181 -493 0
-182 -494 0
-183 -495 0
-184 -496 0
-181 -701 0
-182 -702 0
-183 -703 0
-184 -704 0
-181 -725 0
-182 -726 0
-183 -727 0
-184 -728 0
-181 -1081 0
-182 -1082 0
-183 -1083 0
-184 -1084 0
-181 -1105 0
-182 -1106 0
-183 -1107 0
-184 -1108 0
-181 -1313 0
-182 -1314 0
-183 -1315 0
-184 -1316 0
-181 -1329 0
-182 -1330 0
-183 -1331 0
-184 -1332 0
-181 -1369 0
-182 -1370 0
-183 -1371 0
-184 -1372 0
-181 -1425 0
-182 -1426 0
-183 -1427 0
-184 -1428 0
-185 -189 0
-186 -190 0
-187 -191 0
-188 -192 0
-185 -261 0
-186 -262 0
-187 -263 0
-188 -264 0
-185 -321 0
-186 -322 0
-187 -323 0
-188 -324 0
-185 -353 0
-186 -354 0
-187 -355 0
-188 -356 0
-185 -385 0
-186 -386 0
-187 -387 0
-188 -388 0
-185 -441 0
-186 -442 0
-187 -443 0
-188 -444 0
-185 -481 0
-186 -482 0
-187 -483 0
-188 -484 0
-185 -497 0
-186 -498 0
-187 -499 0
-188 -500 0
-185 -705 0
-186 -706 0
-187 -707 0
-188 -708 0
-185 -729 0
-186 -730 0
-187 -731 0
-188 -732 0
-185 -1085 0
-186 -1086 0
-187 -1087 0
-188 -1088 0
-185 -1109 0
-186 -1110 0
-187 -1111 0
-188 -1112 0
-185 -1317 0
-186 -1318 0
-187 -1319 0
-188 -1320 0
-185 -1333 0
-186 -1334 0
-187 -1335 0
-188 -1336 0
-185 -1373 0
-186 -1374 0
-187 -1375 0
-188 -1376 0
-185 -1429 0
-186 -1430 0
-187 -1431 0
-188 -1432 0
-189 -193 0
-190 -194 0
-191 -195 0
-192 -196 0
-189 -265 0
-190 -266 0
-191 -267 0
-192 -268 0
-189 -325 0
-190 -326 0
-191 -327 0
-192 -328 0
-189 -357 0
-190 -358 0
-191 -359 0
-192 -360 0
-189 -389 0
-190 -390 0
-191 -391 0
-192 -392 0
-189 -445 0
-190 -446 0
-191 -447 0
-192 -448 0
-189 -485 0
-190 -486 0
-191 -487 0
-192 -488 0
-189 -501 0
-190 -502 0
-191 -503 0
-192 -504 0
-189 -709 0
-190 -710 0
-191 -711 0
-192 -712 0
-189 -733 0
-190 -734 0
-191 -735 0
-192 -736 0
-189 -1089 0
-190 -1090 0
-191 -1091 0
-192 -1092 0
-189 -1113 0
-190 -1114 0
-191 -1115 0
-192 -1116 0
-189 -1321 0
-190 -1322 0
-191 -1323 0
-192 -1324 0
-189 -1337 0
-190 -1338 0
-191 -1339 0
-192 -1340 0
-189 -1377 0
-190 -1378 0
-191 -1379 0
-192 -1380 0
-189 -1433 0
-190 -1434 0
-191 -1435 0
-192 -1436 0
-193 -197 0
-194 -198 0
-195 -199 0
-196 -200 0
-193 -269 0
-194 -270 0
-195 -271 0
-196 -272 0
-193 -329 0
-194 -330 0
-195 -331 0
-196 -332 0
-193 -361 0
-194 -362 0
-195 -363 0
-196 -364 0
-193 -393 0
-194 -394 0
-195 -395 0
-196 -396 0
-193 -449 0
-194 -450 0
-195 -451 0
-196 -452 0
-193 -489 0
-194 -490 0
-195 -491 0
-196 -492 0
-193 -505 0
-194 -506 0
-195 -507 0
-196 -508 0
-193 -713 0
-194 -714 0
-195 -715 0
-196 -716 0
-193 -737 0
-194 -738 0
-195 -739 0
-196 -740 0
-193 -1093 0
-194 -1094 0
-195 -1095 0
-196 -1096 0
-193 -1117 0
-194 -1118 0
-195 -1119 0
-196 -1120 0
-193 -1325 0
-194 -1326 0
-195 -1327 0
-196 -1328 0
-193 -1341 0
-194 -1342 0
-195 -1343 0
-196 -1344 0
-193 -1381 0
-194 -1382 0
-195 -1383 0
-196 -1384 0
-193 -1437 0
-194 -1438 0
-195 -1439 0
-196 -1440 0
-197 -201 0
-198 -202 0
-199 -203 0
-200 -204 0
-197 -273 0
-198 -274 0
-199 -275 0
-200 -276 0
-197 -333 0
-198 -334 0
-199 -335 0
-200 -336 0
-197 -365 0
-198 -366 0
-199 -367 0
-200 -368 0
-197 -397 0
-198 -398 0
-199 -399 0
-200 -400 0
-197 -453 0
-198 -454 0
-199 -455 0
-200 -456 0
-197 -493 0
-198 -494 0
-199 -495 0
-200 -496 0
-197 -509 0
-198 -510 0
-199 -511 0
-200 -512 0
-197 -717 0
-198 -718 0
-199 -719 0
-200 -720 0
-197 -741 0
-198 -742 0
-199 -743 0
-200 -744 0
-197 -1097 0
-198 -1098 0
-199 -1099 0
-200 -1100 0
-197 -1121 0
-198 -1122 0
-199 -1123 0
-200 -1124 0
-197 -1329 0
-198 -1330 0
-199 -1331 0
-200 -1332 0
-197 -1345 0
-198 -1346 0
-199 -1347 0
-200 -1348 0
-197 -1385 0
-198 -1386 0
-199 -1387 0
-200 -1388 0
-197 -1441 0
-198 -1442 0
-199 -1443 0
-200 -1444 0
-201 -205 0
-202 -206 0
-203 -207 0
-204 -208 0
-201 -277 0
-202 -278 0
-203 -279 0
-204 -280 0
-201 -337 0
-202 -338 0
-203 -339 0
-204 -340 0
-201 -369 0
-202 -370 0
-203 -371 0
-204 -372 0
-201 -381 0
-202 -382 0
-203 -383 0
-204 -384 0
-201 -401 0
-202 -402 0
-203 -403 0
-204 -404 0
-201 -497 0
-202 -498 0
-203 -499 0
-204 -500 0
-201 -513 0
-202 -514 0
-203 -515 0
-204 -516 0
-201 -721 0
-202 -722 0
-203 -723 0
-204 -724 0
-201 -745 0
-202 -746 0
-203 -747 0
-204 -748 0
-201 -1101 0
-202 -1102 0
-203 -1103 0
-204 -1104 0
-201 -1125 0
-202 -1126 0
-203 -1127 0
-204 -1128 0
-201 -1333 0
-202 -1334 0
-203 -1335 0
-204 -1336 0
-201 -1349 0
-202 -1350 0
-203 -1351 0
-204 -1352 0
-201 -1369 0
-202 -1370 0
-203 -1371 0
-204 -1372 0
-201 -1389 0
-202 -1390 0
-203 -1391 0
-204 -1392 0
-205 -209 0
-206 -210 0
-207 -211 0
-208 -212 0
-205 -281 0
-206 -282 0
-207 -283 0
-208 -284 0
-205 -341 0
-206 -342 0
-207 -343 0
-208 -344 0
-205 -373 0
-206 -374 0
-207 -375 0
-208 -376 0
-205 -385 0
-206 -386 0
-207 -387 0
-208 -388 0
-205 -405 0
-206 -406 0
-207 -407 0
-208 -408 0
-205 -501 0
-206 -502 0
-207 -503 0
-208 -504 0
-205 -517 0
-206 -518 0
-207 -519 0
-208 -520 0
-205 -725 0
-206 -726 0
-207 -727 0
-208 -728 0
-205 -749 0
-206 -750 0
-207 -751 0
-208 -752 0
-205 -1105 0
-206 -1106 0
-207 -1107 0
-208 -1108 0
-205 -1129 0
-206 -1130 0
-207 -1131 0
-208 -1132 0
-205 -1337 0
-206 -1338 0
-207 -1339 0
-208 -1340 0
-205 -1353 0
-206 -1354 0
-207 -1355 0
-208 -1356 0
-205 -1373 0
-206 -1374 0
-207 -1375 0
-208 -1376 0
-205 -1393 0
-206 -1394 0
-207 -1395 0
-208 -1396 0
-209 -213 0
-210 -214 0
-211 -215 0
-212 -216 0
-209 -285 0
-210 -286 0
-211 -287 0
-212 -288 0
-209 -345 0
-210 -346 0
-211 -347 0
-212 -348 0
-209 -377 0
-210 -378 0
-211 -379 0
-212 -380 0
-209 -389 0
-210 -390 0
-211 -391 0
-212 -392 0
-209 -409 0
-210 -410 0
-211 -411 0
-212 -412 0
-209 -505 0
-210 -506 0
-211 -507 0
-212 -508 0
-209 -521 0
-210 -522 0
-211 -523 0
-212 -524 0
-209 -729 0
-210 -730 0
-211 -731 0
-212 -732 0
-209 -753 0
-210 -754 0
-211 -755 0
-212 -756 0
-209 -1109 0
-210 -1110 0
-211 -1111 0
-212 -1112 0
-209 -1133 0
-210 -1134 0
-211 -1135 0
-212 -1136 0
-209 -1341 0
-210 -1342 0
-211 -1343 0
-212 -1344 0
-209 -1357 0
-210 -1358 0
-211 -1359 0
-212 -1360 0
-209 -1377 0
-210 -1378 0
-211 -1379 0
-212 -1380 0
-209 -1397 0
-210 -1398 0
-211 -1399 0
-212 -1400 0
-213 -217 0
-214 -218 0
-215 -219 0
-216 -220 0
-213 -289 0
-214 -290 0
-215 -291 0
-216 -292 0
-213 -305 0
-214 -306 0
-215 -307 0
-216 -308 0
-213 -349 0
-214 -350 0
-215 -351 0
-216 -352 0
-213 -393 0
-214 -394 0
-215 -395 0
-216 -396 0
-213 -413 0
-214 -414 0
-215 -415 0
-216 -416 0
-213 -509 0
-214 -510 0
-215 -511 0
-216 -512 0
-213 -525 0
-214 -526 0
-215 -527 0
-216 -528 0
-213 -733 0
-214 -734 0
-215 -735 0
-216 -736 0
-213 -757 0
-214 -758 0
-215 -759 0
-216 -760 0
-213 -1113 0
-214 -1114 0
-215 -1115 0
-216 -1116 0
-213 -1137 0
-214 -1138 0
-215 -1139 0
-216 -1140 0
-213 -1345 0
-214 -1346 0
-215 -1347 0
-216 -1348 0
-213 -1361 0
-214 -1362 0
-215 -1363 0
-216 -1364 0
-213 -1381 0
-214 -1382 0
-215 -1383 0
-216 -1384 0
-213 -1401 0
-214 -1402 0
-215 -1403 0
-216 -1404 0
-217 -221 0
-218 -222 0
-219 -223 0
-220 -224 0
-217 -293 0
-218 -294 0
-219 -295 0
-220 -296 0
-217 -309 0
-218 -310 0
-219 -311 0
-220 -312 0
-217 -353 0
-218 -354 0
-219 -355 0
-220 -356 0
-217 -397 0
-218 -398 0
-219 -399 0
-220 -400 0
-217 -417 0
-218 -418 0
-219 -419 0
-220 -420 0
-217 -513 0
-218 -514 0
-219 -515 0
-220 -516 0
-217 -529 0
-218 -530 0
-219 -531 0
-220 -532 0
-217 -685 0
-218 -686 0
-219 -687 0
-220 -688 0
-217 -737 0
-218 -738 0
-219 -739 0
-220 -740 0
-217 -1065 0
-218 -1066 0
-219 -1067 0
-220 -1068 0
-217 -1117 0
-218 -1118 0
-219 -1119 0
-220 -1120 0
-217 -1349 0
-218 -1350 0
-219 -1351 0
-220 -1352 0
-217 -1365 0
-218 -1366 0
-219 -1367 0
-220 -1368 0
-217 -1385 0
-218 -1386 0
-219 -1387 0
-220 -1388 0
-217 -1405 0
-218 -1406 0
-219 -1407 0
-220 -1408 0
-221 -225 0
-222 -226 0
-223 -227 0
-224 -228 0
-221 -297 0
-222 -298 0
-223 -299 0
-224 -300 0
-221 -313 0
-222 -314 0
-223 -315 0
-224 -316 0
-221 -357 0
-222 -358 0
-223 -359 0
-224 -360 0
-221 -401 0
-222 -402 0
-223 -403 0
-224 -404 0
-221 -421 0
-222 -422 0
-223 -423 0
-224 -424 0
-221 -457 0
-222 -458 0
-223 -459 0
-224 -460 0
-221 -517 0
-222 -518 0
-223 -519 0
-224 -520 0
-221 -689 0
-222 -690 0
-223 -691 0
-224 -692 0
-221 -741 0
-222 -742 0
-223 -743 0
-224 -744 0
-221 -1069 0
-222 -1070 0
-223 -1071 0
-224 -1072 0
-221 -1121 0
-222 -1122 0
-223 -1123 0
-224 -1124 0
-221 -1293 0
-222 -1294 0
-223 -1295 0
-224 -1296 0
-221 -1353 0
-222 -1354 0
-223 -1355 0
-224 -1356 0
-221 -1389 0
-222 -1390 0
-223 -1391 0
-224 -1392 0
-221 -1409 0
-222 -1410 0
-223 -1411 0
-224 -1412 0
-225 -301 0
-226 -302 0
-227 -303 0
-228 -304 0
-225 -317 0
-226 -318 0
-227 -319 0
-228 -320 0
-225 -361 0
-226 -362 0
-227 -363 0
-228 -364 0
-225 -405 0
-226 -406 0
-227 -407 0
-228 -408 0
-225 -425 0
-226 -426 0
-227 -427 0
-228 -428 0
-225 -461 0
-226 -462 0
-227 -463 0
-228 -464 0
-225 -521 0
-226 -522 0
-227 -523 0
-228 -524 0
-225 -693 0
-226 -694 0
-227 -695 0
-228 -696 0
-225 -745 0
-226 -746 0
-227 -747 0
-228 -748 0
-225 -1073 0
-226 -1074 0
-227 -1075 0
-228 -1076 0
-225 -1125 0
-226 -1126 0
-227 -1127 0
-228 -1128 0
-225 -1297 0
-226 -1298 0
-227 -1299 0
-228 -1300 0
-225 -1357 0
-226 -1358 0
-227 -1359 0
-228 -1360 0
-225 -1393 0
-226 -1394 0
-227 -1395 0
-228 -1396 0
-225 -1413 0
-226 -1414 0
-227 -1415 0
-228 -1416 0
-229 -233 0
-230 -234 0
-231 -235 0
-232 -236 0
-229 -301 0
-230 -302 0
-231 -303 0
-232 -304 0
-229 -305 0
-230 -306 0
-231 -307 0
-232 -308 0
-229 -397 0
-230 -398 0
-231 -399 0
-232 -400 0
-229 -441 0
-230 -442 0
-231 -443 0
-232 -444 0
-229 -485 0
-230 -486 0
-231 -487 0
-232 -488 0
-229 -505 0
-230 -506 0
-231 -507 0
-232 -508 0
-229 -541 0
-230 -542 0
-231 -543 0
-232 -544 0
-229 -601 0
-230 -602 0
-231 -603 0
-232 -604 0
-229 -773 0
-230 -774 0
-231 -775 0
-232 -776 0
-229 -825 0
-230 -826 0
-231 -827 0
-232 -828 0
-229 -1153 0
-230 -1154 0
-231 -1155 0
-232 -1156 0
-229 -1205 0
-230 -1206 0
-231 -1207 0
-232 -1208 0
-229 -1377 0
-230 -1378 0
-231 -1379 0
-232 -1380 0
-229 -1437 0
-230 -1438 0
-231 -1439 0
-232 -1440 0
-233 -237 0
-234 -238 0
-235 -239 0
-236 -240 0
-233 -309 0
-234 -310 0
-235 -311 0
-236 -312 0
-233 -401 0
-234 -402 0
-235 -403 0
-236 -404 0
-233 -445 0
-234 -446 0
-235 -447 0
-236 -448 0
-233 -489 0
-234 -490 0
-235 -491 0
-236 -492 0
-233 -509 0
-234 -510 0
-235 -511 0
-236 -512 0
-233 -545 0
-234 -546 0
-235 -547 0
-236 -548 0
-233 -605 0
-234 -606 0
-235 -607 0
-236 -608 0
-233 -777 0
-234 -778 0
-235 -779 0
-236 -780 0
-233 -829 0
-234 -830 0
-235 -831 0
-236 -832 0
-233 -1157 0
-234 -1158 0
-235 -1159 0
-236 -1160 0
-233 -1209 0
-234 -1210 0
-235 -1211 0
-236 -1212 0
-233 -1381 0
-234 -1382 0
-235 -1383 0
-236 -1384 0
-233 -1441 0
-234 -1442 0
-235 -1443 0
-236 -1444 0
-237 -241 0
-238 -242 0
-239 -243 0
-240 -244 0
-237 -313 0
-238 -314 0
-239 -315 0
-240 -316 0
-237 -405 0
-238 -406 0
-239 -407 0
-240 -408 0
-237 -449 0
-238 -450 0
-239 -451 0
-240 -452 0
-237 -493 0
-238 -494 0
-239 -495 0
-240 -496 0
-237 -513 0
-238 -514 0
-239 -515 0
-240 -516 0
-237 -533 0
-238 -534 0
-239 -535 0
-240 -536 0
-237 -549 0
-238 -550 0
-239 -551 0
-240 -552 0
-237 -781 0
-238 -782 0
-239 -783 0
-240 -784 0
-237 -833 0
-238 -834 0
-239 -835 0
-240 -836 0
-237 -1161 0
-238 -1162 0
-239 -1163 0
-240 -1164 0
-237 -1213 0
-238 -1214 0
-239 -1215 0
-240 -1216 0
-237 -1369 0
-238 -1370 0
-239 -1371 0
-240 -1372 0
-237 -1385 0
-238 -1386 0
-239 -1387 0
-240 -1388 0
-241 -245 0
-242 -246 0
-243 -247 0
-244 -248 0
-241 -317 0
-242 -318 0
-243 -319 0
-244 -320 0
-241 -409 0
-242 -410 0
-243 -411 0
-244 -412 0
-241 -453 0
-242 -454 0
-243 -455 0
-244 -456 0
-241 -497 0
-242 -498 0
-243 -499 0
-244 -500 0
-241 -517 0
-242 -518 0
-243 -519 0
-244 -520 0
-241 -537 0
-242 -538 0
-243 -539 0
-244 -540 0
-241 -553 0
-242 -554 0
-243 -555 0
-244 -556 0
-241 -761 0
-242 -762 0
-243 -763 0
-244 -764 0
-241 -785 0
-242 -786 0
-243 -787 0
-244 -788 0
-241 -1141 0
-242 -1142 0
-243 -1143 0
-244 -1144 0
-241 -1165 0
-242 -1166 0
-243 -1167 0
-244 -1168 0
-241 -1373 0
-242 -1374 0
-243 -1375 0
-244 -1376 0
-241 -1389 0
-242 -1390 0
-243 -1391 0
-244 -1392 0
-245 -249 0
-246 -250 0
-247 -251 0
-248 -252 0
-245 -321 0
-246 -322 0
-247 -323 0
-248 -324 0
-245 -381 0
-246 -382 0
-247 -383 0
-248 -384 0
-245 -413 0
-246 -414 0
-247 -415 0
-248 -416 0
-245 -501 0
-246 -502 0
-247 -503 0
-248 -504 0
-245 -521 0
-246 -522 0
-247 -523 0
-248 -524 0
-245 -541 0
-246 -542 0
-247 -543 0
-248 -544 0
-245 -557 0
-246 -558 0
-247 -559 0
-248 -560 0
-245 -765 0
-246 -766 0
-247 -767 0
-248 -768 0
-245 -789 0
-246 -790 0
-247 -791 0
-248 -792 0
-245 -1145 0
-246 -1146 0
-247 -1147 0
-248 -1148 0
-245 -1169 0
-246 -1170 0
-247 -1171 0
-248 -1172 0
-245 -1377 0
-246 -1378 0
-247 -1379 0
-248 -1380 0
-245 -1393 0
-246 -1394 0
-247 -1395 0
-248 -1396 0
-249 -253 0
-250 -254 0
-251 -255 0
-252 -256 0
-249 -325 0
-250 -326 0
-251 -327 0
-252 -328 0
-249 -385 0
-250 -386 0
-251 -387 0
-252 -388 0
-249 -417 0
-250 -418 0
-251 -419 0
-252 -420 0
-249 -505 0
-250 -506 0
-251 -507 0
-252 -508 0
-249 -525 0
-250 -526 0
-251 -527 0
-252 -528 0
-249 -545 0
-250 -546 0
-251 -547 0
-252 -548 0
-249 -561 0
-250 -562 0
-251 -563 0
-252 -564 0
-249 -769 0
-250 -770 0
-251 -771 0
-252 -772 0
-249 -793 0
-250 -794 0
-251 -795 0
-252 -796 0
-249 -1149 0
-250 -1150 0
-251 -1151 0
-252 -1152 0
-249 -1173 0
-250 -1174 0
-251 -1175 0
-252 -1176 0
-249 -1381 0
-250 -1382 0
-251 -1383 0
-252 -1384 0
-249 -1397 0
-250 -1398 0
-251 -1399 0
-252 -1400 0
-253 -257 0
-254 -258 0
-255 -259 0
-256 -260 0
-253 -329 0
-254 -330 0
-255 -331 0
-256 -332 0
-253 -389 0
-254 -390 0
-255 -391 0
-256 -392 0
-253 -421 0
-254 -422 0
-255 -423 0
-256 -424 0
-253 -509 0
-254 -510 0
-255 -511 0
-256 -512 0
-253 -529 0
-254 -530 0
-255 -531 0
-256 -532 0
-253 -549 0
-254 -550 0
-255 -551 0
-256 -552 0
-253 -565 0
-254 -566 0
-255 -567 0
-256 -568 0
-253 -773 0
-254 -774 0
-255 -775 0
-256 -776 0
-253 -797 0
-254 -798 0
-255 -799 0
-256 -800 0
-253 -1153 0
-254 -1154 0
-255 -1155 0
-256 -1156 0
-253 -1177 0
-254 -1178 0
-255 -1179 0
-256 -1180 0
-253 -1385 0
-254 -1386 0
-255 -1387 0
-256 -1388 0
-253 -1401 0
-254 -1402 0
-255 -1403 0
-256 -1404 0
-257 -261 0
-258 -262 0
-259 -263 0
-260 -264 0
-257 -333 0
-258 -334 0
-259 -335 0
-260 -336 0
-257 -393 0
-258 -394 0
-259 -395 0
-260 -396 0
-257 -425 0
-258 -426 0
-259 -427 0
-260 -428 0
-257 -457 0
-258 -458 0
-259 -459 0
-260 -460 0
-257 -513 0
-258 -514 0
-259 -515 0
-260 -516 0
-257 -553 0
-258 -554 0
-259 -555 0
-260 -556 0
-257 -569 0
-258 -570 0
-259 -571 0
-260 -572 0
-257 -777 0
-258 -778 0
-259 -779 0
-260 -780 0
-257 -801 0
-258 -802 0
-259 -803 0
-260 -804 0
-257 -1157 0
-258 -1158 0
-259 -1159 0
-260 -1160 0
-257 -1181 0
-258 -1182 0
-259 -1183 0
-260 -1184 0
-257 -1389 0
-258 -1390 0
-259 -1391 0
-260 -1392 0
-257 -1405 0
-258 -1406 0
-259 -1407 0
-260 -1408 0
-261 -265 0
-262 -266 0
-263 -267 0
-264 -268 0
-261 -337 0
-262 -338 0
-263 -339 0
-264 -340 0
-261 -397 0
-262 -398 0
-263 -399 0
-264 -400 0
-261 -429 0
-262 -430 0
-263 -431 0
-264 -432 0
-261 -461 0
-262 -462 0
-263 -463 0
-264 -464 0
-261 -517 0
-262 -518 0
-263 -519 0
-264 -520 0
-261 -557 0
-262 -558 0
-263 -559 0
-264 -560 0
-261 -573 0
-262 -574 0
-263 -575 0
-264 -576 0
-261 -781 0
-262 -782 0
-263 -783 0
-264 -784 0
-261 -805 0
-262 -806 0
-263 -807 0
-264 -808 0
-261 -1161 0
-262 -1162 0
-263 -1163 0
-264 -1164 0
-261 -1185 0
-262 -1186 0
-263 -1187 0
-264 -1188 0
-261 -1393 0
-262 -1394 0
-263 -1395 0
-264 -1396 0
-261 -1409 0
-262 -1410 0
-263 -1411 0
-264 -1412 0
-265 -269 0
-266 -270 0
-267 -271 0
-268 -272 0
-265 -341 0
-266 -342 0
-267 -343 0
-268 -344 0
-265 -401 0
-266 -402 0
-267 -403 0
-268 -404 0
-265 -433 0
-266 -434 0
-267 -435 0
-268 -436 0
-265 -465 0
-266 -466 0
-267 -467 0
-268 -468 0
-265 -521 0
-266 -522 0
-267 -523 0
-268 -524 0
-265 -561 0
-266 -562 0
-267 -563 0
-268 -564 0
-265 -577 0
-266 -578 0
-267 -579 0
-268 -580 0
-265 -785 0
-266 -786 0
-267 -787 0
-268 -788 0
-265 -809 0
-266 -810 0
-267 -811 0
-268 -812 0
-265 -1165 0
-266 -1166 0
-267 -1167 0
-268 -1168 0
-265 -1189 0
-266 -1190 0
-267 -1191 0
-268 -1192 0
-265 -1397 0
-266 -1398 0
-267 -1399 0
-268 -1400 0
-265 -1413 0
-266 -1414 0
-267 -1415 0
-268 -1416 0
-269 -273 0
-270 -274 0
-271 -275 0
-272 -276 0
-269 -345 0
-270 -346 0
-271 -347 0
-272 -348 0
-269 -405 0
-270 -406 0
-271 -407 0
-272 -408 0
-269 -437 0
-270 -438 0
-271 -439 0
-272 -440 0
-269 -469 0
-270 -470 0
-271 -471 0
-272 -472 0
-269 -525 0
-270 -526 0
-271 -527 0
-272 -528 0
-269 -565 0
-270 -566 0
-271 -567 0
-272 -568 0
-269 -581 0
-270 -582 0
-271 -583 0
-272 -584 0
-269 -789 0
-270 -790 0
-271 -791 0
-272 -792 0
-269 -813 0
-270 -814 0
-271 -815 0
-272 -816 0
-269 -1169 0
-270 -1170 0
-271 -1171 0
-272 -1172 0
-269 -1193 0
-270 -1194 0
-271 -1195 0
-272 -1196 0
-269 -1401 0
-270 -1402 0
-271 -1403 0
-272 -1404 0
-269 -1417 0
-270 -1418 0
-271 -1419 0
-272 -1420 0
-273 -277 0
-274 -278 0
-275 -279 0
-276 -280 0
-273 -349 0
-274 -350 0
-275 -351 0
-276 -352 0
-273 -409 0
-274 -410 0
-275 -411 0
-276 -412 0
-273 -441 0
-274 -442 0
-275 -443 0
-276 -444 0
-273 -473 0
-274 -474 0
-275 -475 0
-276 -476 0
-273 -529 0
-274 -530 0
-275 -531 0
-276 -532 0
-273 -569 0
-274 -570 0
-275 -571 0
-276 -572 0
-273 -585 0
-274 -586 0
-275 -587 0
-276 -588 0
-273 -793 0
-274 -794 0
-275 -795 0
-276 -796 0
-273 -817 0
-274 -818 0
-275 -819 0
-276 -820 0
-273 -1173 0
-274 -1174 0
-275 -1175 0
-276 -1176 0
-273 -1197 0
-274 -1198 0
-275 -1199 0
-276 -1200 0
-273 -1405 0
-274 -1406 0
-275 -1407 0
-276 -1408 0
-273 -1421 0
-274 -1422 0
-275 -1423 0
-276 -1424 0
-277 -281 0
-278 -282 0
-279 -283 0
-280 -284 0
-277 -353 0
-278 -354 0
-279 -355 0
-280 -356 0
-277 -413 0
-278 -414 0
-279 -415 0
-280 -416 0
-277 -445 0
-278 -446 0
-279 -447 0
-280 -448 0
-277 -457 0
-278 -458 0
-279 -459 0
-280 -460 0
-277 -477 0
-278 -478 0
-279 -479 0
-280 -480 0
-277 -573 0
-278 -574 0
-279 -575 0
-280 -576 0
-277 -589 0
-278 -590 0
-279 -591 0
-280 -592 0
-277 -797 0
-278 -798 0
-279 -799 0
-280 -800 0
-277 -821 0
-278 -822 0
-279 -823 0
-280 -824 0
-277 -1177 0
-278 -1178 0
-279 -1179 0
-280 -1180 0
-277 -1201 0
-278 -1202 0
-279 -1203 0
-280 -1204 0
-277 -1409 0
-278 -1410 0
-279 -1411 0
-280 -1412 0
-277 -1425 0
-278 -1426 0
-279 -1427 0
-280 -1428 0
-281 -285 0
-282 -286 0
-283 -287 0
-284 -288 0
-281 -357 0
-282 -358 0
-283 -359 0
-284 -360 0
-281 -417 0
-282 -418 0
-283 -419 0
-284 -420 0
-281 -449 0
-282 -450 0
-283 -451 0
-284 -452 0
-281 -461 0
-282 -462 0
-283 -463 0
-284 -464 0
-281 -481 0
-282 -482 0
-283 -483 0
-284 -484 0
-281 -577 0
-282 -578 0
-283 -579 0
-284 -580 0
-281 -593 0
-282 -594 0
-283 -595 0
-284 -596 0
-281 -801 0
-282 -802 0
-283 -803 0
-284 -804 0
-281 -825 0
-282 -826 0
-283 -827 0
-284 -828 0
-281 -1181 0
-282 -1182 0
-283 -1183 0
-284 -1184 0
-281 -1205 0
-282 -1206 0
-283 -1207 0
-284 -1208 0
-281 -1413 0
-282 -1414 0
-283 -1415 0
-284 -1416 0
-281 -1429 0
-282 -1430 0
-283 -1431 0
-284 -1432 0
-285 -289 0
-286 -290 0
-287 -291 0
-288 -292 0
-285 -361 0
-286 -362 0
-287 -363 0
-288 -364 0
-285 -421 0
-286 -422 0
-287 -423 0
-288 -424 0
-285 -453 0
-286 -454 0
-287 -455 0
-288 -456 0
-285 -465 0
-286 -466 0
-287 -467 0
-288 -468 0
-285 -485 0
-286 -486 0
-287 -487 0
-288 -488 0
-285 -581 0
-286 -582 0
-287 -583 0
-288 -584 0
-285 -597 0
-286 -598 0
-287 -599 0
-288 -600 0
-285 -805 0
-286 -806 0
-287 -807 0
-288 -808 0
-285 -829 0
-286 -830 0
-287 -831 0
-288 -832 0
-285 -1185 0
-286 -1186 0
-287 -1187 0
-288 -1188 0
-285 -1209 0
-286 -1210 0
-287 -1211 0
-288 -1212 0
-285 -1417 0
-286 -1418 0
-287 -1419 0
-288 -1420 0
-285 -1433 0
-286 -1434 0
-287 -1435 0
-288 -1436 0
-289 -293 0
-290 -294 0
-291 -295 0
-292 -296 0
-289 -365 0
-290 -366 0
-291 -367 0
-292 -368 0
-289 -381 0
-290 -382 0
-291 -383 0
-292 -384 0
-289 -425 0
-290 -426 0
-291 -427 0
-292 -428 0
-289 -469 0
-290 -470 0
-291 -471 0
-292 -472 0
-289 -489 0
-290 -490 0
-291 -491 0
-292 -492 0
-289 -585 0
-290 -586 0
-291 -587 0
-292 -588 0
-289 -601 0
-290 -602 0
-291 -603 0
-292 -604 0
-289 -809 0
-290 -810 0
-291 -811 0
-292 -812 0
-289 -833 0
-290 -834 0
-291 -835 0
-292 -836 0
-289 -1189 0
-290 -1190 0
-291 -1191 0
-292 -1192 0
-289 -1213 0
-290 -1214 0
-291 -1215 0
-292 -1216 0
-289 -1421 0
-290 -1422 0
-291 -1423 0
-292 -1424 0
-289 -1437 0
-290 -1438 0
-291 -1439 0
-292 -1440 0
-293 -297 0
-294 -298 0
-295 -299 0
-296 -300 0
-293 -369 0
-294 -370 0
-295 -371 0
-296 -372 0
-293 -385 0
-294 -386 0
-295 -387 0
-296 -388 0
-293 -429 0
-294 -430 0
-295 -431 0
-296 -432 0
-293 -473 0
-294 -474 0
-295 -475 0
-296 -476 0
-293 -493 0
-294 -494 0
-295 -495 0
-296 -496 0
-293 -589 0
-294 -590 0
-295 -591 0
-296 -592 0
-293 -605 0
-294 -606 0
-295 -607 0
-296 -608 0
-293 -761 0
-294 -762 0
-295 -763 0
-296 -764 0
-293 -813 0
-294 -814 0
-295 -815 0
-296 -816 0
-293 -1141 0
-294 -1142 0
-295 -1143 0
-296 -1144 0
-293 -1193 0
-294 -1194 0
-295 -1195 0
-296 -1196 0
-293 -1425 0
-294 -1426 0
-295 -1427 0
-296 -1428 0
-293 -1441 0
-294 -1442 0
-295 -1443 0
-296 -1444 0
-297 -301 0
-298 -302 0
-299 -303 0
-300 -304 0
-297 -373 0
-298 -374 0
-299 -375 0
-300 -376 0
-297 -389 0
-298 -390 0
-299 -391 0
-300 -392 0
-297 -433 0
-298 -434 0
-299 -435 0
-300 -436 0
-297 -477 0
-298 -478 0
-299 -479 0
-300 -480 0
-297 -497 0
-298 -498 0
-299 -499 0
-300 -500 0
-297 -533 0
-298 -534 0
-299 -535 0
-300 -536 0
-297 -593 0
-298 -594 0
-299 -595 0
-300 -596 0
-297 -765 0
-298 -766 0
-299 -767 0
-300 -768 0
-297 -817 0
-298 -818 0
-299 -819 0
-300 -820 0
-297 -1145 0
-298 -1146 0
-299 -1147 0
-300 -1148 0
-297 -1197 0
-298 -1198 0
-299 -1199 0
-300 -1200 0
-297 -1369 0
-298 -1370 0
-299 -1371 0
-300 -1372 0
-297 -1429 0
-298 -1430 0
-299 -1431 0
-300 -1432 0
-301 -377 0
-302 -378 0
-303 -379 0
-304 -380 0
-301 -393 0
-302 -394 0
-303 -395 0
-304 -396 0
-301 -437 0
-302 -438 0
-303 -439 0
-304 -440 0
-301 -481 0
-302 -482 0
-303 -483 0
-304 -484 0
-301 -501 0
-302 -502 0
-303 -503 0
-304 -504 0
-301 -537 0
-302 -538 0
-303 -539 0
-304 -540 0
-301 -597 0
-302 -598 0
-303 -599 0
-304 -600 0
-301 -769 0
-302 -770 0
-303 -771 0
-304 -772 0
-301 -821 0
-302 -822 0
-303 -823 0
-304 -824 0
-301 -1149 0
-302 -1150 0
-303 -1151 0
-304 -1152 0
-301 -1201 0
-302 -1202 0
-303 -1203 0
-304 -1204 0
-301 -1373 0
-302 -1374 0
-303 -1375 0
-304 -1376 0
-301 -1433 0
-302 -1434 0
-303 -1435 0
-304 -1436 0
-305 -309 0
-306 -310 0
-307 -311 0
-308 -312 0
-305 -377 0
-306 -378 0
-307 -379 0
-308 -380 0
-305 -381 0
-306 -382 0
-307 -383 0
-308 -384 0
-305 -473 0
-306 -474 0
-307 -475 0
-308 -476 0
-305 -517 0
-306 -518 0
-307 -519 0
-308 -520 0
-305 -561 0
-306 -562 0
-307 -563 0
-308 -564 0
-305 -581 0
-306 -582 0
-307 -583 0
-308 -584 0
-305 -617 0
-306 -618 0
-307 -619 0
-308 -620 0
-305 -677 0
-306 -678 0
-307 -679 0
-308 -680 0
-305 -849 0
-306 -850 0
-307 -851 0
-308 -852 0
-305 -901 0
-306 -902 0
-307 -903 0
-308 -904 0
-305 -1229 0
-306 -1230 0
-307 -1231 0
-308 -1232 0
-305 -1281 0
-306 -1282 0
-307 -1283 0
-308 -1284 0
-309 -313 0
-310 -314 0
-311 -315 0
-312 -316 0
-309 -385 0
-310 -386 0
-311 -387 0
-312 -388 0
-309 -477 0
-310 -478 0
-311 -479 0
-312 -480 0
-309 -521 0
-310 -522 0
-311 -523 0
-312 -524 0
-309 -565 0
-310 -566 0
-311 -567 0
-312 -568 0
-309 -585 0
-310 -586 0
-311 -587 0
-312 -588 0
-309 -621 0
-310 -622 0
-311 -623 0
-312 -624 0
-309 -681 0
-310 -682 0
-311 -683 0
-312 -684 0
-309 -853 0
-310 -854 0
-311 -855 0
-312 -856 0
-309 -905 0
-310 -906 0
-311 -907 0
-312 -908 0
-309 -1233 0
-310 -1234 0
-311 -1235 0
-312 -1236 0
-309 -1285 0
-310 -1286 0
-311 -1287 0
-312 -1288 0
-313 -317 0
-314 -318 0
-315 -319 0
-316 -320 0
-313 -389 0
-314 -390 0
-315 -391 0
-316 -392 0
-313 -481 0
-314 -482 0
-315 -483 0
-316 -484 0
-313 -525 0
-314 -526 0
-315 -527 0
-316 -528 0
-313 -569 0
-314 -570 0
-315 -571 0
-316 -572 0
-313 -589 0
-314 -590 0
-315 -591 0
-316 -592 0
-313 -609 0
-314 -610 0
-315 -611 0
-316 -612 0
-313 -625 0
-314 -626 0
-315 -627 0
-316 -628 0
-313 -857 0
-314 -858 0
-315 -859 0
-316 -860 0
-313 -909 0
-314 -910 0
-315 -911 0
-316 -912 0
-313 -1237 0
-314 -1238 0
-315 -1239 0
-316 -1240 0
-313 -1289 0
-314 -1290 0
-315 -1291 0
-316 -1292 0
-317 -321 0
-318 -322 0
-319 -323 0
-320 -324 0
-317 -393 0
-318 -394 0
-319 -395 0
-320 -396 0
-317 -485 0
-318 -486 0
-319 -487 0
-320 -488 0
-317 -529 0
-318 -530 0
-319 -531 0
-320 -532 0
-317 -573 0
-318 -574 0
-319 -575 0
-320 -576 0
-317 -593 0
-318 -594 0
-319 -595 0
-320 -596 0
-317 -613 0
-318 -614 0
-319 -615 0
-320 -616 0
-317 -629 0
-318 -630 0
-319 -631 0
-320 -632 0
-317 -837 0
-318 -838 0
-319 -839 0
-320 -840 0
-317 -861 0
-318 -862 0
-319 -863 0
-320 -864 0
-317 -1217 0
-318 -1218 0
-319 -1219 0
-320 -1220 0
-317 -1241 0
-318 -1242 0
-319 -1243 0
-320 -1244 0
-321 -325 0
-322 -326 0
-323 -327 0
-324 -328 0
-321 -397 0
-322 -398 0
-323 -399 0
-324 -400 0
-321 -457 0
-322 -458 0
-323 -459 0
-324 -460 0
-321 -489 0
-322 -490 0
-323 -491 0
-324 -492 0
-321 -577 0
-322 -578 0
-323 -579 0
-324 -580 0
-321 -597 0
-322 -598 0
-323 -599 0
-324 -600 0
-321 -617 0
-322 -618 0
-323 -619 0
-324 -620 0
-321 -633 0
-322 -634 0
-323 -635 0
-324 -636 0
-321 -841 0
-322 -842 0
-323 -843 0
-324 -844 0
-321 -865 0
-322 -866 0
-323 -867 0
-324 -868 0
-321 -1221 0
-322 -1222 0
-323 -1223 0
-324 -1224 0
-321 -1245 0
-322 -1246 0
-323 -1247 0
-324 -1248 0
-325 -329 0
-326 -330 0
-327 -331 0
-328 -332 0
-325 -401 0
-326 -402 0
-327 -403 0
-328 -404 0
-325 -461 0
-326 -462 0
-327 -463 0
-328 -464 0
-325 -493 0
-326 -494 0
-327 -495 0
-328 -496 0
-325 -581 0
-326 -582 0
-327 -583 0
-328 -584 0
-325 -601 0
-326 -602 0
-327 -603 0
-328 -604 0
-325 -621 0
-326 -622 0
-327 -623 0
-328 -624 0
-325 -637 0
-326 -638 0
-327 -639 0
-328 -640 0
-325 -845 0
-326 -846 0
-327 -847 0
-328 -848 0
-325 -869 0
-326 -870 0
-327 -871 0
-328 -872 0
-325 -1225 0
-326 -1226 0
-327 -1227 0
-328 -1228 0
-325 -1249 0
-326 -1250 0
-327 -1251 0
-328 -1252 0
-329 -333 0
-330 -334 0
-331 -335 0
-332 -336 0
-329 -405 0
-330 -406 0
-331 -407 0
-332 -408 0
-329 -465 0
-330 -466 0
-331 -467 0
-332 -468 0
-329 -497 0
-330 -498 0
-331 -499 0
-332 -500 0
-329 -585 0
-330 -586 0
-331 -587 0
-332 -588 0
-329 -605 0
-330 -606 0
-331 -607 0
-332 -608 0
-329 -625 0
-330 -626 0
-331 -627 0
-332 -628 0
-329 -641 0
-330 -642 0
-331 -643 0
-332 -644 0
-329 -849 0
-330 -850 0
-331 -851 0
-332 -852 0
-329 -873 0
-330 -874 0
-331 -875 0
-332 -876 0
-329 -1229 0
-330 -1230 0
-331 -1231 0
-332 -1232 0
-329 -1253 0
-330 -1254 0
-331 -1255 0
-332 -1256 0
-333 -337 0
-334 -338 0
-335 -339 0
-336 -340 0
-333 -409 0
-334 -410 0
-335 -411 0
-336 -412 0
-333 -469 0
-334 -470 0
-335 -471 0
-336 -472 0
-333 -501 0
-334 -502 0
-335 -503 0
-336 -504 0
-333 -533 0
-334 -534 0
-335 -535 0
-336 -536 0
-333 -589 0
-334 -590 0
-335 -591 0
-336 -592 0
-333 -629 0
-334 -630 0
-335 -631 0
-336 -632 0
-333 -645 0
-334 -646 0
-335 -647 0
-336 -648 0
-333 -853 0
-334 -854 0
-335 -855 0
-336 -856 0
-333 -877 0
-334 -878 0
-335 -879 0
-336 -880 0
-333 -1233 0
-334 -1234 0
-335 -1235 0
-336 -1236 0
-333 -1257 0
-334 -1258 0
-335 -1259 0
-336 -1260 0
-337 -341 0
-338 -342 0
-339 -343 0
-340 -344 0
-337 -413 0
-338 -414 0
-339 -415 0
-340 -416 0
-337 -473 0
-338 -474 0
-339 -475 0
-340 -476 0
-337 -505 0
-338 -506 0
-339 -507 0
-340 -508 0
-337 -537 0
-338 -538 0
-339 -539 0
-340 -540 0
-337 -593 0
-338 -594 0
-339 -595 0
-340 -596 0
-337 -633 0
-338 -634 0
-339 -635 0
-340 -636 0
-337 -649 0
-338 -650 0
-339 -651 0
-340 -652 0
-337 -857 0
-338 -858 0
-339 -859 0
-340 -860 0
-337 -881 0
-338 -882 0
-339 -883 0
-340 -884 0
-337 -1237 0
-338 -1238 0
-339 -1239 0
-340 -1240 0
-337 -1261 0
-338 -1262 0
-339 -1263 0
-340 -1264 0
-341 -345 0
-342 -346 0
-343 -347 0
-344 -348 0
-341 -417 0
-342 -418 0
-343 -419 0
-344 -420 0
-341 -477 0
-342 -478 0
-343 -479 0
-344 -480 0
-341 -509 0
-342 -510 0
-343 -511 0
-344 -512 0
-341 -541 0
-342 -542 0
-343 -543 0
-344 -544 0
-341 -597 0
-342 -598 0
-343 -599 0
-344 -600 0
-341 -637 0
-342 -638 0
-343 -639 0
-344 -640 0
-341 -653 0
-342 -654 0
-343 -655 0
-344 -656 0
-341 -861 0
-342 -862 0
-343 -863 0
-344 -864 0
-341 -885 0
-342 -886 0
-343 -887 0
-344 -888 0
-341 -1241 0
-342 -1242 0
-343 -1243 0
-344 -1244 0
-341 -1265 0
-342 -1266 0
-343 -1267 0
-344 -1268 0
-345 -349 0
-346 -350 0
-347 -351 0
-348 -352 0
-345 -421 0
-346 -422 0
-347 -423 0
-348 -424 0
-345 -481 0
-346 -482 0
-347 -483 0
-348 -484 0
-345 -513 0
-346 -514 0
-347 -515 0
-348 -516 0
-345 -545 0
-346 -546 0
-347 -547 0
-348 -548 0
-345 -601 0
-346 -602 0
-347 -603 0
-348 -604 0
-345 -641 0
-346 -642 0
-347 -643 0
-348 -644 0
-345 -657 0
-346 -658 0
-347 -659 0
-348 -660 0
-345 -865 0
-346 -866 0
-347 -867 0
-348 -868 0
-345 -889 0
-346 -890 0
-347 -891 0
-348 -892 0
-345 -1245 0
-346 -1246 0
-347 -1247 0
-348 -1248 0
-345 -1269 0
-346 -1270 0
-347 -1271 0
-348 -1272 0
-349 -353 0
-350 -354 0
-351 -355 0
-352 -356 0
-349 -425 0
-350 -426 0
-351 -427 0
-352 -428 0
-349 -485 0
-350 -486 0
-351 -487 0
-352 -488 0
-349 -517 0
-350 -518 0
-351 -519 0
-352 -520 0
-349 -549 0
-350 -550 0
-351 -551 0
-352 -552 0
-349 -605 0
-350 -606 0
-351 -607 0
-352 -608 0
-349 -645 0
-350 -646 0
-351 -647 0
-352 -648 0
-349 -661 0
-350 -662 0
-351 -663 0
-352 -664 0
-349 -869 0
-350 -870 0
-351 -871 0
-352 -872 0
-349 -893 0
-350 -894 0
-351 -895 0
-352 -896 0
-349 -1249 0
-350 -1250 0
-351 -1251 0
-352 -1252 0
-349 -1273 0
-350 -1274 0
-351 -1275 0
-352 -1276 0
-353 -357 0
-354 -358 0
-355 -359 0
-356 -360 0
-353 -429 0
-354 -430 0
-355 -431 0
-356 -432 0
-353 -489 0
-354 -490 0
-355 -491 0
-356 -492 0
-353 -521 0
-354 -522 0
-355 -523 0
-356 -524 0
-353 -533 0
-354 -534 0
-355 -535 0
-356 -536 0
-353 -553 0
-354 -554 0
-355 -555 0
-356 -556 0
-353 -649 0
-354 -650 0
-355 -651 0
-356 -652 0
-353 -665 0
-354 -666 0
-355 -667 0
-356 -668 0
-353 -873 0
-354 -874 0
-355 -875 0
-356 -876 0
-353 -897 0
-354 -898 0
-355 -899 0
-356 -900 0
-353 -1253 0
-354 -1254 0
-355 -1255 0
-356 -1256 0
-353 -1277 0
-354 -1278 0
-355 -1279 0
-356 -1280 0
-357 -361 0
-358 -362 0
-359 -363 0
-360 -364 0
-357 -433 0
-358 -434 0
-359 -435 0
-360 -436 0
-357 -493 0
-358 -494 0
-359 -495 0
-360 -496 0
-357 -525 0
-358 -526 0
-359 -527 0
-360 -528 0
-357 -537 0
-358 -538 0
-359 -539 0
-360 -540 0
-357 -557 0
-358 -558 0
-359 -559 0
-360 -560 0
-357 -653 0
-358 -654 0
-359 -655 0
-360 -656 0
-357 -669 0
-358 -670 0
-359 -671 0
-360 -672 0
-357 -877 0
-358 -878 0
-359 -879 0
-360 -880 0
-357 -901 0
-358 -902 0
-359 -903 0
-360 -904 0
-357 -1257 0
-358 -1258 0
-359 -1259 0
-360 -1260 0
-357 -1281 0
-358 -1282 0
-359 -1283 0
-360 -1284 0
-361 -365 0
-362 -366 0
-363 -367 0
-364 -368 0
-361 -437 0
-362 -438 0
-363 -439 0
-364 -440 0
-361 -497 0
-362 -498 0
-363 -499 0
-364 -500 0
-361 -529 0
-362 -530 0
-363 -531 0
-364 -532 0
-361 -541 0
-362 -542 0
-363 -543 0
-364 -544 0
-361 -561 0
-362 -562 0
-363 -563 0
-364 -564 0
-361 -657 0
-362 -658 0
-363 -659 0
-364 -660 0
-361 -673 0
-362 -674 0
-363 -675 0
-364 -676 0
-361 -881 0
-362 -882 0
-363 -883 0
-364 -884 0
-361 -905 0
-362 -906 0
-363 -907 0
-364 -908 0
-361 -1261 0
-362 -1262 0
-363 -1263 0
-364 -1264 0
-361 -1285 0
-362 -1286 0
-363 -1287 0
-364 -1288 0
-365 -369 0
-366 -370 0
-367 -371 0
-368 -372 0
-365 -441 0
-366 -442 0
-367 -443 0
-368 -444 0
-365 -457 0
-366 -458 0
-367 -459 0
-368 -460 0
-365 -501 0
-366 -502 0
-367 -503 0
-368 -504 0
-365 -545 0
-366 -546 0
-367 -547 0
-368 -548 0
-365 -565 0
-366 -566 0
-367 -567 0
-368 -568 0
-365 -661 0
-366 -662 0
-367 -663 0
-368 -664 0
-365 -677 0
-366 -678 0
-367 -679 0
-368 -680 0
-365 -885 0
-366 -886 0
-367 -887 0
-368 -888 0
-365 -909 0
-366 -910 0
-367 -911 0
-368 -912 0
-365 -1265 0
-366 -1266 0
-367 -1267 0
-368 -1268 0
-365 -1289 0
-366 -1290 0
-367 -1291 0
-368 -1292 0
-369 -373 0
-370 -374 0
-371 -375 0
-372 -376 0
-369 -445 0
-370 -446 0
-371 -447 0
-372 -448 0
-369 -461 0
-370 -462 0
-371 -463 0
-372 -464 0
-369 -505 0
-370 -506 0
-371 -507 0
-372 -508 0
-369 -549 0
-370 -550 0
-371 -551 0
-372 -552 0
-369 -569 0
-370 -570 0
-371 -571 0
-372 -572 0
-369 -665 0
-370 -666 0
-371 -667 0
-372 -668 0
-369 -681 0
-370 -682 0
-371 -683 0
-372 -684 0
-369 -837 0
-370 -838 0
-371 -839 0
-372 -840 0
-369 -889 0
-370 -890 0
-371 -891 0
-372 -892 0
-369 -1217 0
-370 -1218 0
-371 -1219 0
-372 -1220 0
-369 -1269 0
-370 -1270 0
-371 -1271 0
-372 -1272 0
-373 -377 0
-374 -378 0
-375 -379 0
-376 -380 0
-373 -449 0
-374 -450 0
-375 -451 0
-376 -452 0
-373 -465 0
-374 -466 0
-375 -467 0
-376 -468 0
-373 -509 0
-374 -510 0
-375 -511 0
-376 -512 0
-373 -553 0
-374 -554 0
-375 -555 0
-376 -556 0
-373 -573 0
-374 -574 0
-375 -575 0
-376 -576 0
-373 -609 0
-374 -610 0
-375 -611 0
-376 -612 0
-373 -669 0
-374 -670 0
-375 -671 0
-376 -672 0
-373 -841 0
-374 -842 0
-375 -843 0
-376 -844 0
-373 -893 0
-374 -894 0
-375 -895 0
-376 -896 0
-373 -1221 0
-374 -1222 0
-375 -1223 0
-376 -1224 0
-373 -1273 0
-374 -1274 0
-375 -1275 0
-376 -1276 0
-377 -453 0
-378 -454 0
-379 -455 0
-380 -456 0
-377 -469 0
-378 -470 0
-379 -471 0
-380 -472 0
-377 -513 0
-378 -514 0
-379 -515 0
-380 -516 0
-377 -557 0
-378 -558 0
-379 -559 0
-380 -560 0
-377 -577 0
-378 -578 0
-379 -579 0
-380 -580 0
-377 -613 0
-378 -614 0
-379 -615 0
-380 -616 0
-377 -673 0
-378 -674 0
-379 -675 0
-380 -676 0
-377 -845 0
-378 -846 0
-379 -847 0
-380 -848 0
-377 -897 0
-378 -898 0
-379 -899 0
-380 -900 0
-377 -1225 0
-378 -1226 0
-379 -1227 0
-380 -1228 0
-377 -1277 0
-378 -1278 0
-379 -1279 0
-380 -1280 0
-381 -385 0
-382 -386 0
-383 -387 0
-384 -388 0
-381 -453 0
-382 -454 0
-383 -455 0
-384 -456 0
-381 -457 0
-382 -458 0
-383 -459 0
-384 -460 0
-381 -549 0
-382 -550 0
-383 -551 0
-384 -552 0
-381 -593 0
-382 -594 0
-383 -595 0
-384 -596 0
-381 -637 0
-382 -638 0
-383 -639 0
-384 -640 0
-381 -657 0
-382 -658 0
-383 -659 0
-384 -660 0
-381 -693 0
-382 -694 0
-383 -695 0
-384 -696 0
-381 -753 0
-382 -754 0
-383 -755 0
-384 -756 0
-381 -925 0
-382 -926 0
-383 -927 0
-384 -928 0
-381 -977 0
-382 -978 0
-383 -979 0
-384 -980 0
-381 -1305 0
-382 -1306 0
-383 -1307 0
-384 -1308 0
-381 -1357 0
-382 -1358 0
-383 -1359 0
-384 -1360 0
-385 -389 0
-386 -390 0
-387 -391 0
-388 -392 0
-385 -461 0
-386 -462 0
-387 -463 0
-388 -464 0
-385 -553 0
-386 -554 0
-387 -555 0
-388 -556 0
-385 -597 0
-386 -598 0
-387 -599 0
-388 -600 0
-385 -641 0
-386 -642 0
-387 -643 0
-388 -644 0
-385 -661 0
-386 -662 0
-387 -663 0
-388 -664 0
-385 -697 0
-386 -698 0
-387 -699 0
-388 -700 0
-385 -757 0
-386 -758 0
-387 -759 0
-388 -760 0
-385 -929 0
-386 -930 0
-387 -931 0
-388 -932 0
-385 -981 0
-386 -982 0
-387 -983 0
-388 -984 0
-385 -1309 0
-386 -1310 0
-387 -1311 0
-388 -1312 0
-385 -1361 0
-386 -1362 0
-387 -1363 0
-388 -1364 0
-389 -393 0
-390 -394 0
-391 -395 0
-392 -396 0
-389 -465 0
-390 -466 0
-391 -467 0
-392 -468 0
-389 -557 0
-390 -558 0
-391 -559 0
-392 -560 0
-389 -601 0
-390 -602 0
-391 -603 0
-392 -604 0
-389 -645 0
-390 -646 0
-391 -647 0
-392 -648 0
-389 -665 0
-390 -666 0
-391 -667 0
-392 -668 0
-389 -685 0
-390 -686 0
-391 -687 0
-392 -688 0
-389 -701 0
-390 -702 0
-391 -703 0
-392 -704 0
-389 -933 0
-390 -934 0
-391 -935 0
-392 -936 0
-389 -985 0
-390 -986 0
-391 -987 0
-392 -988 0
-389 -1313 0
-390 -1314 0
-391 -1315 0
-392 -1316 0
-389 -1365 0
-390 -1366 0
-391 -1367 0
-392 -1368 0
-393 -397 0
-394 -398 0
-395 -399 0
-396 -400 0
-393 -469 0
-394 -470 0
-395 -471 0
-396 -472 0
-393 -561 0
-394 -562 0
-395 -563 0
-396 -564 0
-393 -605 0
-394 -606 0
-395 -607 0
-396 -608 0
-393 -649 0
-394 -650 0
-395 -651 0
-396 -652 0
-393 -669 0
-394 -670 0
-395 -671 0
-396 -672 0
-393 -689 0
-394 -690 0
-395 -691 0
-396 -692 0
-393 -705 0
-394 -706 0
-395 -707 0
-396 -708 0
-393 -913 0
-394 -914 0
-395 -915 0
-396 -916 0
-393 -937 0
-394 -938 0
-395 -939 0
-396 -940 0
-393 -1293 0
-394 -1294 0
-395 -1295 0
-396 -1296 0
-393 -1317 0
-394 -1318 0
-395 -1319 0
-396 -1320 0
-397 -401 0
-398 -402 0
-399 -403 0
-400 -404 0
-397 -473 0
-398 -474 0
-399 -475 0
-400 -476 0
-397 -533 0
-398 -534 0
-399 -535 0
-400 -536 0
-397 -565 0
-398 -566 0
-399 -567 0
-400 -568 0
-397 -653 0
-398 -654 0
-399 -655 0
-400 -656 0
-397 -673 0
-398 -674 0
-399 -675 0
-400 -676 0
-397 -693 0
-398 -694 0
-399 -695 0
-400 -696 0
-397 -709 0
-398 -710 0
-399 -711 0
-400 -712 0
-397 -917 0
-398 -918 0
-399 -919 0
-400 -920 0
-397 -941 0
-398 -942 0
-399 -943 0
-400 -944 0
-397 -1297 0
-398 -1298 0
-399 -1299 0
-400 -1300 0
-397 -1321 0
-398 -1322 0
-399 -1323 0
-400 -1324 0
-401 -405 0
-402 -406 0
-403 -407 0
-404 -408 0
-401 -477 0
-402 -478 0
-403 -479 0
-404 -480 0
-401 -537 0
-402 -538 0
-403 -539 0
-404 -540 0
-401 -569 0
-402 -570 0
-403 -571 0
-404 -572 0
-401 -657 0
-402 -658 0
-403 -659 0
-404 -660 0
-401 -677 0
-402 -678 0
-403 -679 0
-404 -680 0
-401 -697 0
-402 -698 0
-403 -699 0
-404 -700 0
-401 -713 0
-402 -714 0
-403 -715 0
-404 -716 0
-401 -921 0
-402 -922 0
-403 -923 0
-404 -924 0
-401 -945 0
-402 -946 0
-403 -947 0
-404 -948 0
-401 -1301 0
-402 -1302 0
-403 -1303 0
-404 -1304 0
-401 -1325 0
-402 -1326 0
-403 -1327 0
-404 -1328 0
-405 -409 0
-406 -410 0
-407 -411 0
-408 -412 0
-405 -481 0
-406 -482 0
-407 -483 0
-408 -484 0
-405 -541 0
-406 -542 0
-407 -543 0
-408 -544 0
-405 -573 0
-406 -574 0
-407 -575 0
-408 -576 0
-405 -661 0
-406 -662 0
-407 -663 0
-408 -664 0
-405 -681 0
-406 -682 0
-407 -683 0
-408 -684 0
-405 -701 0
-406 -702 0
-407 -703 0
-408 -704 0
-405 -717 0
-406 -718 0
-407 -719 0
-408 -720 0
-405 -925 0
-406 -926 0
-407 -927 0
-408 -928 0
-405 -949 0
-406 -950 0
-407 -951 0
-408 -952 0
-405 -1305 0
-406 -1306 0
-407 -1307 0
-408 -1308 0
-405 -1329 0
-406 -1330 0
-407 -1331 0
-408 -1332 0
-409 -413 0
-410 -414 0
-411 -415 0
-412 -416 0
-409 -485 0
-410 -486 0
-411 -487 0
-412 -488 0
-409 -545 0
-410 -546 0
-411 -547 0
-412 -548 0
-409 -577 0
-410 -578 0
-411 -579 0
-412 -580 0
-409 -609 0
-410 -610 0
-411 -611 0
-412 -612 0
-409 -665 0
-410 -666 0
-411 -667 0
-412 -668 0
-409 -705 0
-410 -706 0
-411 -707 0
-412 -708 0
-409 -721 0
-410 -722 0
-411 -723 0
-412 -724 0
-409 -929 0
-410 -930 0
-411 -931 0
-412 -932 0
-409 -953 0
-410 -954 0
-411 -955 0
-412 -956 0
-409 -1309 0
-410 -1310 0
-411 -1311 0
-412 -1312 0
-409 -1333 0
-410 -1334 0
-411 -1335 0
-412 -1336 0
-413 -417 0
-414 -418 0
-415 -419 0
-416 -420 0
-413 -489 0
-414 -490 0
-415 -491 0
-416 -492 0
-413 -549 0
-414 -550 0
-415 -551 0
-416 -552 0
-413 -581 0
-414 -582 0
-415 -583 0
-416 -584 0
-413 -613 0
-414 -614 0
-415 -615 0
-416 -616 0
-413 -669 0
-414 -670 0
-415 -671 0
-416 -672 0
-413 -709 0
-414 -710 0
-415 -711 0
-416 -712 0
-413 -725 0
-414 -726 0
-415 -727 0
-416 -728 0
-413 -933 0
-414 -934 0
-415 -935 0
-416 -936 0
-413 -957 0
-414 -958 0
-415 -959 0
-416 -960 0
-413 -1313 0
-414 -1314 0
-415 -1315 0
-416 -1316 0
-413 -1337 0
-414 -1338 0
-415 -1339 0
-416 -1340 0
-417 -421 0
-418 -422 0
-419 -423 0
-420 -424 0
-417 -493 0
-418 -494 0
-419 -495 0
-420 -496 0
-417 -553 0
-418 -554 0
-419 -555 0
-420 -556 0
-417 -585 0
-418 -586 0
-419 -587 0
-420 -588 0
-417 -617 0
-418 -618 0
-419 -619 0
-420 -620 0
-417 -673 0
-418 -674 0
-419 -675 0
-420 -676 0
-417 -713 0
-418 -714 0
-419 -715 0
-420 -716 0
-417 -729 0
-418 -730 0
-419 -731 0
-420 -732 0
-417 -937 0
-418 -938 0
-419 -939 0
-420 -940 0
-417 -961 0
-418 -962 0
-419 -963 0
-420 -964 0
-417 -1317 0
-418 -1318 0
-419 -1319 0
-420 -1320 0
-417 -1341 0
-418 -1342 0
-419 -1343 0
-420 -1344 0
-421 -425 0
-422 -426 0
-423 -427 0
-424 -428 0
-421 -497 0
-422 -498 0
-423 -499 0
-424 -500 0
-421 -557 0
-422 -558 0
-423 -559 0
-424 -560 0
-421 -589 0
-422 -590 0
-423 -591 0
-424 -592 0
-421 -621 0
-422 -622 0
-423 -623 0
-424 -624 0
-421 -677 0
-422 -678 0
-423 -679 0
-424 -680 0
-421 -717 0
-422 -718 0
-423 -719 0
-424 -720 0
-421 -733 0
-422 -734 0
-423 -735 0
-424 -736 0
-421 -941 0
-422 -942 0
-423 -943 0
-424 -944 0
-421 -965 0
-422 -966 0
-423 -967 0
-424 -968 0
-421 -1321 0
-422 -1322 0
-423 -1323 0
-424 -1324 0
-421 -1345 0
-422 -1346 0
-423 -1347 0
-424 -1348 0
-425 -429 0
-426 -430 0
-427 -431 0
-428 -432 0
-425 -501 0
-426 -502 0
-427 -503 0
-428 -504 0
-425 -561 0
-426 -562 0
-427 -563 0
-428 -564 0
-425 -593 0
-426 -594 0
-427 -595 0
-428 -596 0
-425 -625 0
-426 -626 0
-427 -627 0
-428 -628 0
-425 -681 0
-426 -682 0
-427 -683 0
-428 -684 0
-425 -721 0
-426 -722 0
-427 -723 0
-428 -724 0
-425 -737 0
-426 -738 0
-427 -739 0
-428 -740 0
-425 -945 0
-426 -946 0
-427 -947 0
-428 -948 0
-425 -969 0
-426 -970 0
-427 -971 0
-428 -972 0
-425 -1325 0
-426 -1326 0
-427 -1327 0
-428 -1328 0
-425 -1349 0
-426 -1350 0
-427 -1351 0
-428 -1352 0
-429 -433 0
-430 -434 0
-431 -435 0
-432 -436 0
-429 -505 0
-430 -506 0
-431 -507 0
-432 -508 0
-429 -565 0
-430 -566 0
-431 -567 0
-432 -568 0
-429 -597 0
-430 -598 0
-431 -599 0
-432 -600 0
-429 -609 0
-430 -610 0
-431 -611 0
-432 -612 0
-429 -629 0
-430 -630 0
-431 -631 0
-432 -632 0
-429 -725 0
-430 -726 0
-431 -727 0
-432 -728 0
-429 -741 0
-430 -742 0
-431 -743 0
-432 -744 0
-429 -949 0
-430 -950 0
-431 -951 0
-432 -952 0
-429 -973 0
-430 -974 0
-431 -975 0
-432 -976 0
-429 -1329 0
-430 -1330 0
-431 -1331 0
-432 -1332 0
-429 -1353 0
-430 -1354 0
-431 -1355 0
-432 -1356 0
-433 -437 0
-434 -438 0
-435 -439 0
-436 -440 0
-433 -509 0
-434 -510 0
-435 -511 0
-436 -512 0
-433 -569 0
-434 -570 0
-435 -571 0
-436 -572 0
-433 -601 0
-434 -602 0
-435 -603 0
-436 -604 0
-433 -613 0
-434 -614 0
-435 -615 0
-436 -616 0
-433 -633 0
-434 -634 0
-435 -635 0
-436 -636 0
-433 -729 0
-434 -730 0
-435 -731 0
-436 -732 0
-433 -745 0
-434 -746 0
-435 -747 0
-436 -748 0
-433 -953 0
-434 -954 0
-435 -955 0
-436 -956 0
-433 -977 0
-434 -978 0
-435 -979 0
-436 -980 0
-433 -1333 0
-434 -1334 0
-435 -1335 0
-436 -1336 0
-433 -1357 0
-434 -1358 0
-435 -1359 0
-436 -1360 0
-437 -441 0
-438 -442 0
-439 -443 0
-440 -444 0
-437 -513 0
-438 -514 0
-439 -515 0
-440 -516 0
-437 -573 0
-438 -574 0
-439 -575 0
-440 -576 0
-437 -605 0
-438 -606 0
-439 -607 0
-440 -608 0
-437 -617 0
-438 -618 0
-439 -619 0
-440 -620 0
-437 -637 0
-438 -638 0
-439 -639 0
-440 -640 0
-437 -733 0
-438 -734 0
-439 -735 0
-440 -736 0
-437 -749 0
-438 -750 0
-439 -751 0
-440 -752 0
-437 -957 0
-438 -958 0
-439 -959 0
-440 -960 0
-437 -981 0
-438 -982 0
-439 -983 0
-440 -984 0
-437 -1337 0
-438 -1338 0
-439 -1339 0
-440 -1340 0
-437 -1361 0
-438 -1362 0
-439 -1363 0
-440 -1364 0
-441 -445 0
-442 -446 0
-443 -447 0
-444 -448 0
-441 -517 0
-442 -518 0
-443 -519 0
-444 -520 0
-441 -533 0
-442 -534 0
-443 -535 0
-444 -536 0
-441 -577 0
-442 -578 0
-443 -579 0
-444 -580 0
-441 -621 0
-442 -622 0
-443 -623 0
-444 -624 0
-441 -641 0
-442 -642 0
-443 -643 0
-444 -644 0
-441 -737 0
-442 -738 0
-443 -739 0
-444 -740 0
-441 -753 0
-442 -754 0
-443 -755 0
-444 -756 0
-441 -961 0
-442 -962 0
-443 -963 0
-444 -964 0
-441 -985 0
-442 -986 0
-443 -987 0
-444 -988 0
-441 -1341 0
-442 -1342 0
-443 -1343 0
-444 -1344 0
-441 -1365 0
-442 -1366 0
-443 -1367 0
-444 -1368 0
-445 -449 0
-446 -450 0
-447 -451 0
-448 -452 0
-445 -521 0
-446 -522 0
-447 -523 0
-448 -524 0
-445 -537 0
-446 -538 0
-447 -539 0
-448 -540 0
-445 -581 0
-446 -582 0
-447 -583 0
-448 -584 0
-445 -625 0
-446 -626 0
-447 -627 0
-448 -628 0
-445 -645 0
-446 -646 0
-447 -647 0
-448 -648 0
-445 -741 0
-446 -742 0
-447 -743 0
-448 -744 0
-445 -757 0
-446 -758 0
-447 -759 0
-448 -760 0
-445 -913 0
-446 -914 0
-447 -915 0
-448 -916 0
-445 -965 0
-446 -966 0
-447 -967 0
-448 -968 0
-445 -1293 0
-446 -1294 0
-447 -1295 0
-448 -1296 0
-445 -1345 0
-446 -1346 0
-447 -1347 0
-448 -1348 0
-449 -453 0
-450 -454 0
-451 -455 0
-452 -456 0
-449 -525 0
-450 -526 0
-451 -527 0
-452 -528 0
-449 -541 0
-450 -542 0
-451 -543 0
-452 -544 0
-449 -585 0
-450 -586 0
-451 -587 0
-452 -588 0
-449 -629 0
-450 -630 0
-451 -631 0
-452 -632 0
-449 -649 0
-450 -650 0
-451 -651 0
-452 -652 0
-449 -685 0
-450 -686 0
-451 -687 0
-452 -688 0
-449 -745 0
-450 -746 0
-451 -747 0
-452 -748 0
-449 -917 0
-450 -918 0
-451 -919 0
-452 -920 0
-449 -969 0
-450 -970 0
-451 -971 0
-452 -972 0
-449 -1297 0
-450 -1298 0
-451 -1299 0
-452 -1300 0
-449 -1349 0
-450 -1350 0
-451 -1351 0
-452 -1352 0
-453 -529 0
-454 -530 0
-455 -531 0
-456 -532 0
-453 -545 0
-454 -546 0
-455 -547 0
-456 -548 0
-453 -589 0
-454 -590 0
-455 -591 0
-456 -592 0
-453 -633 0
-454 -634 0
-455 -635 0
-456 -636 0
-453 -653 0
-454 -654 0
-455 -655 0
-456 -656 0
-453 -689 0
-454 -690 0
-455 -691 0
-456 -692 0
-453 -749 0
-454 -750 0
-455 -751 0
-456 -752 0
-453 -921 0
-454 -922 0
-455 -923 0
-456 -924 0
-453 -973 0
-454 -974 0
-455 -975 0
-456 -976 0
-453 -1301 0
-454 -1302 0
-455 -1303 0
-456 -1304 0
-453 -1353 0
-454 -1354 0
-455 -1355 0
-456 -1356 0
-457 -461 0
-458 -462 0
-459 -463 0
-460 -464 0
-457 -529 0
-458 -530 0
-459 -531 0
-460 -532 0
-457 -533 0
-458 -534 0
-459 -535 0
-460 -536 0
-457 -625 0
-458 -626 0
-459 -627 0
-460 -628 0
-457 -669 0
-458 -670 0
-459 -671 0
-460 -672 0
-457 -713 0
-458 -714 0
-459 -715 0
-460 -716 0
-457 -733 0
-458 -734 0
-459 -735 0
-460 -736 0
-457 -769 0
-458 -770 0
-459 -771 0
-460 -772 0
-457 -829 0
-458 -830 0
-459 -831 0
-460 -832 0
-457 -1001 0
-458 -1002 0
-459 -1003 0
-460 -1004 0
-457 -1053 0
-458 -1054 0
-459 -1055 0
-460 -1056 0
-457 -1381 0
-458 -1382 0
-459 -1383 0
-460 -1384 0
-457 -1433 0
-458 -1434 0
-459 -1435 0
-460 -1436 0
-461 -465 0
-462 -466 0
-463 -467 0
-464 -468 0
-461 -537 0
-462 -538 0
-463 -539 0
-464 -540 0
-461 -629 0
-462 -630 0
-463 -631 0
-464 -632 0
-461 -673 0
-462 -674 0
-463 -675 0
-464 -676 0
-461 -717 0
-462 -718 0
-463 -719 0
-464 -720 0
-461 -737 0
-462 -738 0
-463 -739 0
-464 -740 0
-461 -773 0
-462 -774 0
-463 -775 0
-464 -776 0
-461 -833 0
-462 -834 0
-463 -835 0
-464 -836 0
-461 -1005 0
-462 -1006 0
-463 -1007 0
-464 -1008 0
-461 -1057 0
-462 -1058 0
-463 -1059 0
-464 -1060 0
-461 -1385 0
-462 -1386 0
-463 -1387 0
-464 -1388 0
-461 -1437 0
-462 -1438 0
-463 -1439 0
-464 -1440 0
-465 -469 0
-466 -470 0
-467 -471 0
-468 -472 0
-465 -541 0
-466 -542 0
-467 -543 0
-468 -544 0
-465 -633 0
-466 -634 0
-467 -635 0
-468 -636 0
-465 -677 0
-466 -678 0
-467 -679 0
-468 -680 0
-465 -721 0
-466 -722 0
-467 -723 0
-468 -724 0
-465 -741 0
-466 -742 0
-467 -743 0
-468 -744 0
-465 -761 0
-466 -762 0
-467 -763 0
-468 -764 0
-465 -777 0
-466 -778 0
-467 -779 0
-468 -780 0
-465 -1009 0
-466 -1010 0
-467 -1011 0
-468 -1012 0
-465 -1061 0
-466 -1062 0
-467 -1063 0
-468 -1064 0
-465 -1389 0
-466 -1390 0
-467 -1391 0
-468 -1392 0
-465 -1441 0
-466 -1442 0
-467 -1443 0
-468 -1444 0
-469 -473 0
-470 -474 0
-471 -475 0
-472 -476 0
-469 -545 0
-470 -546 0
-471 -547 0
-472 -548 0
-469 -637 0
-470 -638 0
-471 -639 0
-472 -640 0
-469 -681 0
-470 -682 0
-471 -683 0
-472 -684 0
-469 -725 0
-470 -726 0
-471 -727 0
-472 -728 0
-469 -745 0
-470 -746 0
-471 -747 0
-472 -748 0
-469 -765 0
-470 -766 0
-471 -767 0
-472 -768 0
-469 -781 0
-470 -782 0
-471 -783 0
-472 -784 0
-469 -989 0
-470 -990 0
-471 -991 0
-472 -992 0
-469 -1013 0
-470 -1014 0
-471 -1015 0
-472 -1016 0
-469 -1369 0
-470 -1370 0
-471 -1371 0
-472 -1372 0
-469 -1393 0
-470 -1394 0
-471 -1395 0
-472 -1396 0
-473 -477 0
-474 -478 0
-475 -479 0
-476 -480 0
-473 -549 0
-474 -550 0
-475 -551 0
-476 -552 0
-473 -609 0
-474 -610 0
-475 -611 0
-476 -612 0
-473 -641 0
-474 -642 0
-475 -643 0
-476 -644 0
-473 -729 0
-474 -730 0
-475 -731 0
-476 -732 0
-473 -749 0
-474 -750 0
-475 -751 0
-476 -752 0
-473 -769 0
-474 -770 0
-475 -771 0
-476 -772 0
-473 -785 0
-474 -786 0
-475 -787 0
-476 -788 0
-473 -993 0
-474 -994 0
-475 -995 0
-476 -996 0
-473 -1017 0
-474 -1018 0
-475 -1019 0
-476 -1020 0
-473 -1373 0
-474 -1374 0
-475 -1375 0
-476 -1376 0
-473 -1397 0
-474 -1398 0
-475 -1399 0
-476 -1400 0
-477 -481 0
-478 -482 0
-479 -483 0
-480 -484 0
-477 -553 0
-478 -554 0
-479 -555 0
-480 -556 0
-477 -613 0
-478 -614 0
-479 -615 0
-480 -616 0
-477 -645 0
-478 -646 0
-479 -647 0
-480 -648 0
-477 -733 0
-478 -734 0
-479 -735 0
-480 -736 0
-477 -753 0
-478 -754 0
-479 -755 0
-480 -756 0
-477 -773 0
-478 -774 0
-479 -775 0
-480 -776 0
-477 -789 0
-478 -790 0
-479 -791 0
-480 -792 0
-477 -997 0
-478 -998 0
-479 -999 0
-480 -1000 0
-477 -1021 0
-478 -1022 0
-479 -1023 0
-480 -1024 0
-477 -1377 0
-478 -1378 0
-479 -1379 0
-480 -1380 0
-477 -1401 0
-478 -1402 0
-479 -1403 0
-480 -1404 0
-481 -485 0
-482 -486 0
-483 -487 0
-484 -488 0
-481 -557 0
-482 -558 0
-483 -559 0
-484 -560 0
-481 -617 0
-482 -618 0
-483 -619 0
-484 -620 0
-481 -649 0
-482 -650 0
-483 -651 0
-484 -652 0
-481 -737 0
-482 -738 0
-483 -739 0
-484 -740 0
-481 -757 0
-482 -758 0
-483 -759 0
-484 -760 0
-481 -777 0
-482 -778 0
-483 -779 0
-484 -780 0
-481 -793 0
-482 -794 0
-483 -795 0
-484 -796 0
-481 -1001 0
-482 -1002 0
-483 -1003 0
-484 -1004 0
-481 -1025 0
-482 -1026 0
-483 -1027 0
-484 -1028 0
-481 -1381 0
-482 -1382 0
-483 -1383 0
-484 -1384 0
-481 -1405 0
-482 -1406 0
-483 -1407 0
-484 -1408 0
-485 -489 0
-486 -490 0
-487 -491 0
-488 -492 0
-485 -561 0
-486 -562 0
-487 -563 0
-488 -564 0
-485 -621 0
-486 -622 0
-487 -623 0
-488 -624 0
-485 -653 0
-486 -654 0
-487 -655 0
-488 -656 0
-485 -685 0
-486 -686 0
-487 -687 0
-488 -688 0
-485 -741 0
-486 -742 0
-487 -743 0
-488 -744 0
-485 -781 0
-486 -782 0
-487 -783 0
-488 -784 0
-485 -797 0
-486 -798 0
-487 -799 0
-488 -800 0
-485 -1005 0
-486 -1006 0
-487 -1007 0
-488 -1008 0
-485 -1029 0
-486 -1030 0
-487 -1031 0
-488 -1032 0
-485 -1385 0
-486 -1386 0
-487 -1387 0
-488 -1388 0
-485 -1409 0
-486 -1410 0
-487 -1411 0
-488 -1412 0
-489 -493 0
-490 -494 0
-491 -495 0
-492 -496 0
-489 -565 0
-490 -566 0
-491 -567 0
-492 -568 0
-489 -625 0
-490 -626 0
-491 -627 0
-492 -628 0
-489 -657 0
-490 -658 0
-491 -659 0
-492 -660 0
-489 -689 0
-490 -690 0
-491 -691 0
-492 -692 0
-489 -745 0
-490 -746 0
-491 -747 0
-492 -748 0
-489 -785 0
-490 -786 0
-491 -787 0
-492 -788 0
-489 -801 0
-490 -802 0
-491 -803 0
-492 -804 0
-489 -1009 0
-490 -1010 0
-491 -1011 0
-492 -1012 0
-489 -1033 0
-490 -1034 0
-491 -1035 0
-492 -1036 0
-489 -1389 0
-490 -1390 0
-491 -1391 0
-492 -1392 0
-489 -1413 0
-490 -1414 0
-491 -1415 0
-492 -1416 0
-493 -497 0
-494 -498 0
-495 -499 0
-496 -500 0
-493 -569 0
-494 -570 0
-495 -571 0
-496 -572 0
-493 -629 0
-494 -630 0
-495 -631 0
-496 -632 0
-493 -661 0
-494 -662 0
-495 -663 0
-496 -664 0
-493 -693 0
-494 -694 0
-495 -695 0
-496 -696 0
-493 -749 0
-494 -750 0
-495 -751 0
-496 -752 0
-493 -789 0
-494 -790 0
-495 -791 0
-496 -792 0
-493 -805 0
-494 -806 0
-495 -807 0
-496 -808 0
-493 -1013 0
-494 -1014 0
-495 -1015 0
-496 -1016 0
-493 -1037 0
-494 -1038 0
-495 -1039 0
-496 -1040 0
-493 -1393 0
-494 -1394 0
-495 -1395 0
-496 -1396 0
-493 -1417 0
-494 -1418 0
-495 -1419 0
-496 -1420 0
-497 -501 0
-498 -502 0
-499 -503 0
-500 -504 0
-497 -573 0
-498 -574 0
-499 -575 0
-500 -576 0
-497 -633 0
-498 -634 0
-499 -635 0
-500 -636 0
-497 -665 0
-498 -666 0
-499 -667 0
-500 -668 0
-497 -697 0
-498 -698 0
-499 -699 0
-500 -700 0
-497 -753 0
-498 -754 0
-499 -755 0
-500 -756 0
-497 -793 0
-498 -794 0
-499 -795 0
-500 -796 0
-497 -809 0
-498 -810 0
-499 -811 0
-500 -812 0
-497 -1017 0
-498 -1018 0
-499 -1019 0
-500 -1020 0
-497 -1041 0
-498 -1042 0
-499 -1043 0
-500 -1044 0
-497 -1397 0
-498 -1398 0
-499 -1399 0
-500 -1400 0
-497 -1421 0
-498 -1422 0
-499 -1423 0
-500 -1424 0
-501 -505 0
-502 -506 0
-503 -507 0
-504 -508 0
-501 -577 0
-502 -578 0
-503 -579 0
-504 -580 0
-501 -637 0
-502 -638 0
-503 -639 0
-504 -640 0
-501 -669 0
-502 -670 0
-503 -671 0
-504 -672 0
-501 -701 0
-502 -702 0
-503 -703 0
-504 -704 0
-501 -757 0
-502 -758 0
-503 -759 0
-504 -760 0
-501 -797 0
-502 -798 0
-503 -799 0
-504 -800 0
-501 -813 0
-502 -814 0
-503 -815 0
-504 -816 0
-501 -1021 0
-502 -1022 0
-503 -1023 0
-504 -1024 0
-501 -1045 0
-502 -1046 0
-503 -1047 0
-504 -1048 0
-501 -1401 0
-502 -1402 0
-503 -1403 0
-504 -1404 0
-501 -1425 0
-502 -1426 0
-503 -1427 0
-504 -1428 0
-505 -509 0
-506 -510 0
-507 -511 0
-508 -512 0
-505 -581 0
-506 -582 0
-507 -583 0
-508 -584 0
-505 -641 0
-506 -642 0
-507 -643 0
-508 -644 0
-505 -673 0
-506 -674 0
-507 -675 0
-508 -676 0
-505 -685 0
-506 -686 0
-507 -687 0
-508 -688 0
-505 -705 0
-506 -706 0
-507 -707 0
-508 -708 0
-505 -801 0
-506 -802 0
-507 -803 0
-508 -804 0
-505 -817 0
-506 -818 0
-507 -819 0
-508 -820 0
-505 -1025 0
-506 -1026 0
-507 -1027 0
-508 -1028 0
-505 -1049 0
-506 -1050 0
-507 -1051 0
-508 -1052 0
-505 -1405 0
-506 -1406 0
-507 -1407 0
-508 -1408 0
-505 -1429 0
-506 -1430 0
-507 -1431 0
-508 -1432 0
-509 -513 0
-510 -514 0
-511 -515 0
-512 -516 0
-509 -585 0
-510 -586 0
-511 -587 0
-512 -588 0
-509 -645 0
-510 -646 0
-511 -647 0
-512 -648 0
-509 -677 0
-510 -678 0
-511 -679 0
-512 -680 0
-509 -689 0
-510 -690 0
-511 -691 0
-512 -692 0
-509 -709 0
-510 -710 0
-511 -711 0
-512 -712 0
-509 -805 0
-510 -806 0
-511 -807 0
-512 -808 0
-509 -821 0
-510 -822 0
-511 -823 0
-512 -824 0
-509 -1029 0
-510 -1030 0
-511 -1031 0
-512 -1032 0
-509 -1053 0
-510 -1054 0
-511 -1055 0
-512 -1056 0
-509 -1409 0
-510 -1410 0
-511 -1411 0
-512 -1412 0
-509 -1433 0
-510 -1434 0
-511 -1435 0
-512 -1436 0
-513 -517 0
-514 -518 0
-515 -519 0
-516 -520 0
-513 -589 0
-514 -590 0
-515 -591 0
-516 -592 0
-513 -649 0
-514 -650 0
-515 -651 0
-516 -652 0
-513 -681 0
-514 -682 0
-515 -683 0
-516 -684 0
-513 -693 0
-514 -694 0
-515 -695 0
-516 -696 0
-513 -713 0
-514 -714 0
-515 -715 0
-516 -716 0
-513 -809 0
-514 -810 0
-515 -811 0
-516 -812 0
-513 -825 0
-514 -826 0
-515 -827 0
-516 -828 0
-513 -1033 0
-514 -1034 0
-515 -1035 0
-516 -1036 0
-513 -1057 0
-514 -1058 0
-515 -1059 0
-516 -1060 0
-513 -1413 0
-514 -1414 0
-515 -1415 0
-516 -1416 0
-513 -1437 0
-514 -1438 0
-515 -1439 0
-516 -1440 0
-517 -521 0
-518 -522 0
-519 -523 0
-520 -524 0
-517 -593 0
-518 -594 0
-519 -595 0
-520 -596 0
-517 -609 0
-518 -610 0
-519 -611 0
-520 -612 0
-517 -653 0
-518 -654 0
-519 -655 0
-520 -656 0
-517 -697 0
-518 -698 0
-519 -699 0
-520 -700 0
-517 -717 0
-518 -718 0
-519 -719 0
-520 -720 0
-517 -813 0
-518 -814 0
-519 -815 0
-520 -816 0
-517 -829 0
-518 -830 0
-519 -831 0
-520 -832 0
-517 -1037 0
-518 -1038 0
-519 -1039 0
-520 -1040 0
-517 -1061 0
-518 -1062 0
-519 -1063 0
-520 -1064 0
-517 -1417 0
-518 -1418 0
-519 -1419 0
-520 -1420 0
-517 -1441 0
-518 -1442 0
-519 -1443 0
-520 -1444 0
-521 -525 0
-522 -526 0
-523 -527 0
-524 -528 0
-521 -597 0
-522 -598 0
-523 -599 0
-524 -600 0
-521 -613 0
-522 -614 0
-523 -615 0
-524 -616 0
-521 -657 0
-522 -658 0
-523 -659 0
-524 -660 0
-521 -701 0
-522 -702 0
-523 -703 0
-524 -704 0
-521 -721 0
-522 -722 0
-523 -723 0
-524 -724 0
-521 -817 0
-522 -818 0
-523 -819 0
-524 -820 0
-521 -833 0
-522 -834 0
-523 -835 0
-524 -836 0
-521 -989 0
-522 -990 0
-523 -991 0
-524 -992 0
-521 -1041 0
-522 -1042 0
-523 -1043 0
-524 -1044 0
-521 -1369 0
-522 -1370 0
-523 -1371 0
-524 -1372 0
-521 -1421 0
-522 -1422 0
-523 -1423 0
-524 -1424 0
-525 -529 0
-526 -530 0
-527 -531 0
-528 -532 0
-525 -601 0
-526 -602 0
-527 -603 0
-528 -604 0
-525 -617 0
-526 -618 0
-527 -619 0
-528 -620 0
-525 -661 0
-526 -662 0
-527 -663 0
-528 -664 0
-525 -705 0
-526 -706 0
-527 -707 0
-528 -708 0
-525 -725 0
-526 -726 0
-527 -727 0
-528 -728 0
-525 -761 0
-526 -762 0
-527 -763 0
-528 -764 0
-525 -821 0
-526 -822 0
-527 -823 0
-528 -824 0
-525 -993 0
-526 -994 0
-527 -995 0
-528 -996 0
-525 -1045 0
-526 -1046 0
-527 -1047 0
-528 -1048 0
-525 -1373 0
-526 -1374 0
-527 -1375 0
-528 -1376 0
-525 -1425 0
-526 -1426 0
-527 -1427 0
-528 -1428 0
-529 -605 0
-530 -606 0
-531 -607 0
-532 -608 0
-529 -621 0
-530 -622 0
-531 -623 0
-532 -624 0
-529 -665 0
-530 -666 0
-531 -667 0
-532 -668 0
-529 -709 0
-530 -710 0
-531 -711 0
-532 -712 0
-529 -729 0
-530 -730 0
-531 -731 0
-532 -732 0
-529 -765 0
-530 -766 0
-531 -767 0
-532 -768 0
-529 -825 0
-530 -826 0
-531 -827 0
-532 -828 0
-529 -997 0
-530 -998 0
-531 -999 0
-532 -1000 0
-529 -1049 0
-530 -1050 0
-531 -1051 0
-532 -1052 0
-529 -1377 0
-530 -1378 0
-531 -1379 0
-532 -1380 0
-529 -1429 0
-530 -1430 0
-531 -1431 0
-532 -1432 0
-533 -537 0
-534 -538 0
-535 -539 0
-536 -540 0
-533 -605 0
-534 -606 0
-535 -607 0
-536 -608 0
-533 -609 0
-534 -610 0
-535 -611 0
-536 -612 0
-533 -701 0
-534 -702 0
-535 -703 0
-536 -704 0
-533 -745 0
-534 -746 0
-535 -747 0
-536 -748 0
-533 -789 0
-534 -790 0
-535 -791 0
-536 -792 0
-533 -809 0
-534 -810 0
-535 -811 0
-536 -812 0
-533 -845 0
-534 -846 0
-535 -847 0
-536 -848 0
-533 -905 0
-534 -906 0
-535 -907 0
-536 -908 0
-533 -1077 0
-534 -1078 0
-535 -1079 0
-536 -1080 0
-533 -1129 0
-534 -1130 0
-535 -1131 0
-536 -1132 0
-537 -541 0
-538 -542 0
-539 -543 0
-540 -544 0
-537 -613 0
-538 -614 0
-539 -615 0
-540 -616 0
-537 -705 0
-538 -706 0
-539 -707 0
-540 -708 0
-537 -749 0
-538 -750 0
-539 -751 0
-540 -752 0
-537 -793 0
-538 -794 0
-539 -795 0
-540 -796 0
-537 -813 0
-538 -814 0
-539 -815 0
-540 -816 0
-537 -849 0
-538 -850 0
-539 -851 0
-540 -852 0
-537 -909 0
-538 -910 0
-539 -911 0
-540 -912 0
-537 -1081 0
-538 -1082 0
-539 -1083 0
-540 -1084 0
-537 -1133 0
-538 -1134 0
-539 -1135 0
-540 -1136 0
-541 -545 0
-542 -546 0
-543 -547 0
-544 -548 0
-541 -617 0
-542 -618 0
-543 -619 0
-544 -620 0
-541 -709 0
-542 -710 0
-543 -711 0
-544 -712 0
-541 -753 0
-542 -754 0
-543 -755 0
-544 -756 0
-541 -797 0
-542 -798 0
-543 -799 0
-544 -800 0
-541 -817 0
-542 -818 0
-543 -819 0
-544 -820 0
-541 -837 0
-542 -838 0
-543 -839 0
-544 -840 0
-541 -853 0
-542 -854 0
-543 -855 0
-544 -856 0
-541 -1085 0
-542 -1086 0
-543 -1087 0
-544 -1088 0
-541 -1137 0
-542 -1138 0
-543 -1139 0
-544 -1140 0
-545 -549 0
-546 -550 0
-547 -551 0
-548 -552 0
-545 -621 0
-546 -622 0
-547 -623 0
-548 -624 0
-545 -713 0
-546 -714 0
-547 -715 0
-548 -716 0
-545 -757 0
-546 -758 0
-547 -759 0
-548 -760 0
-545 -801 0
-546 -802 0
-547 -803 0
-548 -804 0
-545 -821 0
-546 -822 0
-547 -823 0
-548 -824 0
-545 -841 0
-546 -842 0
-547 -843 0
-548 -844 0
-545 -857 0
-546 -858 0
-547 -859 0
-548 -860 0
-545 -1065 0
-546 -1066 0
-547 -1067 0
-548 -1068 0
-545 -1089 0
-546 -1090 0
-547 -1091 0
-548 -1092 0
-549 -553 0
-550 -554 0
-551 -555 0
-552 -556 0
-549 -625 0
-550 -626 0
-551 -627 0
-552 -628 0
-549 -685 0
-550 -686 0
-551 -687 0
-552 -688 0
-549 -717 0
-550 -718 0
-551 -719 0
-552 -720 0
-549 -805 0
-550 -806 0
-551 -807 0
-552 -808 0
-549 -825 0
-550 -826 0
-551 -827 0
-552 -828 0
-549 -845 0
-550 -846 0
-551 -847 0
-552 -848 0
-549 -861 0
-550 -862 0
-551 -863 0
-552 -864 0
-549 -1069 0
-550 -1070 0
-551 -1071 0
-552 -1072 0
-549 -1093 0
-550 -1094 0
-551 -1095 0
-552 -1096 0
-553 -557 0
-554 -558 0
-555 -559 0
-556 -560 0
-553 -629 0
-554 -630 0
-555 -631 0
-556 -632 0
-553 -689 0
-554 -690 0
-555 -691 0
-556 -692 0
-553 -721 0
-554 -722 0
-555 -723 0
-556 -724 0
-553 -809 0
-554 -810 0
-555 -811 0
-556 -812 0
-553 -829 0
-554 -830 0
-555 -831 0
-556 -832 0
-553 -849 0
-554 -850 0
-555 -851 0
-556 -852 0
-553 -865 0
-554 -866 0
-555 -867 0
-556 -868 0
-553 -1073 0
-554 -1074 0
-555 -1075 0
-556 -1076 0
-553 -1097 0
-554 -1098 0
-555 -1099 0
-556 -1100 0
-557 -561 0
-558 -562 0
-559 -563 0
-560 -564 0
-557 -633 0
-558 -634 0
-559 -635 0
-560 -636 0
-557 -693 0
-558 -694 0
-559 -695 0
-560 -696 0
-557 -725 0
-558 -726 0
-559 -727 0
-560 -728 0
-557 -813 0
-558 -814 0
-559 -815 0
-560 -816 0
-557 -833 0
-558 -834 0
-559 -835 0
-560 -836 0
-557 -853 0
-558 -854 0
-559 -855 0
-560 -856 0
-557 -869 0
-558 -870 0
-559 -871 0
-560 -872 0
-557 -1077 0
-558 -1078 0
-559 -1079 0
-560 -1080 0
-557 -1101 0
-558 -1102 0
-559 -1103 0
-560 -1104 0
-561 -565 0
-562 -566 0
-563 -567 0
-564 -568 0
-561 -637 0
-562 -638 0
-563 -639 0
-564 -640 0
-561 -697 0
-562 -698 0
-563 -699 0
-564 -700 0
-561 -729 0
-562 -730 0
-563 -731 0
-564 -732 0
-561 -761 0
-562 -762 0
-563 -763 0
-564 -764 0
-561 -817 0
-562 -818 0
-563 -819 0
-564 -820 0
-561 -857 0
-562 -858 0
-563 -859 0
-564 -860 0
-561 -873 0
-562 -874 0
-563 -875 0
-564 -876 0
-561 -1081 0
-562 -1082 0
-563 -1083 0
-564 -1084 0
-561 -1105 0
-562 -1106 0
-563 -1107 0
-564 -1108 0
-565 -569 0
-566 -570 0
-567 -571 0
-568 -572 0
-565 -641 0
-566 -642 0
-567 -643 0
-568 -644 0
-565 -701 0
-566 -702 0
-567 -703 0
-568 -704 0
-565 -733 0
-566 -734 0
-567 -735 0
-568 -736 0
-565 -765 0
-566 -766 0
-567 -767 0
-568 -768 0
-565 -821 0
-566 -822 0
-567 -823 0
-568 -824 0
-565 -861 0
-566 -862 0
-567 -863 0
-568 -864 0
-565 -877 0
-566 -878 0
-567 -879 0
-568 -880 0
-565 -1085 0
-566 -1086 0
-567 -1087 0
-568 -1088 0
-565 -1109 0
-566 -1110 0
-567 -1111 0
-568 -1112 0
-569 -573 0
-570 -574 0
-571 -575 0
-572 -576 0
-569 -645 0
-570 -646 0
-571 -647 0
-572 -648 0
-569 -705 0
-570 -706 0
-571 -707 0
-572 -708 0
-569 -737 0
-570 -738 0
-571 -739 0
-572 -740 0
-569 -769 0
-570 -770 0
-571 -771 0
-572 -772 0
-569 -825 0
-570 -826 0
-571 -827 0
-572 -828 0
-569 -865 0
-570 -866 0
-571 -867 0
-572 -868 0
-569 -881 0
-570 -882 0
-571 -883 0
-572 -884 0
-569 -1089 0
-570 -1090 0
-571 -1091 0
-572 -1092 0
-569 -1113 0
-570 -1114 0
-571 -1115 0
-572 -1116 0
-573 -577 0
-574 -578 0
-575 -579 0
-576 -580 0
-573 -649 0
-574 -650 0
-575 -651 0
-576 -652 0
-573 -709 0
-574 -710 0
-575 -711 0
-576 -712 0
-573 -741 0
-574 -742 0
-575 -743 0
-576 -744 0
-573 -773 0
-574 -774 0
-575 -775 0
-576 -776 0
-573 -829 0
-574 -830 0
-575 -831 0
-576 -832 0
-573 -869 0
-574 -870 0
-575 -871 0
-576 -872 0
-573 -885 0
-574 -886 0
-575 -887 0
-576 -888 0
-573 -1093 0
-574 -1094 0
-575 -1095 0
-576 -1096 0
-573 -1117 0
-574 -1118 0
-575 -1119 0
-576 -1120 0
-577 -581 0
-578 -582 0
-579 -583 0
-580 -584 0
-577 -653 0
-578 -654 0
-579 -655 0
-580 -656 0
-577 -713 0
-578 -714 0
-579 -715 0
-580 -716 0
-577 -745 0
-578 -746 0
-579 -747 0
-580 -748 0
-577 -777 0
-578 -778 0
-579 -779 0
-580 -780 0
-577 -833 0
-578 -834 0
-579 -835 0
-580 -836 0
-577 -873 0
-578 -874 0
-579 -875 0
-580 -876 0
-577 -889 0
-578 -890 0
-579 -891 0
-580 -892 0
-577 -1097 0
-578 -1098 0
-579 -1099 0
-580 -1100 0
-577 -1121 0
-578 -1122 0
-579 -1123 0
-580 -1124 0
-581 -585 0
-582 -586 0
-583 -587 0
-584 -588 0
-581 -657 0
-582 -658 0
-583 -659 0
-584 -660 0
-581 -717 0
-582 -718 0
-583 -719 0
-584 -720 0
-581 -749 0
-582 -750 0
-583 -751 0
-584 -752 0
-581 -761 0
-582 -762 0
-583 -763 0
-584 -764 0
-581 -781 0
-582 -782 0
-583 -783 0
-584 -784 0
-581 -877 0
-582 -878 0
-583 -879 0
-584 -880 0
-581 -893 0
-582 -894 0
-583 -895 0
-584 -896 0
-581 -1101 0
-582 -1102 0
-583 -1103 0
-584 -1104 0
-581 -1125 0
-582 -1126 0
-583 -1127 0
-584 -1128 0
-585 -589 0
-586 -590 0
-587 -591 0
-588 -592 0
-585 -661 0
-586 -662 0
-587 -663 0
-588 -664 0
-585 -721 0
-586 -722 0
-587 -723 0
-588 -724 0
-585 -753 0
-586 -754 0
-587 -755 0
-588 -756 0
-585 -765 0
-586 -766 0
-587 -767 0
-588 -768 0
-585 -785 0
-586 -786 0
-587 -787 0
-588 -788 0
-585 -881 0
-586 -882 0
-587 -883 0
-588 -884 0
-585 -897 0
-586 -898 0
-587 -899 0
-588 -900 0
-585 -1105 0
-586 -1106 0
-587 -1107 0
-588 -1108 0
-585 -1129 0
-586 -1130 0
-587 -1131 0
-588 -1132 0
-589 -593 0
-590 -594 0
-591 -595 0
-592 -596 0
-589 -665 0
-590 -666 0
-591 -667 0
-592 -668 0
-589 -725 0
-590 -726 0
-591 -727 0
-592 -728 0
-589 -757 0
-590 -758 0
-591 -759 0
-592 -760 0
-589 -769 0
-590 -770 0
-591 -771 0
-592 -772 0
-589 -789 0
-590 -790 0
-591 -791 0
-592 -792 0
-589 -885 0
-590 -886 0
-591 -887 0
-592 -888 0
-589 -901 0
-590 -902 0
-591 -903 0
-592 -904 0
-589 -1109 0
-590 -1110 0
-591 -1111 0
-592 -1112 0
-589 -1133 0
-590 -1134 0
-591 -1135 0
-592 -1136 0
-593 -597 0
-594 -598 0
-595 -599 0
-596 -600 0
-593 -669 0
-594 -670 0
-595 -671 0
-596 -672 0
-593 -685 0
-594 -686 0
-595 -687 0
-596 -688 0
-593 -729 0
-594 -730 0
-595 -731 0
-596 -732 0
-593 -773 0
-594 -774 0
-595 -775 0
-596 -776 0
-593 -793 0
-594 -794 0
-595 -795 0
-596 -796 0
-593 -889 0
-594 -890 0
-595 -891 0
-596 -892 0
-593 -905 0
-594 -906 0
-595 -907 0
-596 -908 0
-593 -1113 0
-594 -1114 0
-595 -1115 0
-596 -1116 0
-593 -1137 0
-594 -1138 0
-595 -1139 0
-596 -1140 0
-597 -601 0
-598 -602 0
-599 -603 0
-600 -604 0
-597 -673 0
-598 -674 0
-599 -675 0
-600 -676 0
-597 -689 0
-598 -690 0
-599 -691 0
-600 -692 0
-597 -733 0
-598 -734 0
-599 -735 0
-600 -736 0
-597 -777 0
-598 -778 0
-599 -779 0
-600 -780 0
-597 -797 0
-598 -798 0
-599 -799 0
-600 -800 0
-597 -893 0
-598 -894 0
-599 -895 0
-600 -896 0
-597 -909 0
-598 -910 0
-599 -911 0
-600 -912 0
-597 -1065 0
-598 -1066 0
-599 -1067 0
-600 -1068 0
-597 -1117 0
-598 -1118 0
-599 -1119 0
-600 -1120 0
-601 -605 0
-602 -606 0
-603 -607 0
-604 -608 0
-601 -677 0
-602 -678 0
-603 -679 0
-604 -680 0
-601 -693 0
-602 -694 0
-603 -695 0
-604 -696 0
-601 -737 0
-602 -738 0
-603 -739 0
-604 -740 0
-601 -781 0
-602 -782 0
-603 -783 0
-604 -784 0
-601 -801 0
-602 -802 0
-603 -803 0
-604 -804 0
-601 -837 0
-602 -838 0
-603 -839 0
-604 -840 0
-601 -897 0
-602 -898 0
-603 -899 0
-604 -900 0
-601 -1069 0
-602 -1070 0
-603 -1071 0
-604 -1072 0
-601 -1121 0
-602 -1122 0
-603 -1123 0
-604 -1124 0
-605 -681 0
-606 -682 0
-607 -683 0
-608 -684 0
-605 -697 0
-606 -698 0
-607 -699 0
-608 -700 0
-605 -741 0
-606 -742 0
-607 -743 0
-608 -744 0
-605 -785 0
-606 -786 0
-607 -787 0
-608 -788 0
-605 -805 0
-606 -806 0
-607 -807 0
-608 -808 0
-605 -841 0
-606 -842 0
-607 -843 0
-608 -844 0
-605 -901 0
-606 -902 0
-607 -903 0
-608 -904 0
-605 -1073 0
-606 -1074 0
-607 -1075 0
-608 -1076 0
-605 -1125 0
-606 -1126 0
-607 -1127 0
-608 -1128 0
-609 -613 0
-610 -614 0
-611 -615 0
-612 -616 0
-609 -681 0
-610 -682 0
-611 -683 0
-612 -684 0
-609 -685 0
-610 -686 0
-611 -687 0
-612 -688 0
-609 -777 0
-610 -778 0
-611 -779 0
-612 -780 0
-609 -821 0
-610 -822 0
-611 -823 0
-612 -824 0
-609 -865 0
-610 -866 0
-611 -867 0
-612 -868 0
-609 -885 0
-610 -886 0
-611 -887 0
-612 -888 0
-609 -921 0
-610 -922 0
-611 -923 0
-612 -924 0
-609 -981 0
-610 -982 0
-611 -983 0
-612 -984 0
-609 -1153 0
-610 -1154 0
-611 -1155 0
-612 -1156 0
-609 -1205 0
-610 -1206 0
-611 -1207 0
-612 -1208 0
-613 -617 0
-614 -618 0
-615 -619 0
-616 -620 0
-613 -689 0
-614 -690 0
-615 -691 0
-616 -692 0
-613 -781 0
-614 -782 0
-615 -783 0
-616 -784 0
-613 -825 0
-614 -826 0
-615 -827 0
-616 -828 0
-613 -869 0
-614 -870 0
-615 -871 0
-616 -872 0
-613 -889 0
-614 -890 0
-615 -891 0
-616 -892 0
-613 -925 0
-614 -926 0
-615 -927 0
-616 -928 0
-613 -985 0
-614 -986 0
-615 -987 0
-616 -988 0
-613 -1157 0
-614 -1158 0
-615 -1159 0
-616 -1160 0
-613 -1209 0
-614 -1210 0
-615 -1211 0
-616 -1212 0
-617 -621 0
-618 -622 0
-619 -623 0
-620 -624 0
-617 -693 0
-618 -694 0
-619 -695 0
-620 -696 0
-617 -785 0
-618 -786 0
-619 -787 0
-620 -788 0
-617 -829 0
-618 -830 0
-619 -831 0
-620 -832 0
-617 -873 0
-618 -874 0
-619 -875 0
-620 -876 0
-617 -893 0
-618 -894 0
-619 -895 0
-620 -896 0
-617 -913 0
-618 -914 0
-619 -915 0
-620 -916 0
-617 -929 0
-618 -930 0
-619 -931 0
-620 -932 0
-617 -1161 0
-618 -1162 0
-619 -1163 0
-620 -1164 0
-617 -1213 0
-618 -1214 0
-619 -1215 0
-620 -1216 0
-621 -625 0
-622 -626 0
-623 -627 0
-624 -628 0
-621 -697 0
-622 -698 0
-623 -699 0
-624 -700 0
-621 -789 0
-622 -790 0
-623 -791 0
-624 -792 0
-621 -833 0
-622 -834 0
-623 -835 0
-624 -836 0
-621 -877 0
-622 -878 0
-623 -879 0
-624 -880 0
-621 -897 0
-622 -898 0
-623 -899 0
-624 -900 0
-621 -917 0
-622 -918 0
-623 -919 0
-624 -920 0
-621 -933 0
-622 -934 0
-623 -935 0
-624 -936 0
-621 -1141 0
-622 -1142 0
-623 -1143 0
-624 -1144 0
-621 -1165 0
-622 -1166 0
-623 -1167 0
-624 -1168 0
-625 -629 0
-626 -630 0
-627 -631 0
-628 -632 0
-625 -701 0
-626 -702 0
-627 -703 0
-628 -704 0
-625 -761 0
-626 -762 0
-627 -763 0
-628 -764 0
-625 -793 0
-626 -794 0
-627 -795 0
-628 -796 0
-625 -881 0
-626 -882 0
-627 -883 0
-628 -884 0
-625 -901 0
-626 -902 0
-627 -903 0
-628 -904 0
-625 -921 0
-626 -922 0
-627 -923 0
-628 -924 0
-625 -937 0
-626 -938 0
-627 -939 0
-628 -940 0
-625 -1145 0
-626 -1146 0
-627 -1147 0
-628 -1148 0
-625 -1169 0
-626 -1170 0
-627 -1171 0
-628 -1172 0
-629 -633 0
-630 -634 0
-631 -635 0
-632 -636 0
-629 -705 0
-630 -706 0
-631 -707 0
-632 -708 0
-629 -765 0
-630 -766 0
-631 -767 0
-632 -768 0
-629 -797 0
-630 -798 0
-631 -799 0
-632 -800 0
-629 -885 0
-630 -886 0
-631 -887 0
-632 -888 0
-629 -905 0
-630 -906 0
-631 -907 0
-632 -908 0
-629 -925 0
-630 -926 0
-631 -927 0
-632 -928 0
-629 -941 0
-630 -942 0
-631 -943 0
-632 -944 0
-629 -1149 0
-630 -1150 0
-631 -1151 0
-632 -1152 0
-629 -1173 0
-630 -1174 0
-631 -1175 0
-632 -1176 0
-633 -637 0
-634 -638 0
-635 -639 0
-636 -640 0
-633 -709 0
-634 -710 0
-635 -711 0
-636 -712 0
-633 -769 0
-634 -770 0
-635 -771 0
-636 -772 0
-633 -801 0
-634 -802 0
-635 -803 0
-636 -804 0
-633 -889 0
-634 -890 0
-635 -891 0
-636 -892 0
-633 -909 0
-634 -910 0
-635 -911 0
-636 -912 0
-633 -929 0
-634 -930 0
-635 -931 0
-636 -932 0
-633 -945 0
-634 -946 0
-635 -947 0
-636 -948 0
-633 -1153 0
-634 -1154 0
-635 -1155 0
-636 -1156 0
-633 -1177 0
-634 -1178 0
-635 -1179 0
-636 -1180 0
-637 -641 0
-638 -642 0
-639 -643 0
-640 -644 0
-637 -713 0
-638 -714 0
-639 -715 0
-640 -716 0
-637 -773 0
-638 -774 0
-639 -775 0
-640 -776 0
-637 -805 0
-638 -806 0
-639 -807 0
-640 -808 0
-637 -837 0
-638 -838 0
-639 -839 0
-640 -840 0
-637 -893 0
-638 -894 0
-639 -895 0
-640 -896 0
-637 -933 0
-638 -934 0
-639 -935 0
-640 -936 0
-637 -949 0
-638 -950 0
-639 -951 0
-640 -952 0
-637 -1157 0
-638 -1158 0
-639 -1159 0
-640 -1160 0
-637 -1181 0
-638 -1182 0
-639 -1183 0
-640 -1184 0
-641 -645 0
-642 -646 0
-643 -647 0
-644 -648 0
-641 -717 0
-642 -718 0
-643 -719 0
-644 -720 0
-641 -777 0
-642 -778 0
-643 -779 0
-644 -780 0
-641 -809 0
-642 -810 0
-643 -811 0
-644 -812 0
-641 -841 0
-642 -842 0
-643 -843 0
-644 -844 0
-641 -897 0
-642 -898 0
-643 -899 0
-644 -900 0
-641 -937 0
-642 -938 0
-643 -939 0
-644 -940 0
-641 -953 0
-642 -954 0
-643 -955 0
-644 -956 0
-641 -1161 0
-642 -1162 0
-643 -1163 0
-644 -1164 0
-641 -1185 0
-642 -1186 0
-643 -1187 0
-644 -1188 0
-645 -649 0
-646 -650 0
-647 -651 0
-648 -652 0
-645 -721 0
-646 -722 0
-647 -723 0
-648 -724 0
-645 -781 0
-646 -782 0
-647 -783 0
-648 -784 0
-645 -813 0
-646 -814 0
-647 -815 0
-648 -816 0
-645 -845 0
-646 -846 0
-647 -847 0
-648 -848 0
-645 -901 0
-646 -902 0
-647 -903 0
-648 -904 0
-645 -941 0
-646 -942 0
-647 -943 0
-648 -944 0
-645 -957 0
-646 -958 0
-647 -959 0
-648 -960 0
-645 -1165 0
-646 -1166 0
-647 -1167 0
-648 -1168 0
-645 -1189 0
-646 -1190 0
-647 -1191 0
-648 -1192 0
-649 -653 0
-650 -654 0
-651 -655 0
-652 -656 0
-649 -725 0
-650 -726 0
-651 -727 0
-652 -728 0
-649 -785 0
-650 -786 0
-651 -787 0
-652 -788 0
-649 -817 0
-650 -818 0
-651 -819 0
-652 -820 0
-649 -849 0
-650 -850 0
-651 -851 0
-652 -852 0
-649 -905 0
-650 -906 0
-651 -907 0
-652 -908 0
-649 -945 0
-650 -946 0
-651 -947 0
-652 -948 0
-649 -961 0
-650 -962 0
-651 -963 0
-652 -964 0
-649 -1169 0
-650 -1170 0
-651 -1171 0
-652 -1172 0
-649 -1193 0
-650 -1194 0
-651 -1195 0
-652 -1196 0
-653 -657 0
-654 -658 0
-655 -659 0
-656 -660 0
-653 -729 0
-654 -730 0
-655 -731 0
-656 -732 0
-653 -789 0
-654 -790 0
-655 -791 0
-656 -792 0
-653 -821 0
-654 -822 0
-655 -823 0
-656 -824 0
-653 -853 0
-654 -854 0
-655 -855 0
-656 -856 0
-653 -909 0
-654 -910 0
-655 -911 0
-656 -912 0
-653 -949 0
-654 -950 0
-655 -951 0
-656 -952 0
-653 -965 0
-654 -966 0
-655 -967 0
-656 -968 0
-653 -1173 0
-654 -1174 0
-655 -1175 0
-656 -1176 0
-653 -1197 0
-654 -1198 0
-655 -1199 0
-656 -1200 0
-657 -661 0
-658 -662 0
-659 -663 0
-660 -664 0
-657 -733 0
-658 -734 0
-659 -735 0
-660 -736 0
-657 -793 0
-658 -794 0
-659 -795 0
-660 -796 0
-657 -825 0
-658 -826 0
-659 -827 0
-660 -828 0
-657 -837 0
-658 -838 0
-659 -839 0
-660 -840 0
-657 -857 0
-658 -858 0
-659 -859 0
-660 -860 0
-657 -953 0
-658 -954 0
-659 -955 0
-660 -956 0
-657 -969 0
-658 -970 0
-659 -971 0
-660 -972 0
-657 -1177 0
-658 -1178 0
-659 -1179 0
-660 -1180 0
-657 -1201 0
-658 -1202 0
-659 -1203 0
-660 -1204 0
-661 -665 0
-662 -666 0
-663 -667 0
-664 -668 0
-661 -737 0
-662 -738 0
-663 -739 0
-664 -740 0
-661 -797 0
-662 -798 0
-663 -799 0
-664 -800 0
-661 -829 0
-662 -830 0
-663 -831 0
-664 -832 0
-661 -841 0
-662 -842 0
-663 -843 0
-664 -844 0
-661 -861 0
-662 -862 0
-663 -863 0
-664 -864 0
-661 -957 0
-662 -958 0
-663 -959 0
-664 -960 0
-661 -973 0
-662 -974 0
-663 -975 0
-664 -976 0
-661 -1181 0
-662 -1182 0
-663 -1183 0
-664 -1184 0
-661 -1205 0
-662 -1206 0
-663 -1207 0
-664 -1208 0
-665 -669 0
-666 -670 0
-667 -671 0
-668 -672 0
-665 -741 0
-666 -742 0
-667 -743 0
-668 -744 0
-665 -801 0
-666 -802 0
-667 -803 0
-668 -804 0
-665 -833 0
-666 -834 0
-667 -835 0
-668 -836 0
-665 -845 0
-666 -846 0
-667 -847 0
-668 -848 0
-665 -865 0
-666 -866 0
-667 -867 0
-668 -868 0
-665 -961 0
-666 -962 0
-667 -963 0
-668 -964 0
-665 -977 0
-666 -978 0
-667 -979 0
-668 -980 0
-665 -1185 0
-666 -1186 0
-667 -1187 0
-668 -1188 0
-665 -1209 0
-666 -1210 0
-667 -1211 0
-668 -1212 0
-669 -673 0
-670 -674 0
-671 -675 0
-672 -676 0
-669 -745 0
-670 -746 0
-671 -747 0
-672 -748 0
-669 -761 0
-670 -762 0
-671 -763 0
-672 -764 0
-669 -805 0
-670 -806 0
-671 -807 0
-672 -808 0
-669 -849 0
-670 -850 0
-671 -851 0
-672 -852 0
-669 -869 0
-670 -870 0
-671 -871 0
-672 -872 0
-669 -965 0
-670 -966 0
-671 -967 0
-672 -968 0
-669 -981 0
-670 -982 0
-671 -983 0
-672 -984 0
-669 -1189 0
-670 -1190 0
-671 -1191 0
-672 -1192 0
-669 -1213 0
-670 -1214 0
-671 -1215 0
-672 -1216 0
-673 -677 0
-674 -678 0
-675 -679 0
-676 -680 0
-673 -749 0
-674 -750 0
-675 -751 0
-676 -752 0
-673 -765 0
-674 -766 0
-675 -767 0
-676 -768 0
-673 -809 0
-674 -810 0
-675 -811 0
-676 -812 0
-673 -853 0
-674 -854 0
-675 -855 0
-676 -856 0
-673 -873 0
-674 -874 0
-675 -875 0
-676 -876 0
-673 -969 0
-674 -970 0
-675 -971 0
-676 -972 0
-673 -985 0
-674 -986 0
-675 -987 0
-676 -988 0
-673 -1141 0
-674 -1142 0
-675 -1143 0
-676 -1144 0
-673 -1193 0
-674 -1194 0
-675 -1195 0
-676 -1196 0
-677 -681 0
-678 -682 0
-679 -683 0
-680 -684 0
-677 -753 0
-678 -754 0
-679 -755 0
-680 -756 0
-677 -769 0
-678 -770 0
-679 -771 0
-680 -772 0
-677 -813 0
-678 -814 0
-679 -815 0
-680 -816 0
-677 -857 0
-678 -858 0
-679 -859 0
-680 -860 0
-677 -877 0
-678 -878 0
-679 -879 0
-680 -880 0
-677 -913 0
-678 -914 0
-679 -915 0
-680 -916 0
-677 -973 0
-678 -974 0
-679 -975 0
-680 -976 0
-677 -1145 0
-678 -1146 0
-679 -1147 0
-680 -1148 0
-677 -1197 0
-678 -1198 0
-679 -1199 0
-680 -1200 0
-681 -757 0
-682 -758 0
-683 -759 0
-684 -760 0
-681 -773 0
-682 -774 0
-683 -775 0
-684 -776 0
-681 -817 0
-682 -818 0
-683 -819 0
-684 -820 0
-681 -861 0
-682 -862 0
-683 -863 0
-684 -864 0
-681 -881 0
-682 -882 0
-683 -883 0
-684 -884 0
-681 -917 0
-682 -918 0
-683 -919 0
-684 -920 0
-681 -977 0
-682 -978 0
-683 -979 0
-684 -980 0
-681 -1149 0
-682 -1150 0
-683 -1151 0
-684 -1152 0
-681 -1201 0
-682 -1202 0
-683 -1203 0
-684 -1204 0
-685 -689 0
-686 -690 0
-687 -691 0
-688 -692 0
-685 -757 0
-686 -758 0
-687 -759 0
-688 -760 0
-685 -761 0
-686 -762 0
-687 -763 0
-688 -764 0
-685 -853 0
-686 -854 0
-687 -855 0
-688 -856 0
-685 -897 0
-686 -898 0
-687 -899 0
-688 -900 0
-685 -941 0
-686 -942 0
-687 -943 0
-688 -944 0
-685 -961 0
-686 -962 0
-687 -963 0
-688 -964 0
-685 -997 0
-686 -998 0
-687 -999 0
-688 -1000 0
-685 -1057 0
-686 -1058 0
-687 -1059 0
-688 -1060 0
-685 -1229 0
-686 -1230 0
-687 -1231 0
-688 -1232 0
-685 -1281 0
-686 -1282 0
-687 -1283 0
-688 -1284 0
-689 -693 0
-690 -694 0
-691 -695 0
-692 -696 0
-689 -765 0
-690 -766 0
-691 -767 0
-692 -768 0
-689 -857 0
-690 -858 0
-691 -859 0
-692 -860 0
-689 -901 0
-690 -902 0
-691 -903 0
-692 -904 0
-689 -945 0
-690 -946 0
-691 -947 0
-692 -948 0
-689 -965 0
-690 -966 0
-691 -967 0
-692 -968 0
-689 -1001 0
-690 -1002 0
-691 -1003 0
-692 -1004 0
-689 -1061 0
-690 -1062 0
-691 -1063 0
-692 -1064 0
-689 -1233 0
-690 -1234 0
-691 -1235 0
-692 -1236 0
-689 -1285 0
-690 -1286 0
-691 -1287 0
-692 -1288 0
-693 -697 0
-694 -698 0
-695 -699 0
-696 -700 0
-693 -769 0
-694 -770 0
-695 -771 0
-696 -772 0
-693 -861 0
-694 -862 0
-695 -863 0
-696 -864 0
-693 -905 0
-694 -906 0
-695 -907 0
-696 -908 0
-693 -949 0
-694 -950 0
-695 -951 0
-696 -952 0
-693 -969 0
-694 -970 0
-695 -971 0
-696 -972 0
-693 -989 0
-694 -990 0
-695 -991 0
-696 -992 0
-693 -1005 0
-694 -1006 0
-695 -1007 0
-696 -1008 0
-693 -1237 0
-694 -1238 0
-695 -1239 0
-696 -1240 0
-693 -1289 0
-694 -1290 0
-695 -1291 0
-696 -1292 0
-697 -701 0
-698 -702 0
-699 -703 0
-700 -704 0
-697 -773 0
-698 -774 0
-699 -775 0
-700 -776 0
-697 -865 0
-698 -866 0
-699 -867 0
-700 -868 0
-697 -909 0
-698 -910 0
-699 -911 0
-700 -912 0
-697 -953 0
-698 -954 0
-699 -955 0
-700 -956 0
-697 -973 0
-698 -974 0
-699 -975 0
-700 -976 0
-697 -993 0
-698 -994 0
-699 -995 0
-700 -996 0
-697 -1009 0
-698 -1010 0
-699 -1011 0
-700 -1012 0
-697 -1217 0
-698 -1218 0
-699 -1219 0
-700 -1220 0
-697 -1241 0
-698 -1242 0
-699 -1243 0
-700 -1244 0
-701 -705 0
-702 -706 0
-703 -707 0
-704 -708 0
-701 -777 0
-702 -778 0
-703 -779 0
-704 -780 0
-701 -837 0
-702 -838 0
-703 -839 0
-704 -840 0
-701 -869 0
-702 -870 0
-703 -871 0
-704 -872 0
-701 -957 0
-702 -958 0
-703 -959 0
-704 -960 0
-701 -977 0
-702 -978 0
-703 -979 0
-704 -980 0
-701 -997 0
-702 -998 0
-703 -999 0
-704 -1000 0
-701 -1013 0
-702 -1014 0
-703 -1015 0
-704 -1016 0
-701 -1221 0
-702 -1222 0
-703 -1223 0
-704 -1224 0
-701 -1245 0
-702 -1246 0
-703 -1247 0
-704 -1248 0
-705 -709 0
-706 -710 0
-707 -711 0
-708 -712 0
-705 -781 0
-706 -782 0
-707 -783 0
-708 -784 0
-705 -841 0
-706 -842 0
-707 -843 0
-708 -844 0
-705 -873 0
-706 -874 0
-707 -875 0
-708 -876 0
-705 -961 0
-706 -962 0
-707 -963 0
-708 -964 0
-705 -981 0
-706 -982 0
-707 -983 0
-708 -984 0
-705 -1001 0
-706 -1002 0
-707 -1003 0
-708 -1004 0
-705 -1017 0
-706 -1018 0
-707 -1019 0
-708 -1020 0
-705 -1225 0
-706 -1226 0
-707 -1227 0
-708 -1228 0
-705 -1249 0
-706 -1250 0
-707 -1251 0
-708 -1252 0
-709 -713 0
-710 -714 0
-711 -715 0
-712 -716 0
-709 -785 0
-710 -786 0
-711 -787 0
-712 -788 0
-709 -845 0
-710 -846 0
-711 -847 0
-712 -848 0
-709 -877 0
-710 -878 0
-711 -879 0
-712 -880 0
-709 -965 0
-710 -966 0
-711 -967 0
-712 -968 0
-709 -985 0
-710 -986 0
-711 -987 0
-712 -988 0
-709 -1005 0
-710 -1006 0
-711 -1007 0
-712 -1008 0
-709 -1021 0
-710 -1022 0
-711 -1023 0
-712 -1024 0
-709 -1229 0
-710 -1230 0
-711 -1231 0
-712 -1232 0
-709 -1253 0
-710 -1254 0
-711 -1255 0
-712 -1256 0
-713 -717 0
-714 -718 0
-715 -719 0
-716 -720 0
-713 -789 0
-714 -790 0
-715 -791 0
-716 -792 0
-713 -849 0
-714 -850 0
-715 -851 0
-716 -852 0
-713 -881 0
-714 -882 0
-715 -883 0
-716 -884 0
-713 -913 0
-714 -914 0
-715 -915 0
-716 -916 0
-713 -969 0
-714 -970 0
-715 -971 0
-716 -972 0
-713 -1009 0
-714 -1010 0
-715 -1011 0
-716 -1012 0
-713 -1025 0
-714 -1026 0
-715 -1027 0
-716 -1028 0
-713 -1233 0
-714 -1234 0
-715 -1235 0
-716 -1236 0
-713 -1257 0
-714 -1258 0
-715 -1259 0
-716 -1260 0
-717 -721 0
-718 -722 0
-719 -723 0
-720 -724 0
-717 -793 0
-718 -794 0
-719 -795 0
-720 -796 0
-717 -853 0
-718 -854 0
-719 -855 0
-720 -856 0
-717 -885 0
-718 -886 0
-719 -887 0
-720 -888 0
-717 -917 0
-718 -918 0
-719 -919 0
-720 -920 0
-717 -973 0
-718 -974 0
-719 -975 0
-720 -976 0
-717 -1013 0
-718 -1014 0
-719 -1015 0
-720 -1016 0
-717 -1029 0
-718 -1030 0
-719 -1031 0
-720 -1032 0
-717 -1237 0
-718 -1238 0
-719 -1239 0
-720 -1240 0
-717 -1261 0
-718 -1262 0
-719 -1263 0
-720 -1264 0
-721 -725 0
-722 -726 0
-723 -727 0
-724 -728 0
-721 -797 0
-722 -798 0
-723 -799 0
-724 -800 0
-721 -857 0
-722 -858 0
-723 -859 0
-724 -860 0
-721 -889 0
-722 -890 0
-723 -891 0
-724 -892 0
-721 -921 0
-722 -922 0
-723 -923 0
-724 -924 0
-721 -977 0
-722 -978 0
-723 -979 0
-724 -980 0
-721 -1017 0
-722 -1018 0
-723 -1019 0
-724 -1020 0
-721 -1033 0
-722 -1034 0
-723 -1035 0
-724 -1036 0
-721 -1241 0
-722 -1242 0
-723 -1243 0
-724 -1244 0
-721 -1265 0
-722 -1266 0
-723 -1267 0
-724 -1268 0
-725 -729 0
-726 -730 0
-727 -731 0
-728 -732 0
-725 -801 0
-726 -802 0
-727 -803 0
-728 -804 0
-725 -861 0
-726 -862 0
-727 -863 0
-728 -864 0
-725 -893 0
-726 -894 0
-727 -895 0
-728 -896 0
-725 -925 0
-726 -926 0
-727 -927 0
-728 -928 0
-725 -981 0
-726 -982 0
-727 -983 0
-728 -984 0
-725 -1021 0
-726 -1022 0
-727 -1023 0
-728 -1024 0
-725 -1037 0
-726 -1038 0
-727 -1039 0
-728 -1040 0
-725 -1245 0
-726 -1246 0
-727 -1247 0
-728 -1248 0
-725 -1269 0
-726 -1270 0
-727 -1271 0
-728 -1272 0
-729 -733 0
-730 -734 0
-731 -735 0
-732 -736 0
-729 -805 0
-730 -806 0
-731 -807 0
-732 -808 0
-729 -865 0
-730 -866 0
-731 -867 0
-732 -868 0
-729 -897 0
-730 -898 0
-731 -899 0
-732 -900 0
-729 -929 0
-730 -930 0
-731 -931 0
-732 -932 0
-729 -985 0
-730 -986 0
-731 -987 0
-732 -988 0
-729 -1025 0
-730 -1026 0
-731 -1027 0
-732 -1028 0
-729 -1041 0
-730 -1042 0
-731 -1043 0
-732 -1044 0
-729 -1249 0
-730 -1250 0
-731 -1251 0
-732 -1252 0
-729 -1273 0
-730 -1274 0
-731 -1275 0
-732 -1276 0
-733 -737 0
-734 -738 0
-735 -739 0
-736 -740 0
-733 -809 0
-734 -810 0
-735 -811 0
-736 -812 0
-733 -869 0
-734 -870 0
-735 -871 0
-736 -872 0
-733 -901 0
-734 -902 0
-735 -903 0
-736 -904 0
-733 -913 0
-734 -914 0
-735 -915 0
-736 -916 0
-733 -933 0
-734 -934 0
-735 -935 0
-736 -936 0
-733 -1029 0
-734 -1030 0
-735 -1031 0
-736 -1032 0
-733 -1045 0
-734 -1046 0
-735 -1047 0
-736 -1048 0
-733 -1253 0
-734 -1254 0
-735 -1255 0
-736 -1256 0
-733 -1277 0
-734 -1278 0
-735 -1279 0
-736 -1280 0
-737 -741 0
-738 -742 0
-739 -743 0
-740 -744 0
-737 -813 0
-738 -814 0
-739 -815 0
-740 -816 0
-737 -873 0
-738 -874 0
-739 -875 0
-740 -876 0
-737 -905 0
-738 -906 0
-739 -907 0
-740 -908 0
-737 -917 0
-738 -918 0
-739 -919 0
-740 -920 0
-737 -937 0
-738 -938 0
-739 -939 0
-740 -940 0
-737 -1033 0
-738 -1034 0
-739 -1035 0
-740 -1036 0
-737 -1049 0
-738 -1050 0
-739 -1051 0
-740 -1052 0
-737 -1257 0
-738 -1258 0
-739 -1259 0
-740 -1260 0
-737 -1281 0
-738 -1282 0
-739 -1283 0
-740 -1284 0
-741 -745 0
-742 -746 0
-743 -747 0
-744 -748 0
-741 -817 0
-742 -818 0
-743 -819 0
-744 -820 0
-741 -877 0
-742 -878 0
-743 -879 0
-744 -880 0
-741 -909 0
-742 -910 0
-743 -911 0
-744 -912 0
-741 -921 0
-742 -922 0
-743 -923 0
-744 -924 0
-741 -941 0
-742 -942 0
-743 -943 0
-744 -944 0
-741 -1037 0
-742 -1038 0
-743 -1039 0
-744 -1040 0
-741 -1053 0
-742 -1054 0
-743 -1055 0
-744 -1056 0
-741 -1261 0
-742 -1262 0
-743 -1263 0
-744 -1264 0
-741 -1285 0
-742 -1286 0
-743 -1287 0
-744 -1288 0
-745 -749 0
-746 -750 0
-747 -751 0
-748 -752 0
-745 -821 0
-746 -822 0
-747 -823 0
-748 -824 0
-745 -837 0
-746 -838 0
-747 -839 0
-748 -840 0
-745 -881 0
-746 -882 0
-747 -883 0
-748 -884 0
-745 -925 0
-746 -926 0
-747 -927 0
-748 -928 0
-745 -945 0
-746 -946 0
-747 -947 0
-748 -948 0
-745 -1041 0
-746 -1042 0
-747 -1043 0
-748 -1044 0
-745 -1057 0
-746 -1058 0
-747 -1059 0
-748 -1060 0
-745 -1265 0
-746 -1266 0
-747 -1267 0
-748 -1268 0
-745 -1289 0
-746 -1290 0
-747 -1291 0
-748 -1292 0
-749 -753 0
-750 -754 0
-751 -755 0
-752 -756 0
-749 -825 0
-750 -826 0
-751 -827 0
-752 -828 0
-749 -841 0
-750 -842 0
-751 -843 0
-752 -844 0
-749 -885 0
-750 -886 0
-751 -887 0
-752 -888 0
-749 -929 0
-750 -930 0
-751 -931 0
-752 -932 0
-749 -949 0
-750 -950 0
-751 -951 0
-752 -952 0
-749 -1045 0
-750 -1046 0
-751 -1047 0
-752 -1048 0
-749 -1061 0
-750 -1062 0
-751 -1063 0
-752 -1064 0
-749 -1217 0
-750 -1218 0
-751 -1219 0
-752 -1220 0
-749 -1269 0
-750 -1270 0
-751 -1271 0
-752 -1272 0
-753 -757 0
-754 -758 0
-755 -759 0
-756 -760 0
-753 -829 0
-754 -830 0
-755 -831 0
-756 -832 0
-753 -845 0
-754 -846 0
-755 -847 0
-756 -848 0
-753 -889 0
-754 -890 0
-755 -891 0
-756 -892 0
-753 -933 0
-754 -934 0
-755 -935 0
-756 -936 0
-753 -953 0
-754 -954 0
-755 -955 0
-756 -956 0
-753 -989 0
-754 -990 0
-755 -991 0
-756 -992 0
-753 -1049 0
-754 -1050 0
-755 -1051 0
-756 -1052 0
-753 -1221 0
-754 -1222 0
-755 -1223 0
-756 -1224 0
-753 -1273 0
-754 -1274 0
-755 -1275 0
-756 -1276 0
-757 -833 0
-758 -834 0
-759 -835 0
-760 -836 0
-757 -849 0
-758 -850 0
-759 -851 0
-760 -852 0
-757 -893 0
-758 -894 0
-759 -895 0
-760 -896 0
-757 -937 0
-758 -938 0
-759 -939 0
-760 -940 0
-757 -957 0
-758 -958 0
-759 -959 0
-760 -960 0
-757 -993 0
-758 -994 0
-759 -995 0
-760 -996 0
-757 -1053 0
-758 -1054 0
-759 -1055 0
-760 -1056 0
-757 -1225 0
-758 -1226 0
-759 -1227 0
-760 -1228 0
-757 -1277 0
-758 -1278 0
-759 -1279 0
-760 -1280 0
-761 -765 0
-762 -766 0
-763 -767 0
-764 -768 0
-761 -833 0
-762 -834 0
-763 -835 0
-764 -836 0
-761 -837 0
-762 -838 0
-763 -839 0
-764 -840 0
-761 -929 0
-762 -930 0
-763 -931 0
-764 -932 0
-761 -973 0
-762 -974 0
-763 -975 0
-764 -976 0
-761 -1017 0
-762 -1018 0
-763 -1019 0
-764 -1020 0
-761 -1037 0
-762 -1038 0
-763 -1039 0
-764 -1040 0
-761 -1073 0
-762 -1074 0
-763 -1075 0
-764 -1076 0
-761 -1133 0
-762 -1134 0
-763 -1135 0
-764 -1136 0
-761 -1305 0
-762 -1306 0
-763 -1307 0
-764 -1308 0
-761 -1357 0
-762 -1358 0
-763 -1359 0
-764 -1360 0
-765 -769 0
-766 -770 0
-767 -771 0
-768 -772 0
-765 -841 0
-766 -842 0
-767 -843 0
-768 -844 0
-765 -933 0
-766 -934 0
-767 -935 0
-768 -936 0
-765 -977 0
-766 -978 0
-767 -979 0
-768 -980 0
-765 -1021 0
-766 -1022 0
-767 -1023 0
-768 -1024 0
-765 -1041 0
-766 -1042 0
-767 -1043 0
-768 -1044 0
-765 -1077 0
-766 -1078 0
-767 -1079 0
-768 -1080 0
-765 -1137 0
-766 -1138 0
-767 -1139 0
-768 -1140 0
-765 -1309 0
-766 -1310 0
-767 -1311 0
-768 -1312 0
-765 -1361 0
-766 -1362 0
-767 -1363 0
-768 -1364 0
-769 -773 0
-770 -774 0
-771 -775 0
-772 -776 0
-769 -845 0
-770 -846 0
-771 -847 0
-772 -848 0
-769 -937 0
-770 -938 0
-771 -939 0
-772 -940 0
-769 -981 0
-770 -982 0
-771 -983 0
-772 -984 0
-769 -1025 0
-770 -1026 0
-771 -1027 0
-772 -1028 0
-769 -1045 0
-770 -1046 0
-771 -1047 0
-772 -1048 0
-769 -1065 0
-770 -1066 0
-771 -1067 0
-772 -1068 0
-769 -1081 0
-770 -1082 0
-771 -1083 0
-772 -1084 0
-769 -1313 0
-770 -1314 0
-771 -1315 0
-772 -1316 0
-769 -1365 0
-770 -1366 0
-771 -1367 0
-772 -1368 0
-773 -777 0
-774 -778 0
-775 -779 0
-776 -780 0
-773 -849 0
-774 -850 0
-775 -851 0
-776 -852 0
-773 -941 0
-774 -942 0
-775 -943 0
-776 -944 0
-773 -985 0
-774 -986 0
-775 -987 0
-776 -988 0
-773 -1029 0
-774 -1030 0
-775 -1031 0
-776 -1032 0
-773 -1049 0
-774 -1050 0
-775 -1051 0
-776 -1052 0
-773 -1069 0
-774 -1070 0
-775 -1071 0
-776 -1072 0
-773 -1085 0
-774 -1086 0
-775 -1087 0
-776 -1088 0
-773 -1293 0
-774 -1294 0
-775 -1295 0
-776 -1296 0
-773 -1317 0
-774 -1318 0
-775 -1319 0
-776 -1320 0
-777 -781 0
-778 -782 0
-779 -783 0
-780 -784 0
-777 -853 0
-778 -854 0
-779 -855 0
-780 -856 0
-777 -913 0
-778 -914 0
-779 -915 0
-780 -916 0
-777 -945 0
-778 -946 0
-779 -947 0
-780 -948 0
-777 -1033 0
-778 -1034 0
-779 -1035 0
-780 -1036 0
-777 -1053 0
-778 -1054 0
-779 -1055 0
-780 -1056 0
-777 -1073 0
-778 -1074 0
-779 -1075 0
-780 -1076 0
-777 -1089 0
-778 -1090 0
-779 -1091 0
-780 -1092 0
-777 -1297 0
-778 -1298 0
-779 -1299 0
-780 -1300 0
-777 -1321 0
-778 -1322 0
-779 -1323 0
-780 -1324 0
-781 -785 0
-782 -786 0
-783 -787 0
-784 -788 0
-781 -857 0
-782 -858 0
-783 -859 0
-784 -860 0
-781 -917 0
-782 -918 0
-783 -919 0
-784 -920 0
-781 -949 0
-782 -950 0
-783 -951 0
-784 -952 0
-781 -1037 0
-782 -1038 0
-783 -1039 0
-784 -1040 0
-781 -1057 0
-782 -1058 0
-783 -1059 0
-784 -1060 0
-781 -1077 0
-782 -1078 0
-783 -1079 0
-784 -1080 0
-781 -1093 0
-782 -1094 0
-783 -1095 0
-784 -1096 0
-781 -1301 0
-782 -1302 0
-783 -1303 0
-784 -1304 0
-781 -1325 0
-782 -1326 0
-783 -1327 0
-784 -1328 0
-785 -789 0
-786 -790 0
-787 -791 0
-788 -792 0
-785 -861 0
-786 -862 0
-787 -863 0
-788 -864 0
-785 -921 0
-786 -922 0
-787 -923 0
-788 -924 0
-785 -953 0
-786 -954 0
-787 -955 0
-788 -956 0
-785 -1041 0
-786 -1042 0
-787 -1043 0
-788 -1044 0
-785 -1061 0
-786 -1062 0
-787 -1063 0
-788 -1064 0
-785 -1081 0
-786 -1082 0
-787 -1083 0
-788 -1084 0
-785 -1097 0
-786 -1098 0
-787 -1099 0
-788 -1100 0
-785 -1305 0
-786 -1306 0
-787 -1307 0
-788 -1308 0
-785 -1329 0
-786 -1330 0
-787 -1331 0
-788 -1332 0
-789 -793 0
-790 -794 0
-791 -795 0
-792 -796 0
-789 -865 0
-790 -866 0
-791 -867 0
-792 -868 0
-789 -925 0
-790 -926 0
-791 -927 0
-792 -928 0
-789 -957 0
-790 -958 0
-791 -959 0
-792 -960 0
-789 -989 0
-790 -990 0
-791 -991 0
-792 -992 0
-789 -1045 0
-790 -1046 0
-791 -1047 0
-792 -1048 0
-789 -1085 0
-790 -1086 0
-791 -1087 0
-792 -1088 0
-789 -1101 0
-790 -1102 0
-791 -1103 0
-792 -1104 0
-789 -1309 0
-790 -1310 0
-791 -1311 0
-792 -1312 0
-789 -1333 0
-790 -1334 0
-791 -1335 0
-792 -1336 0
-793 -797 0
-794 -798 0
-795 -799 0
-796 -800 0
-793 -869 0
-794 -870 0
-795 -871 0
-796 -872 0
-793 -929 0
-794 -930 0
-795 -931 0
-796 -932 0
-793 -961 0
-794 -962 0
-795 -963 0
-796 -964 0
-793 -993 0
-794 -994 0
-795 -995 0
-796 -996 0
-793 -1049 0
-794 -1050 0
-795 -1051 0
-796 -1052 0
-793 -1089 0
-794 -1090 0
-795 -1091 0
-796 -1092 0
-793 -1105 0
-794 -1106 0
-795 -1107 0
-796 -1108 0
-793 -1313 0
-794 -1314 0
-795 -1315 0
-796 -1316 0
-793 -1337 0
-794 -1338 0
-795 -1339 0
-796 -1340 0
-797 -801 0
-798 -802 0
-799 -803 0
-800 -804 0
-797 -873 0
-798 -874 0
-799 -875 0
-800 -876 0
-797 -933 0
-798 -934 0
-799 -935 0
-800 -936 0
-797 -965 0
-798 -966 0
-799 -967 0
-800 -968 0
-797 -997 0
-798 -998 0
-799 -999 0
-800 -1000 0
-797 -1053 0
-798 -1054 0
-799 -1055 0
-800 -1056 0
-797 -1093 0
-798 -1094 0
-799 -1095 0
-800 -1096 0
-797 -1109 0
-798 -1110 0
-799 -1111 0
-800 -1112 0
-797 -1317 0
-798 -1318 0
-799 -1319 0
-800 -1320 0
-797 -1341 0
-798 -1342 0
-799 -1343 0
-800 -1344 0
-801 -805 0
-802 -806 0
-803 -807 0
-804 -808 0
-801 -877 0
-802 -878 0
-803 -879 0
-804 -880 0
-801 -937 0
-802 -938 0
-803 -939 0
-804 -940 0
-801 -969 0
-802 -970 0
-803 -971 0
-804 -972 0
-801 -1001 0
-802 -1002 0
-803 -1003 0
-804 -1004 0
-801 -1057 0
-802 -1058 0
-803 -1059 0
-804 -1060 0
-801 -1097 0
-802 -1098 0
-803 -1099 0
-804 -1100 0
-801 -1113 0
-802 -1114 0
-803 -1115 0
-804 -1116 0
-801 -1321 0
-802 -1322 0
-803 -1323 0
-804 -1324 0
-801 -1345 0
-802 -1346 0
-803 -1347 0
-804 -1348 0
-805 -809 0
-806 -810 0
-807 -811 0
-808 -812 0
-805 -881 0
-806 -882 0
-807 -883 0
-808 -884 0
-805 -941 0
-806 -942 0
-807 -943 0
-808 -944 0
-805 -973 0
-806 -974 0
-807 -975 0
-808 -976 0
-805 -1005 0
-806 -1006 0
-807 -1007 0
-808 -1008 0
-805 -1061 0
-806 -1062 0
-807 -1063 0
-808 -1064 0
-805 -1101 0
-806 -1102 0
-807 -1103 0
-808 -1104 0
-805 -1117 0
-806 -1118 0
-807 -1119 0
-808 -1120 0
-805 -1325 0
-806 -1326 0
-807 -1327 0
-808 -1328 0
-805 -1349 0
-806 -1350 0
-807 -1351 0
-808 -1352 0
-809 -813 0
-810 -814 0
-811 -815 0
-812 -816 0
-809 -885 0
-810 -886 0
-811 -887 0
-812 -888 0
-809 -945 0
-810 -946 0
-811 -947 0
-812 -948 0
-809 -977 0
-810 -978 0
-811 -979 0
-812 -980 0
-809 -989 0
-810 -990 0
-811 -991 0
-812 -992 0
-809 -1009 0
-810 -1010 0
-811 -1011 0
-812 -1012 0
-809 -1105 0
-810 -1106 0
-811 -1107 0
-812 -1108 0
-809 -1121 0
-810 -1122 0
-811 -1123 0
-812 -1124 0
-809 -1329 0
-810 -1330 0
-811 -1331 0
-812 -1332 0
-809 -1353 0
-810 -1354 0
-811 -1355 0
-812 -1356 0
-813 -817 0
-814 -818 0
-815 -819 0
-816 -820 0
-813 -889 0
-814 -890 0
-815 -891 0
-816 -892 0
-813 -949 0
-814 -950 0
-815 -951 0
-816 -952 0
-813 -981 0
-814 -982 0
-815 -983 0
-816 -984 0
-813 -993 0
-814 -994 0
-815 -995 0
-816 -996 0
-813 -1013 0
-814 -1014 0
-815 -1015 0
-816 -1016 0
-813 -1109 0
-814 -1110 0
-815 -1111 0
-816 -1112 0
-813 -1125 0
-814 -1126 0
-815 -1127 0
-816 -1128 0
-813 -1333 0
-814 -1334 0
-815 -1335 0
-816 -1336 0
-813 -1357 0
-814 -1358 0
-815 -1359 0
-816 -1360 0
-817 -821 0
-818 -822 0
-819 -823 0
-820 -824 0
-817 -893 0
-818 -894 0
-819 -895 0
-820 -896 0
-817 -953 0
-818 -954 0
-819 -955 0
-820 -956 0
-817 -985 0
-818 -986 0
-819 -987 0
-820 -988 0
-817 -997 0
-818 -998 0
-819 -999 0
-820 -1000 0
-817 -1017 0
-818 -1018 0
-819 -1019 0
-820 -1020 0
-817 -1113 0
-818 -1114 0
-819 -1115 0
-820 -1116 0
-817 -1129 0
-818 -1130 0
-819 -1131 0
-820 -1132 0
-817 -1337 0
-818 -1338 0
-819 -1339 0
-820 -1340 0
-817 -1361 0
-818 -1362 0
-819 -1363 0
-820 -1364 0
-821 -825 0
-822 -826 0
-823 -827 0
-824 -828 0
-821 -897 0
-822 -898 0
-823 -899 0
-824 -900 0
-821 -913 0
-822 -914 0
-823 -915 0
-824 -916 0
-821 -957 0
-822 -958 0
-823 -959 0
-824 -960 0
-821 -1001 0
-822 -1002 0
-823 -1003 0
-824 -1004 0
-821 -1021 0
-822 -1022 0
-823 -1023 0
-824 -1024 0
-821 -1117 0
-822 -1118 0
-823 -1119 0
-824 -1120 0
-821 -1133 0
-822 -1134 0
-823 -1135 0
-824 -1136 0
-821 -1341 0
-822 -1342 0
-823 -1343 0
-824 -1344 0
-821 -1365 0
-822 -1366 0
-823 -1367 0
-824 -1368 0
-825 -829 0
-826 -830 0
-827 -831 0
-828 -832 0
-825 -901 0
-826 -902 0
-827 -903 0
-828 -904 0
-825 -917 0
-826 -918 0
-827 -919 0
-828 -920 0
-825 -961 0
-826 -962 0
-827 -963 0
-828 -964 0
-825 -1005 0
-826 -1006 0
-827 -1007 0
-828 -1008 0
-825 -1025 0
-826 -1026 0
-827 -1027 0
-828 -1028 0
-825 -1121 0
-826 -1122 0
-827 -1123 0
-828 -1124 0
-825 -1137 0
-826 -1138 0
-827 -1139 0
-828 -1140 0
-825 -1293 0
-826 -1294 0
-827 -1295 0
-828 -1296 0
-825 -1345 0
-826 -1346 0
-827 -1347 0
-828 -1348 0
-829 -833 0
-830 -834 0
-831 -835 0
-832 -836 0
-829 -905 0
-830 -906 0
-831 -907 0
-832 -908 0
-829 -921 0
-830 -922 0
-831 -923 0
-832 -924 0
-829 -965 0
-830 -966 0
-831 -967 0
-832 -968 0
-829 -1009 0
-830 -1010 0
-831 -1011 0
-832 -1012 0
-829 -1029 0
-830 -1030 0
-831 -1031 0
-832 -1032 0
-829 -1065 0
-830 -1066 0
-831 -1067 0
-832 -1068 0
-829 -1125 0
-830 -1126 0
-831 -1127 0
-832 -1128 0
-829 -1297 0
-830 -1298 0
-831 -1299 0
-832 -1300 0
-829 -1349 0
-830 -1350 0
-831 -1351 0
-832 -1352 0
-833 -909 0
-834 -910 0
-835 -911 0
-836 -912 0
-833 -925 0
-834 -926 0
-835 -927 0
-836 -928 0
-833 -969 0
-834 -970 0
-835 -971 0
-836 -972 0
-833 -1013 0
-834 -1014 0
-835 -1015 0
-836 -1016 0
-833 -1033 0
-834 -1034 0
-835 -1035 0
-836 -1036 0
-833 -1069 0
-834 -1070 0
-835 -1071 0
-836 -1072 0
-833 -1129 0
-834 -1130 0
-835 -1131 0
-836 -1132 0
-833 -1301 0
-834 -1302 0
-835 -1303 0
-836 -1304 0
-833 -1353 0
-834 -1354 0
-835 -1355 0
-836 -1356 0
-837 -841 0
-838 -842 0
-839 -843 0
-840 -844 0
-837 -909 0
-838 -910 0
-839 -911 0
-840 -912 0
-837 -913 0
-838 -914 0
-839 -915 0
-840 -916 0
-837 -1005 0
-838 -1006 0
-839 -1007 0
-840 -1008 0
-837 -1049 0
-838 -1050 0
-839 -1051 0
-840 -1052 0
-837 -1093 0
-838 -1094 0
-839 -1095 0
-840 -1096 0
-837 -1113 0
-838 -1114 0
-839 -1115 0
-840 -1116 0
-837 -1149 0
-838 -1150 0
-839 -1151 0
-840 -1152 0
-837 -1209 0
-838 -1210 0
-839 -1211 0
-840 -1212 0
-837 -1381 0
-838 -1382 0
-839 -1383 0
-840 -1384 0
-837 -1433 0
-838 -1434 0
-839 -1435 0
-840 -1436 0
-841 -845 0
-842 -846 0
-843 -847 0
-844 -848 0
-841 -917 0
-842 -918 0
-843 -919 0
-844 -920 0
-841 -1009 0
-842 -1010 0
-843 -1011 0
-844 -1012 0
-841 -1053 0
-842 -1054 0
-843 -1055 0
-844 -1056 0
-841 -1097 0
-842 -1098 0
-843 -1099 0
-844 -1100 0
-841 -1117 0
-842 -1118 0
-843 -1119 0
-844 -1120 0
-841 -1153 0
-842 -1154 0
-843 -1155 0
-844 -1156 0
-841 -1213 0
-842 -1214 0
-843 -1215 0
-844 -1216 0
-841 -1385 0
-842 -1386 0
-843 -1387 0
-844 -1388 0
-841 -1437 0
-842 -1438 0
-843 -1439 0
-844 -1440 0
-845 -849 0
-846 -850 0
-847 -851 0
-848 -852 0
-845 -921 0
-846 -922 0
-847 -923 0
-848 -924 0
-845 -1013 0
-846 -1014 0
-847 -1015 0
-848 -1016 0
-845 -1057 0
-846 -1058 0
-847 -1059 0
-848 -1060 0
-845 -1101 0
-846 -1102 0
-847 -1103 0
-848 -1104 0
-845 -1121 0
-846 -1122 0
-847 -1123 0
-848 -1124 0
-845 -1141 0
-846 -1142 0
-847 -1143 0
-848 -1144 0
-845 -1157 0
-846 -1158 0
-847 -1159 0
-848 -1160 0
-845 -1389 0
-846 -1390 0
-847 -1391 0
-848 -1392 0
-845 -1441 0
-846 -1442 0
-847 -1443 0
-848 -1444 0
-849 -853 0
-850 -854 0
-851 -855 0
-852 -856 0
-849 -925 0
-850 -926 0
-851 -927 0
-852 -928 0
-849 -1017 0
-850 -1018 0
-851 -1019 0
-852 -1020 0
-849 -1061 0
-850 -1062 0
-851 -1063 0
-852 -1064 0
-849 -1105 0
-850 -1106 0
-851 -1107 0
-852 -1108 0
-849 -1125 0
-850 -1126 0
-851 -1127 0
-852 -1128 0
-849 -1145 0
-850 -1146 0
-851 -1147 0
-852 -1148 0
-849 -1161 0
-850 -1162 0
-851 -1163 0
-852 -1164 0
-849 -1369 0
-850 -1370 0
-851 -1371 0
-852 -1372 0
-849 -1393 0
-850 -1394 0
-851 -1395 0
-852 -1396 0
-853 -857 0
-854 -858 0
-855 -859 0
-856 -860 0
-853 -929 0
-854 -930 0
-855 -931 0
-856 -932 0
-853 -989 0
-854 -990 0
-855 -991 0
-856 -992 0
-853 -1021 0
-854 -1022 0
-855 -1023 0
-856 -1024 0
-853 -1109 0
-854 -1110 0
-855 -1111 0
-856 -1112 0
-853 -1129 0
-854 -1130 0
-855 -1131 0
-856 -1132 0
-853 -1149 0
-854 -1150 0
-855 -1151 0
-856 -1152 0
-853 -1165 0
-854 -1166 0
-855 -1167 0
-856 -1168 0
-853 -1373 0
-854 -1374 0
-855 -1375 0
-856 -1376 0
-853 -1397 0
-854 -1398 0
-855 -1399 0
-856 -1400 0
-857 -861 0
-858 -862 0
-859 -863 0
-860 -864 0
-857 -933 0
-858 -934 0
-859 -935 0
-860 -936 0
-857 -993 0
-858 -994 0
-859 -995 0
-860 -996 0
-857 -1025 0
-858 -1026 0
-859 -1027 0
-860 -1028 0
-857 -1113 0
-858 -1114 0
-859 -1115 0
-860 -1116 0
-857 -1133 0
-858 -1134 0
-859 -1135 0
-860 -1136 0
-857 -1153 0
-858 -1154 0
-859 -1155 0
-860 -1156 0
-857 -1169 0
-858 -1170 0
-859 -1171 0
-860 -1172 0
-857 -1377 0
-858 -1378 0
-859 -1379 0
-860 -1380 0
-857 -1401 0
-858 -1402 0
-859 -1403 0
-860 -1404 0
-861 -865 0
-862 -866 0
-863 -867 0
-864 -868 0
-861 -937 0
-862 -938 0
-863 -939 0
-864 -940 0
-861 -997 0
-862 -998 0
-863 -999 0
-864 -1000 0
-861 -1029 0
-862 -1030 0
-863 -1031 0
-864 -1032 0
-861 -1117 0
-862 -1118 0
-863 -1119 0
-864 -1120 0
-861 -1137 0
-862 -1138 0
-863 -1139 0
-864 -1140 0
-861 -1157 0
-862 -1158 0
-863 -1159 0
-864 -1160 0
-861 -1173 0
-862 -1174 0
-863 -1175 0
-864 -1176 0
-861 -1381 0
-862 -1382 0
-863 -1383 0
-864 -1384 0
-861 -1405 0
-862 -1406 0
-863 -1407 0
-864 -1408 0
-865 -869 0
-866 -870 0
-867 -871 0
-868 -872 0
-865 -941 0
-866 -942 0
-867 -943 0
-868 -944 0
-865 -1001 0
-866 -1002 0
-867 -1003 0
-868 -1004 0
-865 -1033 0
-866 -1034 0
-867 -1035 0
-868 -1036 0
-865 -1065 0
-866 -1066 0
-867 -1067 0
-868 -1068 0
-865 -1121 0
-866 -1122 0
-867 -1123 0
-868 -1124 0
-865 -1161 0
-866 -1162 0
-867 -1163 0
-868 -1164 0
-865 -1177 0
-866 -1178 0
-867 -1179 0
-868 -1180 0
-865 -1385 0
-866 -1386 0
-867 -1387 0
-868 -1388 0
-865 -1409 0
-866 -1410 0
-867 -1411 0
-868 -1412 0
-869 -873 0
-870 -874 0
-871 -875 0
-872 -876 0
-869 -945 0
-870 -946 0
-871 -947 0
-872 -948 0
-869 -1005 0
-870 -1006 0
-871 -1007 0
-872 -1008 0
-869 -1037 0
-870 -1038 0
-871 -1039 0
-872 -1040 0
-869 -1069 0
-870 -1070 0
-871 -1071 0
-872 -1072 0
-869 -1125 0
-870 -1126 0
-871 -1127 0
-872 -1128 0
-869 -1165 0
-870 -1166 0
-871 -1167 0
-872 -1168 0
-869 -1181 0
-870 -1182 0
-871 -1183 0
-872 -1184 0
-869 -1389 0
-870 -1390 0
-871 -1391 0
-872 -1392 0
-869 -1413 0
-870 -1414 0
-871 -1415 0
-872 -1416 0
-873 -877 0
-874 -878 0
-875 -879 0
-876 -880 0
-873 -949 0
-874 -950 0
-875 -951 0
-876 -952 0
-873 -1009 0
-874 -1010 0
-875 -1011 0
-876 -1012 0
-873 -1041 0
-874 -1042 0
-875 -1043 0
-876 -1044 0
-873 -1073 0
-874 -1074 0
-875 -1075 0
-876 -1076 0
-873 -1129 0
-874 -1130 0
-875 -1131 0
-876 -1132 0
-873 -1169 0
-874 -1170 0
-875 -1171 0
-876 -1172 0
-873 -1185 0
-874 -1186 0
-875 -1187 0
-876 -1188 0
-873 -1393 0
-874 -1394 0
-875 -1395 0
-876 -1396 0
-873 -1417 0
-874 -1418 0
-875 -1419 0
-876 -1420 0
-877 -881 0
-878 -882 0
-879 -883 0
-880 -884 0
-877 -953 0
-878 -954 0
-879 -955 0
-880 -956 0
-877 -1013 0
-878 -1014 0
-879 -1015 0
-880 -1016 0
-877 -1045 0
-878 -1046 0
-879 -1047 0
-880 -1048 0
-877 -1077 0
-878 -1078 0
-879 -1079 0
-880 -1080 0
-877 -1133 0
-878 -1134 0
-879 -1135 0
-880 -1136 0
-877 -1173 0
-878 -1174 0
-879 -1175 0
-880 -1176 0
-877 -1189 0
-878 -1190 0
-879 -1191 0
-880 -1192 0
-877 -1397 0
-878 -1398 0
-879 -1399 0
-880 -1400 0
-877 -1421 0
-878 -1422 0
-879 -1423 0
-880 -1424 0
-881 -885 0
-882 -886 0
-883 -887 0
-884 -888 0
-881 -957 0
-882 -958 0
-883 -959 0
-884 -960 0
-881 -1017 0
-882 -1018 0
-883 -1019 0
-884 -1020 0
-881 -1049 0
-882 -1050 0
-883 -1051 0
-884 -1052 0
-881 -1081 0
-882 -1082 0
-883 -1083 0
-884 -1084 0
-881 -1137 0
-882 -1138 0
-883 -1139 0
-884 -1140 0
-881 -1177 0
-882 -1178 0
-883 -1179 0
-884 -1180 0
-881 -1193 0
-882 -1194 0
-883 -1195 0
-884 -1196 0
-881 -1401 0
-882 -1402 0
-883 -1403 0
-884 -1404 0
-881 -1425 0
-882 -1426 0
-883 -1427 0
-884 -1428 0
-885 -889 0
-886 -890 0
-887 -891 0
-888 -892 0
-885 -961 0
-886 -962 0
-887 -963 0
-888 -964 0
-885 -1021 0
-886 -1022 0
-887 -1023 0
-888 -1024 0
-885 -1053 0
-886 -1054 0
-887 -1055 0
-888 -1056 0
-885 -1065 0
-886 -1066 0
-887 -1067 0
-888 -1068 0
-885 -1085 0
-886 -1086 0
-887 -1087 0
-888 -1088 0
-885 -1181 0
-886 -1182 0
-887 -1183 0
-888 -1184 0
-885 -1197 0
-886 -1198 0
-887 -1199 0
-888 -1200 0
-885 -1405 0
-886 -1406 0
-887 -1407 0
-888 -1408 0
-885 -1429 0
-886 -1430 0
-887 -1431 0
-888 -1432 0
-889 -893 0
-890 -894 0
-891 -895 0
-892 -896 0
-889 -965 0
-890 -966 0
-891 -967 0
-892 -968 0
-889 -1025 0
-890 -1026 0
-891 -1027 0
-892 -1028 0
-889 -1057 0
-890 -1058 0
-891 -1059 0
-892 -1060 0
-889 -1069 0
-890 -1070 0
-891 -1071 0
-892 -1072 0
-889 -1089 0
-890 -1090 0
-891 -1091 0
-892 -1092 0
-889 -1185 0
-890 -1186 0
-891 -1187 0
-892 -1188 0
-889 -1201 0
-890 -1202 0
-891 -1203 0
-892 -1204 0
-889 -1409 0
-890 -1410 0
-891 -1411 0
-892 -1412 0
-889 -1433 0
-890 -1434 0
-891 -1435 0
-892 -1436 0
-893 -897 0
-894 -898 0
-895 -899 0
-896 -900 0
-893 -969 0
-894 -970 0
-895 -971 0
-896 -972 0
-893 -1029 0
-894 -1030 0
-895 -1031 0
-896 -1032 0
-893 -1061 0
-894 -1062 0
-895 -1063 0
-896 -1064 0
-893 -1073 0
-894 -1074 0
-895 -1075 0
-896 -1076 0
-893 -1093 0
-894 -1094 0
-895 -1095 0
-896 -1096 0
-893 -1189 0
-894 -1190 0
-895 -1191 0
-896 -1192 0
-893 -1205 0
-894 -1206 0
-895 -1207 0
-896 -1208 0
-893 -1413 0
-894 -1414 0
-895 -1415 0
-896 -1416 0
-893 -1437 0
-894 -1438 0
-895 -1439 0
-896 -1440 0
-897 -901 0
-898 -902 0
-899 -903 0
-900 -904 0
-897 -973 0
-898 -974 0
-899 -975 0
-900 -976 0
-897 -989 0
-898 -990 0
-899 -991 0
-900 -992 0
-897 -1033 0
-898 -1034 0
-899 -1035 0
-900 -1036 0
-897 -1077 0
-898 -1078 0
-899 -1079 0
-900 -1080 0
-897 -1097 0
-898 -1098 0
-899 -1099 0
-900 -1100 0
-897 -1193 0
-898 -1194 0
-899 -1195 0
-900 -1196 0
-897 -1209 0
-898 -1210 0
-899 -1211 0
-900 -1212 0
-897 -1417 0
-898 -1418 0
-899 -1419 0
-900 -1420 0
-897 -1441 0
-898 -1442 0
-899 -1443 0
-900 -1444 0
-901 -905 0
-902 -906 0
-903 -907 0
-904 -908 0
-901 -977 0
-902 -978 0
-903 -979 0
-904 -980 0
-901 -993 0
-902 -994 0
-903 -995 0
-904 -996 0
-901 -1037 0
-902 -1038 0
-903 -1039 0
-904 -1040 0
-901 -1081 0
-902 -1082 0
-903 -1083 0
-904 -1084 0
-901 -1101 0
-902 -1102 0
-903 -1103 0
-904 -1104 0
-901 -1197 0
-902 -1198 0
-903 -1199 0
-904 -1200 0
-901 -1213 0
-902 -1214 0
-903 -1215 0
-904 -1216 0
-901 -1369 0
-902 -1370 0
-903 -1371 0
-904 -1372 0
-901 -1421 0
-902 -1422 0
-903 -1423 0
-904 -1424 0
-905 -909 0
-906 -910 0
-907 -911 0
-908 -912 0
-905 -981 0
-906 -982 0
-907 -983 0
-908 -984 0
-905 -997 0
-906 -998 0
-907 -999 0
-908 -1000 0
-905 -1041 0
-906 -1042 0
-907 -1043 0
-908 -1044 0
-905 -1085 0
-906 -1086 0
-907 -1087 0
-908 -1088 0
-905 -1105 0
-906 -1106 0
-907 -1107 0
-908 -1108 0
-905 -1141 0
-906 -1142 0
-907 -1143 0
-908 -1144 0
-905 -1201 0
-906 -1202 0
-907 -1203 0
-908 -1204 0
-905 -1373 0
-906 -1374 0
-907 -1375 0
-908 -1376 0
-905 -1425 0
-906 -1426 0
-907 -1427 0
-908 -1428 0
-909 -985 0
-910 -986 0
-911 -987 0
-912 -988 0
-909 -1001 0
-910 -1002 0
-911 -1003 0
-912 -1004 0
-909 -1045 0
-910 -1046 0
-911 -1047 0
-912 -1048 0
-909 -1089 0
-910 -1090 0
-911 -1091 0
-912 -1092 0
-909 -1109 0
-910 -1110 0
-911 -1111 0
-912 -1112 0
-909 -1145 0
-910 -1146 0
-911 -1147 0
-912 -1148 0
-909 -1205 0
-910 -1206 0
-911 -1207 0
-912 -1208 0
-909 -1377 0
-910 -1378 0
-911 -1379 0
-912 -1380 0
-909 -1429 0
-910 -1430 0
-911 -1431 0
-912 -1432 0
-913 -917 0
-914 -918 0
-915 -919 0
-916 -920 0
-913 -985 0
-914 -986 0
-915 -987 0
-916 -988 0
-913 -989 0
-914 -990 0
-915 -991 0
-916 -992 0
-913 -1081 0
-914 -1082 0
-915 -1083 0
-916 -1084 0
-913 -1125 0
-914 -1126 0
-915 -1127 0
-916 -1128 0
-913 -1169 0
-914 -1170 0
-915 -1171 0
-916 -1172 0
-913 -1189 0
-914 -1190 0
-915 -1191 0
-916 -1192 0
-913 -1225 0
-914 -1226 0
-915 -1227 0
-916 -1228 0
-913 -1285 0
-914 -1286 0
-915 -1287 0
-916 -1288 0
-917 -921 0
-918 -922 0
-919 -923 0
-920 -924 0
-917 -993 0
-918 -994 0
-919 -995 0
-920 -996 0
-917 -1085 0
-918 -1086 0
-919 -1087 0
-920 -1088 0
-917 -1129 0
-918 -1130 0
-919 -1131 0
-920 -1132 0
-917 -1173 0
-918 -1174 0
-919 -1175 0
-920 -1176 0
-917 -1193 0
-918 -1194 0
-919 -1195 0
-920 -1196 0
-917 -1229 0
-918 -1230 0
-919 -1231 0
-920 -1232 0
-917 -1289 0
-918 -1290 0
-919 -1291 0
-920 -1292 0
-921 -925 0
-922 -926 0
-923 -927 0
-924 -928 0
-921 -997 0
-922 -998 0
-923 -999 0
-924 -1000 0
-921 -1089 0
-922 -1090 0
-923 -1091 0
-924 -1092 0
-921 -1133 0
-922 -1134 0
-923 -1135 0
-924 -1136 0
-921 -1177 0
-922 -1178 0
-923 -1179 0
-924 -1180 0
-921 -1197 0
-922 -1198 0
-923 -1199 0
-924 -1200 0
-921 -1217 0
-922 -1218 0
-923 -1219 0
-924 -1220 0
-921 -1233 0
-922 -1234 0
-923 -1235 0
-924 -1236 0
-925 -929 0
-926 -930 0
-927 -931 0
-928 -932 0
-925 -1001 0
-926 -1002 0
-927 -1003 0
-928 -1004 0
-925 -1093 0
-926 -1094 0
-927 -1095 0
-928 -1096 0
-925 -1137 0
-926 -1138 0
-927 -1139 0
-928 -1140 0
-925 -1181 0
-926 -1182 0
-927 -1183 0
-928 -1184 0
-925 -1201 0
-926 -1202 0
-927 -1203 0
-928 -1204 0
-925 -1221 0
-926 -1222 0
-927 -1223 0
-928 -1224 0
-925 -1237 0
-926 -1238 0
-927 -1239 0
-928 -1240 0
-929 -933 0
-930 -934 0
-931 -935 0
-932 -936 0
-929 -1005 0
-930 -1006 0
-931 -1007 0
-932 -1008 0
-929 -1065 0
-930 -1066 0
-931 -1067 0
-932 -1068 0
-929 -1097 0
-930 -1098 0
-931 -1099 0
-932 -1100 0
-929 -1185 0
-930 -1186 0
-931 -1187 0
-932 -1188 0
-929 -1205 0
-930 -1206 0
-931 -1207 0
-932 -1208 0
-929 -1225 0
-930 -1226 0
-931 -1227 0
-932 -1228 0
-929 -1241 0
-930 -1242 0
-931 -1243 0
-932 -1244 0
-933 -937 0
-934 -938 0
-935 -939 0
-936 -940 0
-933 -1009 0
-934 -1010 0
-935 -1011 0
-936 -1012 0
-933 -1069 0
-934 -1070 0
-935 -1071 0
-936 -1072 0
-933 -1101 0
-934 -1102 0
-935 -1103 0
-936 -1104 0
-933 -1189 0
-934 -1190 0
-935 -1191 0
-936 -1192 0
-933 -1209 0
-934 -1210 0
-935 -1211 0
-936 -1212 0
-933 -1229 0
-934 -1230 0
-935 -1231 0
-936 -1232 0
-933 -1245 0
-934 -1246 0
-935 -1247 0
-936 -1248 0
-937 -941 0
-938 -942 0
-939 -943 0
-940 -944 0
-937 -1013 0
-938 -1014 0
-939 -1015 0
-940 -1016 0
-937 -1073 0
-938 -1074 0
-939 -1075 0
-940 -1076 0
-937 -1105 0
-938 -1106 0
-939 -1107 0
-940 -1108 0
-937 -1193 0
-938 -1194 0
-939 -1195 0
-940 -1196 0
-937 -1213 0
-938 -1214 0
-939 -1215 0
-940 -1216 0
-937 -1233 0
-938 -1234 0
-939 -1235 0
-940 -1236 0
-937 -1249 0
-938 -1250 0
-939 -1251 0
-940 -1252 0
-941 -945 0
-942 -946 0
-943 -947 0
-944 -948 0
-941 -1017 0
-942 -1018 0
-943 -1019 0
-944 -1020 0
-941 -1077 0
-942 -1078 0
-943 -1079 0
-944 -1080 0
-941 -1109 0
-942 -1110 0
-943 -1111 0
-944 -1112 0
-941 -1141 0
-942 -1142 0
-943 -1143 0
-944 -1144 0
-941 -1197 0
-942 -1198 0
-943 -1199 0
-944 -1200 0
-941 -1237 0
-942 -1238 0
-943 -1239 0
-944 -1240 0
-941 -1253 0
-942 -1254 0
-943 -1255 0
-944 -1256 0
-945 -949 0
-946 -950 0
-947 -951 0
-948 -952 0
-945 -1021 0
-946 -1022 0
-947 -1023 0
-948 -1024 0
-945 -1081 0
-946 -1082 0
-947 -1083 0
-948 -1084 0
-945 -1113 0
-946 -1114 0
-947 -1115 0
-948 -1116 0
-945 -1145 0
-946 -1146 0
-947 -1147 0
-948 -1148 0
-945 -1201 0
-946 -1202 0
-947 -1203 0
-948 -1204 0
-945 -1241 0
-946 -1242 0
-947 -1243 0
-948 -1244 0
-945 -1257 0
-946 -1258 0
-947 -1259 0
-948 -1260 0
-949 -953 0
-950 -954 0
-951 -955 0
-952 -956 0
-949 -1025 0
-950 -1026 0
-951 -1027 0
-952 -1028 0
-949 -1085 0
-950 -1086 0
-951 -1087 0
-952 -1088 0
-949 -1117 0
-950 -1118 0
-951 -1119 0
-952 -1120 0
-949 -1149 0
-950 -1150 0
-951 -1151 0
-952 -1152 0
-949 -1205 0
-950 -1206 0
-951 -1207 0
-952 -1208 0
-949 -1245 0
-950 -1246 0
-951 -1247 0
-952 -1248 0
-949 -1261 0
-950 -1262 0
-951 -1263 0
-952 -1264 0
-953 -957 0
-954 -958 0
-955 -959 0
-956 -960 0
-953 -1029 0
-954 -1030 0
-955 -1031 0
-956 -1032 0
-953 -1089 0
-954 -1090 0
-955 -1091 0
-956 -1092 0
-953 -1121 0
-954 -1122 0
-955 -1123 0
-956 -1124 0
-953 -1153 0
-954 -1154 0
-955 -1155 0
-956 -1156 0
-953 -1209 0
-954 -1210 0
-955 -1211 0
-956 -1212 0
-953 -1249 0
-954 -1250 0
-955 -1251 0
-956 -1252 0
-953 -1265 0
-954 -1266 0
-955 -1267 0
-956 -1268 0
-957 -961 0
-958 -962 0
-959 -963 0
-960 -964 0
-957 -1033 0
-958 -1034 0
-959 -1035 0
-960 -1036 0
-957 -1093 0
-958 -1094 0
-959 -1095 0
-960 -1096 0
-957 -1125 0
-958 -1126 0
-959 -1127 0
-960 -1128 0
-957 -1157 0
-958 -1158 0
-959 -1159 0
-960 -1160 0
-957 -1213 0
-958 -1214 0
-959 -1215 0
-960 -1216 0
-957 -1253 0
-958 -1254 0
-959 -1255 0
-960 -1256 0
-957 -1269 0
-958 -1270 0
-959 -1271 0
-960 -1272 0
-961 -965 0
-962 -966 0
-963 -967 0
-964 -968 0
-961 -1037 0
-962 -1038 0
-963 -1039 0
-964 -1040 0
-961 -1097 0
-962 -1098 0
-963 -1099 0
-964 -1100 0
-961 -1129 0
-962 -1130 0
-963 -1131 0
-964 -1132 0
-961 -1141 0
-962 -1142 0
-963 -1143 0
-964 -1144 0
-961 -1161 0
-962 -1162 0
-963 -1163 0
-964 -1164 0
-961 -1257 0
-962 -1258 0
-963 -1259 0
-964 -1260 0
-961 -1273 0
-962 -1274 0
-963 -1275 0
-964 -1276 0
-965 -969 0
-966 -970 0
-967 -971 0
-968 -972 0
-965 -1041 0
-966 -1042 0
-967 -1043 0
-968 -1044 0
-965 -1101 0
-966 -1102 0
-967 -1103 0
-968 -1104 0
-965 -1133 0
-966 -1134 0
-967 -1135 0
-968 -1136 0
-965 -1145 0
-966 -1146 0
-967 -1147 0
-968 -1148 0
-965 -1165 0
-966 -1166 0
-967 -1167 0
-968 -1168 0
-965 -1261 0
-966 -1262 0
-967 -1263 0
-968 -1264 0
-965 -1277 0
-966 -1278 0
-967 -1279 0
-968 -1280 0
-969 -973 0
-970 -974 0
-971 -975 0
-972 -976 0
-969 -1045 0
-970 -1046 0
-971 -1047 0
-972 -1048 0
-969 -1105 0
-970 -1106 0
-971 -1107 0
-972 -1108 0
-969 -1137 0
-970 -1138 0
-971 -1139 0
-972 -1140 0
-969 -1149 0
-970 -1150 0
-971 -1151 0
-972 -1152 0
-969 -1169 0
-970 -1170 0
-971 -1171 0
-972 -1172 0
-969 -1265 0
-970 -1266 0
-971 -1267 0
-972 -1268 0
-969 -1281 0
-970 -1282 0
-971 -1283 0
-972 -1284 0
-973 -977 0
-974 -978 0
-975 -979 0
-976 -980 0
-973 -1049 0
-974 -1050 0
-975 -1051 0
-976 -1052 0
-973 -1065 0
-974 -1066 0
-975 -1067 0
-976 -1068 0
-973 -1109 0
-974 -1110 0
-975 -1111 0
-976 -1112 0
-973 -1153 0
-974 -1154 0
-975 -1155 0
-976 -1156 0
-973 -1173 0
-974 -1174 0
-975 -1175 0
-976 -1176 0
-973 -1269 0
-974 -1270 0
-975 -1271 0
-976 -1272 0
-973 -1285 0
-974 -1286 0
-975 -1287 0
-976 -1288 0
-977 -981 0
-978 -982 0
-979 -983 0
-980 -984 0
-977 -1053 0
-978 -1054 0
-979 -1055 0
-980 -1056 0
-977 -1069 0
-978 -1070 0
-979 -1071 0
-980 -1072 0
-977 -1113 0
-978 -1114 0
-979 -1115 0
-980 -1116 0
-977 -1157 0
-978 -1158 0
-979 -1159 0
-980 -1160 0
-977 -1177 0
-978 -1178 0
-979 -1179 0
-980 -1180 0
-977 -1273 0
-978 -1274 0
-979 -1275 0
-980 -1276 0
-977 -1289 0
-978 -1290 0
-979 -1291 0
-980 -1292 0
-981 -985 0
-982 -986 0
-983 -987 0
-984 -988 0
-981 -1057 0
-982 -1058 0
-983 -1059 0
-984 -1060 0
-981 -1073 0
-982 -1074 0
-983 -1075 0
-984 -1076 0
-981 -1117 0
-982 -1118 0
-983 -1119 0
-984 -1120 0
-981 -1161 0
-982 -1162 0
-983 -1163 0
-984 -1164 0
-981 -1181 0
-982 -1182 0
-983 -1183 0
-984 -1184 0
-981 -1217 0
-982 -1218 0
-983 -1219 0
-984 -1220 0
-981 -1277 0
-982 -1278 0
-983 -1279 0
-984 -1280 0
-985 -1061 0
-986 -1062 0
-987 -1063 0
-988 -1064 0
-985 -1077 0
-986 -1078 0
-987 -1079 0
-988 -1080 0
-985 -1121 0
-986 -1122 0
-987 -1123 0
-988 -1124 0
-985 -1165 0
-986 -1166 0
-987 -1167 0
-988 -1168 0
-985 -1185 0
-986 -1186 0
-987 -1187 0
-988 -1188 0
-985 -1221 0
-986 -1222 0
-987 -1223 0
-988 -1224 0
-985 -1281 0
-986 -1282 0
-987 -1283 0
-988 -1284 0
-989 -993 0
-990 -994 0
-991 -995 0
-992 -996 0
-989 -1061 0
-990 -1062 0
-991 -1063 0
-992 -1064 0
-989 -1065 0
-990 -1066 0
-991 -1067 0
-992 -1068 0
-989 -1157 0
-990 -1158 0
-991 -1159 0
-992 -1160 0
-989 -1201 0
-990 -1202 0
-991 -1203 0
-992 -1204 0
-989 -1245 0
-990 -1246 0
-991 -1247 0
-992 -1248 0
-989 -1265 0
-990 -1266 0
-991 -1267 0
-992 -1268 0
-989 -1301 0
-990 -1302 0
-991 -1303 0
-992 -1304 0
-989 -1361 0
-990 -1362 0
-991 -1363 0
-992 -1364 0
-993 -997 0
-994 -998 0
-995 -999 0
-996 -1000 0
-993 -1069 0
-994 -1070 0
-995 -1071 0
-996 -1072 0
-993 -1161 0
-994 -1162 0
-995 -1163 0
-996 -1164 0
-993 -1205 0
-994 -1206 0
-995 -1207 0
-996 -1208 0
-993 -1249 0
-994 -1250 0
-995 -1251 0
-996 -1252 0
-993 -1269 0
-994 -1270 0
-995 -1271 0
-996 -1272 0
-993 -1305 0
-994 -1306 0
-995 -1307 0
-996 -1308 0
-993 -1365 0
-994 -1366 0
-995 -1367 0
-996 -1368 0
-997 -1001 0
-998 -1002 0
-999 -1003 0
-1000 -1004 0
-997 -1073 0
-998 -1074 0
-999 -1075 0
-1000 -1076 0
-997 -1165 0
-998 -1166 0
-999 -1167 0
-1000 -1168 0
-997 -1209 0
-998 -1210 0
-999 -1211 0
-1000 -1212 0
-997 -1253 0
-998 -1254 0
-999 -1255 0
-1000 -1256 0
-997 -1273 0
-998 -1274 0
-999 -1275 0
-1000 -1276 0
-997 -1293 0
-998 -1294 0
-999 -1295 0
-1000 -1296 0
-997 -1309 0
-998 -1310 0
-999 -1311 0
-1000 -1312 0
-1001 -1005 0
-1002 -1006 0
-1003 -1007 0
-1004 -1008 0
-1001 -1077 0
-1002 -1078 0
-1003 -1079 0
-1004 -1080 0
-1001 -1169 0
-1002 -1170 0
-1003 -1171 0
-1004 -1172 0
-1001 -1213 0
-1002 -1214 0
-1003 -1215 0
-1004 -1216 0
-1001 -1257 0
-1002 -1258 0
-1003 -1259 0
-1004 -1260 0
-1001 -1277 0
-1002 -1278 0
-1003 -1279 0
-1004 -1280 0
-1001 -1297 0
-1002 -1298 0
-1003 -1299 0
-1004 -1300 0
-1001 -1313 0
-1002 -1314 0
-1003 -1315 0
-1004 -1316 0
-1005 -1009 0
-1006 -1010 0
-1007 -1011 0
-1008 -1012 0
-1005 -1081 0
-1006 -1082 0
-1007 -1083 0
-1008 -1084 0
-1005 -1141 0
-1006 -1142 0
-1007 -1143 0
-1008 -1144 0
-1005 -1173 0
-1006 -1174 0
-1007 -1175 0
-1008 -1176 0
-1005 -1261 0
-1006 -1262 0
-1007 -1263 0
-1008 -1264 0
-1005 -1281 0
-1006 -1282 0
-1007 -1283 0
-1008 -1284 0
-1005 -1301 0
-1006 -1302 0
-1007 -1303 0
-1008 -1304 0
-1005 -1317 0
-1006 -1318 0
-1007 -1319 0
-1008 -1320 0
-1009 -1013 0
-1010 -1014 0
-1011 -1015 0
-1012 -1016 0
-1009 -1085 0
-1010 -1086 0
-1011 -1087 0
-1012 -1088 0
-1009 -1145 0
-1010 -1146 0
-1011 -1147 0
-1012 -1148 0
-1009 -1177 0
-1010 -1178 0
-1011 -1179 0
-1012 -1180 0
-1009 -1265 0
-1010 -1266 0
-1011 -1267 0
-1012 -1268 0
-1009 -1285 0
-1010 -1286 0
-1011 -1287 0
-1012 -1288 0
-1009 -1305 0
-1010 -1306 0
-1011 -1307 0
-1012 -1308 0
-1009 -1321 0
-1010 -1322 0
-1011 -1323 0
-1012 -1324 0
-1013 -1017 0
-1014 -1018 0
-1015 -1019 0
-1016 -1020 0
-1013 -1089 0
-1014 -1090 0
-1015 -1091 0
-1016 -1092 0
-1013 -1149 0
-1014 -1150 0
-1015 -1151 0
-1016 -1152 0
-1013 -1181 0
-1014 -1182 0
-1015 -1183 0
-1016 -1184 0
-1013 -1269 0
-1014 -1270 0
-1015 -1271 0
-1016 -1272 0
-1013 -1289 0
-1014 -1290 0
-1015 -1291 0
-1016 -1292 0
-1013 -1309 0
-1014 -1310 0
-1015 -1311 0
-1016 -1312 0
-1013 -1325 0
-1014 -1326 0
-1015 -1327 0
-1016 -1328 0
-1017 -1021 0
-1018 -1022 0
-1019 -1023 0
-1020 -1024 0
-1017 -1093 0
-1018 -1094 0
-1019 -1095 0
-1020 -1096 0
-1017 -1153 0
-1018 -1154 0
-1019 -1155 0
-1020 -1156 0
-1017 -1185 0
-1018 -1186 0
-1019 -1187 0
-1020 -1188 0
-1017 -1217 0
-1018 -1218 0
-1019 -1219 0
-1020 -1220 0
-1017 -1273 0
-1018 -1274 0
-1019 -1275 0
-1020 -1276 0
-1017 -1313 0
-1018 -1314 0
-1019 -1315 0
-1020 -1316 0
-1017 -1329 0
-1018 -1330 0
-1019 -1331 0
-1020 -1332 0
-1021 -1025 0
-1022 -1026 0
-1023 -1027 0
-1024 -1028 0
-1021 -1097 0
-1022 -1098 0
-1023 -1099 0
-1024 -1100 0
-1021 -1157 0
-1022 -1158 0
-1023 -1159 0
-1024 -1160 0
-1021 -1189 0
-1022 -1190 0
-1023 -1191 0
-1024 -1192 0
-1021 -1221 0
-1022 -1222 0
-1023 -1223 0
-1024 -1224 0
-1021 -1277 0
-1022 -1278 0
-1023 -1279 0
-1024 -1280 0
-1021 -1317 0
-1022 -1318 0
-1023 -1319 0
-1024 -1320 0
-1021 -1333 0
-1022 -1334 0
-1023 -1335 0
-1024 -1336 0
-1025 -1029 0
-1026 -1030 0
-1027 -1031 0
-1028 -1032 0
-1025 -1101 0
-1026 -1102 0
-1027 -1103 0
-1028 -1104 0
-1025 -1161 0
-1026 -1162 0
-1027 -1163 0
-1028 -1164 0
-1025 -1193 0
-1026 -1194 0
-1027 -1195 0
-1028 -1196 0
-1025 -1225 0
-1026 -1226 0
-1027 -1227 0
-1028 -1228 0
-1025 -1281 0
-1026 -1282 0
-1027 -1283 0
-1028 -1284 0
-1025 -1321 0
-1026 -1322 0
-1027 -1323 0
-1028 -1324 0
-1025 -1337 0
-1026 -1338 0
-1027 -1339 0
-1028 -1340 0
-1029 -1033 0
-1030 -1034 0
-1031 -1035 0
-1032 -1036 0
-1029 -1105 0
-1030 -1106 0
-1031 -1107 0
-1032 -1108 0
-1029 -1165 0
-1030 -1166 0
-1031 -1167 0
-1032 -1168 0
-1029 -1197 0
-1030 -1198 0
-1031 -1199 0
-1032 -1200 0
-1029 -1229 0
-1030 -1230 0
-1031 -1231 0
-1032 -1232 0
-1029 -1285 0
-1030 -1286 0
-1031 -1287 0
-1032 -1288 0
-1029 -1325 0
-1030 -1326 0
-1031 -1327 0
-1032 -1328 0
-1029 -1341 0
-1030 -1342 0
-1031 -1343 0
-1032 -1344 0
-1033 -1037 0
-1034 -1038 0
-1035 -1039 0
-1036 -1040 0
-1033 -1109 0
-1034 -1110 0
-1035 -1111 0
-1036 -1112 0
-1033 -1169 0
-1034 -1170 0
-1035 -1171 0
-1036 -1172 0
-1033 -1201 0
-1034 -1202 0
-1035 -1203 0
-1036 -1204 0
-1033 -1233 0
-1034 -1234 0
-1035 -1235 0
-1036 -1236 0
-1033 -1289 0
-1034 -1290 0
-1035 -1291 0
-1036 -1292 0
-1033 -1329 0
-1034 -1330 0
-1035 -1331 0
-1036 -1332 0
-1033 -1345 0
-1034 -1346 0
-1035 -1347 0
-1036 -1348 0
-1037 -1041 0
-1038 -1042 0
-1039 -1043 0
-1040 -1044 0
-1037 -1113 0
-1038 -1114 0
-1039 -1115 0
-1040 -1116 0
-1037 -1173 0
-1038 -1174 0
-1039 -1175 0
-1040 -1176 0
-1037 -1205 0
-1038 -1206 0
-1039 -1207 0
-1040 -1208 0
-1037 -1217 0
-1038 -1218 0
-1039 -1219 0
-1040 -1220 0
-1037 -1237 0
-1038 -1238 0
-1039 -1239 0
-1040 -1240 0
-1037 -1333 0
-1038 -1334 0
-1039 -1335 0
-1040 -1336 0
-1037 -1349 0
-1038 -1350 0
-1039 -1351 0
-1040 -1352 0
-1041 -1045 0
-1042 -1046 0
-1043 -1047 0
-1044 -1048 0
-1041 -1117 0
-1042 -1118 0
-1043 -1119 0
-1044 -1120 0
-1041 -1177 0
-1042 -1178 0
-1043 -1179 0
-1044 -1180 0
-1041 -1209 0
-1042 -1210 0
-1043 -1211 0
-1044 -1212 0
-1041 -1221 0
-1042 -1222 0
-1043 -1223 0
-1044 -1224 0
-1041 -1241 0
-1042 -1242 0
-1043 -1243 0
-1044 -1244 0
-1041 -1337 0
-1042 -1338 0
-1043 -1339 0
-1044 -1340 0
-1041 -1353 0
-1042 -1354 0
-1043 -1355 0
-1044 -1356 0
-1045 -1049 0
-1046 -1050 0
-1047 -1051 0
-1048 -1052 0
-1045 -1121 0
-1046 -1122 0
-1047 -1123 0
-1048 -1124 0
-1045 -1181 0
-1046 -1182 0
-1047 -1183 0
-1048 -1184 0
-1045 -1213 0
-1046 -1214 0
-1047 -1215 0
-1048 -1216 0
-1045 -1225 0
-1046 -1226 0
-1047 -1227 0
-1048 -1228 0
-1045 -1245 0
-1046 -1246 0
-1047 -1247 0
-1048 -1248 0
-1045 -1341 0
-1046 -1342 0
-1047 -1343 0
-1048 -1344 0
-1045 -1357 0
-1046 -1358 0
-1047 -1359 0
-1048 -1360 0
-1049 -1053 0
-1050 -1054 0
-1051 -1055 0
-1052 -1056 0
-1049 -1125 0
-1050 -1126 0
-1051 -1127 0
-1052 -1128 0
-1049 -1141 0
-1050 -1142 0
-1051 -1143 0
-1052 -1144 0
-1049 -1185 0
-1050 -1186 0
-1051 -1187 0
-1052 -1188 0
-1049 -1229 0
-1050 -1230 0
-1051 -1231 0
-1052 -1232 0
-1049 -1249 0
-1050 -1250 0
-1051 -1251 0
-1052 -1252 0
-1049 -1345 0
-1050 -1346 0
-1051 -1347 0
-1052 -1348 0
-1049 -1361 0
-1050 -1362 0
-1051 -1363 0
-1052 -1364 0
-1053 -1057 0
-1054 -1058 0
-1055 -1059 0
-1056 -1060 0
-1053 -1129 0
-1054 -1130 0
-1055 -1131 0
-1056 -1132 0
-1053 -1145 0
-1054 -1146 0
-1055 -1147 0
-1056 -1148 0
-1053 -1189 0
-1054 -1190 0
-1055 -1191 0
-1056 -1192 0
-1053 -1233 0
-1054 -1234 0
-1055 -1235 0
-1056 -1236 0
-1053 -1253 0
-1054 -1254 0
-1055 -1255 0
-1056 -1256 0
-1053 -1349 0
-1054 -1350 0
-1055 -1351 0
-1056 -1352 0
-1053 -1365 0
-1054 -1366 0
-1055 -1367 0
-1056 -1368 0
-1057 -1061 0
-1058 -1062 0
-1059 -1063 0
-1060 -1064 0
-1057 -1133 0
-1058 -1134 0
-1059 -1135 0
-1060 -1136 0
-1057 -1149 0
-1058 -1150 0
-1059 -1151 0
-1060 -1152 0
-1057 -1193 0
-1058 -1194 0
-1059 -1195 0
-1060 -1196 0
-1057 -1237 0
-1058 -1238 0
-1059 -1239 0
-1060 -1240 0
-1057 -1257 0
-1058 -1258 0
-1059 -1259 0
-1060 -1260 0
-1057 -1293 0
-1058 -1294 0
-1059 -1295 0
-1060 -1296 0
-1057 -1353 0
-1058 -1354 0
-1059 -1355 0
-1060 -1356 0
-1061 -1137 0
-1062 -1138 0
-1063 -1139 0
-1064 -1140 0
-1061 -1153 0
-1062 -1154 0
-1063 -1155 0
-1064 -1156 0
-1061 -1197 0
-1062 -1198 0
-1063 -1199 0
-1064 -1200 0
-1061 -1241 0
-1062 -1242 0
-1063 -1243 0
-1064 -1244 0
-1061 -1261 0
-1062 -1262 0
-1063 -1263 0
-1064 -1264 0
-1061 -1297 0
-1062 -1298 0
-1063 -1299 0
-1064 -1300 0
-1061 -1357 0
-1062 -1358 0
-1063 -1359 0
-1064 -1360 0
-1065 -1069 0
-1066 -1070 0
-1067 -1071 0
-1068 -1072 0
-1065 -1137 0
-1066 -1138 0
-1067 -1139 0
-1068 -1140 0
-1065 -1141 0
-1066 -1142 0
-1067 -1143 0
-1068 -1144 0
-1065 -1233 0
-1066 -1234 0
-1067 -1235 0
-1068 -1236 0
-1065 -1277 0
-1066 -1278 0
-1067 -1279 0
-1068 -1280 0
-1065 -1321 0
-1066 -1322 0
-1067 -1323 0
-1068 -1324 0
-1065 -1341 0
-1066 -1342 0
-1067 -1343 0
-1068 -1344 0
-1065 -1377 0
-1066 -1378 0
-1067 -1379 0
-1068 -1380 0
-1065 -1437 0
-1066 -1438 0
-1067 -1439 0
-1068 -1440 0
-1069 -1073 0
-1070 -1074 0
-1071 -1075 0
-1072 -1076 0
-1069 -1145 0
-1070 -1146 0
-1071 -1147 0
-1072 -1148 0
-1069 -1237 0
-1070 -1238 0
-1071 -1239 0
-1072 -1240 0
-1069 -1281 0
-1070 -1282 0
-1071 -1283 0
-1072 -1284 0
-1069 -1325 0
-1070 -1326 0
-1071 -1327 0
-1072 -1328 0
-1069 -1345 0
-1070 -1346 0
-1071 -1347 0
-1072 -1348 0
-1069 -1381 0
-1070 -1382 0
-1071 -1383 0
-1072 -1384 0
-1069 -1441 0
-1070 -1442 0
-1071 -1443 0
-1072 -1444 0
-1073 -1077 0
-1074 -1078 0
-1075 -1079 0
-1076 -1080 0
-1073 -1149 0
-1074 -1150 0
-1075 -1151 0
-1076 -1152 0
-1073 -1241 0
-1074 -1242 0
-1075 -1243 0
-1076 -1244 0
-1073 -1285 0
-1074 -1286 0
-1075 -1287 0
-1076 -1288 0
-1073 -1329 0
-1074 -1330 0
-1075 -1331 0
-1076 -1332 0
-1073 -1349 0
-1074 -1350 0
-1075 -1351 0
-1076 -1352 0
-1073 -1369 0
-1074 -1370 0
-1075 -1371 0
-1076 -1372 0
-1073 -1385 0
-1074 -1386 0
-1075 -1387 0
-1076 -1388 0
-1077 -1081 0
-1078 -1082 0
-1079 -1083 0
-1080 -1084 0
-1077 -1153 0
-1078 -1154 0
-1079 -1155 0
-1080 -1156 0
-1077 -1245 0
-1078 -1246 0
-1079 -1247 0
-1080 -1248 0
-1077 -1289 0
-1078 -1290 0
-1079 -1291 0
-1080 -1292 0
-1077 -1333 0
-1078 -1334 0
-1079 -1335 0
-1080 -1336 0
-1077 -1353 0
-1078 -1354 0
-1079 -1355 0
-1080 -1356 0
-1077 -1373 0
-1078 -1374 0
-1079 -1375 0
-1080 -1376 0
-1077 -1389 0
-1078 -1390 0
-1079 -1391 0
-1080 -1392 0
-1081 -1085 0
-1082 -1086 0
-1083 -1087 0
-1084 -1088 0
-1081 -1157 0
-1082 -1158 0
-1083 -1159 0
-1084 -1160 0
-1081 -1217 0
-1082 -1218 0
-1083 -1219 0
-1084 -1220 0
-1081 -1249 0
-1082 -1250 0
-1083 -1251 0
-1084 -1252 0
-1081 -1337 0
-1082 -1338 0
-1083 -1339 0
-1084 -1340 0
-1081 -1357 0
-1082 -1358 0
-1083 -1359 0
-1084 -1360 0
-1081 -1377 0
-1082 -1378 0
-1083 -1379 0
-1084 -1380 0
-1081 -1393 0
-1082 -1394 0
-1083 -1395 0
-1084 -1396 0
-1085 -1089 0
-1086 -1090 0
-1087 -1091 0
-1088 -1092 0
-1085 -1161 0
-1086 -1162 0
-1087 -1163 0
-1088 -1164 0
-1085 -1221 0
-1086 -1222 0
-1087 -1223 0
-1088 -1224 0
-1085 -1253 0
-1086 -1254 0
-1087 -1255 0
-1088 -1256 0
-1085 -1341 0
-1086 -1342 0
-1087 -1343 0
-1088 -1344 0
-1085 -1361 0
-1086 -1362 0
-1087 -1363 0
-1088 -1364 0
-1085 -1381 0
-1086 -1382 0
-1087 -1383 0
-1088 -1384 0
-1085 -1397 0
-1086 -1398 0
-1087 -1399 0
-1088 -1400 0
-1089 -1093 0
-1090 -1094 0
-1091 -1095 0
-1092 -1096 0
-1089 -1165 0
-1090 -1166 0
-1091 -1167 0
-1092 -1168 0
-1089 -1225 0
-1090 -1226 0
-1091 -1227 0
-1092 -1228 0
-1089 -1257 0
-1090 -1258 0
-1091 -1259 0
-1092 -1260 0
-1089 -1345 0
-1090 -1346 0
-1091 -1347 0
-1092 -1348 0
-1089 -1365 0
-1090 -1366 0
-1091 -1367 0
-1092 -1368 0
-1089 -1385 0
-1090 -1386 0
-1091 -1387 0
-1092 -1388 0
-1089 -1401 0
-1090 -1402 0
-1091 -1403 0
-1092 -1404 0
-1093 -1097 0
-1094 -1098 0
-1095 -1099 0
-1096 -1100 0
-1093 -1169 0
-1094 -1170 0
-1095 -1171 0
-1096 -1172 0
-1093 -1229 0
-1094 -1230 0
-1095 -1231 0
-1096 -1232 0
-1093 -1261 0
-1094 -1262 0
-1095 -1263 0
-1096 -1264 0
-1093 -1293 0
-1094 -1294 0
-1095 -1295 0
-1096 -1296 0
-1093 -1349 0
-1094 -1350 0
-1095 -1351 0
-1096 -1352 0
-1093 -1389 0
-1094 -1390 0
-1095 -1391 0
-1096 -1392 0
-1093 -1405 0
-1094 -1406 0
-1095 -1407 0
-1096 -1408 0
-1097 -1101 0
-1098 -1102 0
-1099 -1103 0
-1100 -1104 0
-1097 -1173 0
-1098 -1174 0
-1099 -1175 0
-1100 -1176 0
-1097 -1233 0
-1098 -1234 0
-1099 -1235 0
-1100 -1236 0
-1097 -1265 0
-1098 -1266 0
-1099 -1267 0
-1100 -1268 0
-1097 -1297 0
-1098 -1298 0
-1099 -1299 0
-1100 -1300 0
-1097 -1353 0
-1098 -1354 0
-1099 -1355 0
-1100 -1356 0
-1097 -1393 0
-1098 -1394 0
-1099 -1395 0
-1100 -1396 0
-1097 -1409 0
-1098 -1410 0
-1099 -1411 0
-1100 -1412 0
-1101 -1105 0
-1102 -1106 0
-1103 -1107 0
-1104 -1108 0
-1101 -1177 0
-1102 -1178 0
-1103 -1179 0
-1104 -1180 0
-1101 -1237 0
-1102 -1238 0
-1103 -1239 0
-1104 -1240 0
-1101 -1269 0
-1102 -1270 0
-1103 -1271 0
-1104 -1272 0
-1101 -1301 0
-1102 -1302 0
-1103 -1303 0
-1104 -1304 0
-1101 -1357 0
-1102 -1358 0
-1103 -1359 0
-1104 -1360 0
-1101 -1397 0
-1102 -1398 0
-1103 -1399 0
-1104 -1400 0
-1101 -1413 0
-1102 -1414 0
-1103 -1415 0
-1104 -1416 0
-1105 -1109 0
-1106 -1110 0
-1107 -1111 0
-1108 -1112 0
-1105 -1181 0
-1106 -1182 0
-1107 -1183 0
-1108 -1184 0
-1105 -1241 0
-1106 -1242 0
-1107 -1243 0
-1108 -1244 0
-1105 -1273 0
-1106 -1274 0
-1107 -1275 0
-1108 -1276 0
-1105 -1305 0
-1106 -1306 0
-1107 -1307 0
-1108 -1308 0
-1105 -1361 0
-1106 -1362 0
-1107 -1363 0
-1108 -1364 0
-1105 -1401 0
-1106 -1402 0
-1107 -1403 0
-1108 -1404 0
-1105 -1417 0
-1106 -1418 0
-1107 -1419 0
-1108 -1420 0
-1109 -1113 0
-1110 -1114 0
-1111 -1115 0
-1112 -1116 0
-1109 -1185 0
-1110 -1186 0
-1111 -1187 0
-1112 -1188 0
-1109 -1245 0
-1110 -1246 0
-1111 -1247 0
-1112 -1248 0
-1109 -1277 0
-1110 -1278 0
-1111 -1279 0
-1112 -1280 0
-1109 -1309 0
-1110 -1310 0
-1111 -1311 0
-1112 -1312 0
-1109 -1365 0
-1110 -1366 0
-1111 -1367 0
-1112 -1368 0
-1109 -1405 0
-1110 -1406 0
-1111 -1407 0
-1112 -1408 0
-1109 -1421 0
-1110 -1422 0
-1111 -1423 0
-1112 -1424 0
-1113 -1117 0
-1114 -1118 0
-1115 -1119 0
-1116 -1120 0
-1113 -1189 0
-1114 -1190 0
-1115 -1191 0
-1116 -1192 0
-1113 -1249 0
-1114 -1250 0
-1115 -1251 0
-1116 -1252 0
-1113 -1281 0
-1114 -1282 0
-1115 -1283 0
-1116 -1284 0
-1113 -1293 0
-1114 -1294 0
-1115 -1295 0
-1116 -1296 0
-1113 -1313 0
-1114 -1314 0
-1115 -1315 0
-1116 -1316 0
-1113 -1409 0
-1114 -1410 0
-1115 -1411 0
-1116 -1412 0
-1113 -1425 0
-1114 -1426 0
-1115 -1427 0
-1116 -1428 0
-1117 -1121 0
-1118 -1122 0
-1119 -1123 0
-1120 -1124 0
-1117 -1193 0
-1118 -1194 0
-1119 -1195 0
-1120 -1196 0
-1117 -1253 0
-1118 -1254 0
-1119 -1255 0
-1120 -1256 0
-1117 -1285 0
-1118 -1286 0
-1119 -1287 0
-1120 -1288 0
-1117 -1297 0
-1118 -1298 0
-1119 -1299 0
-1120 -1300 0
-1117 -1317 0
-1118 -1318 0
-1119 -1319 0
-1120 -1320 0
-1117 -1413 0
-1118 -1414 0
-1119 -1415 0
-1120 -1416 0
-1117 -1429 0
-1118 -1430 0
-1119 -1431 0
-1120 -1432 0
-1121 -1125 0
-1122 -1126 0
-1123 -1127 0
-1124 -1128 0
-1121 -1197 0
-1122 -1198 0
-1123 -1199 0
-1124 -1200 0
-1121 -1257 0
-1122 -1258 0
-1123 -1259 0
-1124 -1260 0
-1121 -1289 0
-1122 -1290 0
-1123 -1291 0
-1124 -1292 0
-1121 -1301 0
-1122 -1302 0
-1123 -1303 0
-1124 -1304 0
-1121 -1321 0
-1122 -1322 0
-1123 -1323 0
-1124 -1324 0
-1121 -1417 0
-1122 -1418 0
-1123 -1419 0
-1124 -1420 0
-1121 -1433 0
-1122 -1434 0
-1123 -1435 0
-1124 -1436 0
-1125 -1129 0
-1126 -1130 0
-1127 -1131 0
-1128 -1132 0
-1125 -1201 0
-1126 -1202 0
-1127 -1203 0
-1128 -1204 0
-1125 -1217 0
-1126 -1218 0
-1127 -1219 0
-1128 -1220 0
-1125 -1261 0
-1126 -1262 0
-1127 -1263 0
-1128 -1264 0
-1125 -1305 0
-1126 -1306 0
-1127 -1307 0
-1128 -1308 0
-1125 -1325 0
-1126 -1326 0
-1127 -1327 0
-1128 -1328 0
-1125 -1421 0
-1126 -1422 0
-1127 -1423 0
-1128 -1424 0
-1125 -1437 0
-1126 -1438 0
-1127 -1439 0
-1128 -1440 0
-1129 -1133 0
-1130 -1134 0
-1131 -1135 0
-1132 -1136 0
-1129 -1205 0
-1130 -1206 0
-1131 -1207 0
-1132 -1208 0
-1129 -1221 0
-1130 -1222 0
-1131 -1223 0
-1132 -1224 0
-1129 -1265 0
-1130 -1266 0
-1131 -1267 0
-1132 -1268 0
-1129 -1309 0
-1130 -1310 0
-1131 -1311 0
-1132 -1312 0
-1129 -1329 0
-1130 -1330 0
-1131 -1331 0
-1132 -1332 0
-1129 -1425 0
-1130 -1426 0
-1131 -1427 0
-1132 -1428 0
-1129 -1441 0
-1130 -1442 0
-1131 -1443 0
-1132 -1444 0
-1133 -1137 0
-1134 -1138 0
-1135 -1139 0
-1136 -1140 0
-1133 -1209 0
-1134 -1210 0
-1135 -1211 0
-1136 -1212 0
-1133 -1225 0
-1134 -1226 0
-1135 -1227 0
-1136 -1228 0
-1133 -1269 0
-1134 -1270 0
-1135 -1271 0
-1136 -1272 0
-1133 -1313 0
-1134 -1314 0
-1135 -1315 0
-1136 -1316 0
-1133 -1333 0
-1134 -1334 0
-1135 -1335 0
-1136 -1336 0
-1133 -1369 0
-1134 -1370 0
-1135 -1371 0
-1136 -1372 0
-1133 -1429 0
-1134 -1430 0
-1135 -1431 0
-1136 -1432 0
-1137 -1213 0
-1138 -1214 0
-1139 -1215 0
-1140 -1216 0
-1137 -1229 0
-1138 -1230 0
-1139 -1231 0
-1140 -1232 0
-1137 -1273 0
-1138 -1274 0
-1139 -1275 0
-1140 -1276 0
-1137 -1317 0
-1138 -1318 0
-1139 -1319 0
-1140 -1320 0
-1137 -1337 0
-1138 -1338 0
-1139 -1339 0
-1140 -1340 0
-1137 -1373 0
-1138 -1374 0
-1139 -1375 0
-1140 -1376 0
-1137 -1433 0
-1138 -1434 0
-1139 -1435 0
-1140 -1436 0
-1141 -1145 0
-1142 -1146 0
-1143 -1147 0
-1144 -1148 0
-1141 -1213 0
-1142 -1214 0
-1143 -1215 0
-1144 -1216 0
-1141 -1217 0
-1142 -1218 0
-1143 -1219 0
-1144 -1220 0
-1141 -1309 0
-1142 -1310 0
-1143 -1311 0
-1144 -1312 0
-1141 -1353 0
-1142 -1354 0
-1143 -1355 0
-1144 -1356 0
-1141 -1397 0
-1142 -1398 0
-1143 -1399 0
-1144 -1400 0
-1141 -1417 0
-1142 -1418 0
-1143 -1419 0
-1144 -1420 0
-1145 -1149 0
-1146 -1150 0
-1147 -1151 0
-1148 -1152 0
-1145 -1221 0
-1146 -1222 0
-1147 -1223 0
-1148 -1224 0
-1145 -1313 0
-1146 -1314 0
-1147 -1315 0
-1148 -1316 0
-1145 -1357 0
-1146 -1358 0
-1147 -1359 0
-1148 -1360 0
-1145 -1401 0
-1146 -1402 0
-1147 -1403 0
-1148 -1404 0
-1145 -1421 0
-1146 -1422 0
-1147 -1423 0
-1148 -1424 0
-1149 -1153 0
-1150 -1154 0
-1151 -1155 0
-1152 -1156 0
-1149 -1225 0
-1150 -1226 0
-1151 -1227 0
-1152 -1228 0
-1149 -1317 0
-1150 -1318 0
-1151 -1319 0
-1152 -1320 0
-1149 -1361 0
-1150 -1362 0
-1151 -1363 0
-1152 -1364 0
-1149 -1405 0
-1150 -1406 0
-1151 -1407 0
-1152 -1408 0
-1149 -1425 0
-1150 -1426 0
-1151 -1427 0
-1152 -1428 0
-1153 -1157 0
-1154 -1158 0
-1155 -1159 0
-1156 -1160 0
-1153 -1229 0
-1154 -1230 0
-1155 -1231 0
-1156 -1232 0
-1153 -1321 0
-1154 -1322 0
-1155 -1323 0
-1156 -1324 0
-1153 -1365 0
-1154 -1366 0
-1155 -1367 0
-1156 -1368 0
-1153 -1409 0
-1154 -1410 0
-1155 -1411 0
-1156 -1412 0
-1153 -1429 0
-1154 -1430 0
-1155 -1431 0
-1156 -1432 0
-1157 -1161 0
-1158 -1162 0
-1159 -1163 0
-1160 -1164 0
-1157 -1233 0
-1158 -1234 0
-1159 -1235 0
-1160 -1236 0
-1157 -1293 0
-1158 -1294 0
-1159 -1295 0
-1160 -1296 0
-1157 -1325 0
-1158 -1326 0
-1159 -1327 0
-1160 -1328 0
-1157 -1413 0
-1158 -1414 0
-1159 -1415 0
-1160 -1416 0
-1157 -1433 0
-1158 -1434 0
-1159 -1435 0
-1160 -1436 0
-1161 -1165 0
-1162 -1166 0
-1163 -1167 0
-1164 -1168 0
-1161 -1237 0
-1162 -1238 0
-1163 -1239 0
-1164 -1240 0
-1161 -1297 0
-1162 -1298 0
-1163 -1299 0
-1164 -1300 0
-1161 -1329 0
-1162 -1330 0
-1163 -1331 0
-1164 -1332 0
-1161 -1417 0
-1162 -1418 0
-1163 -1419 0
-1164 -1420 0
-1161 -1437 0
-1162 -1438 0
-1163 -1439 0
-1164 -1440 0
-1165 -1169 0
-1166 -1170 0
-1167 -1171 0
-1168 -1172 0
-1165 -1241 0
-1166 -1242 0
-1167 -1243 0
-1168 -1244 0
-1165 -1301 0
-1166 -1302 0
-1167 -1303 0
-1168 -1304 0
-1165 -1333 0
-1166 -1334 0
-1167 -1335 0
-1168 -1336 0
-1165 -1421 0
-1166 -1422 0
-1167 -1423 0
-1168 -1424 0
-1165 -1441 0
-1166 -1442 0
-1167 -1443 0
-1168 -1444 0
-1169 -1173 0
-1170 -1174 0
-1171 -1175 0
-1172 -1176 0
-1169 -1245 0
-1170 -1246 0
-1171 -1247 0
-1172 -1248 0
-1169 -1305 0
-1170 -1306 0
-1171 -1307 0
-1172 -1308 0
-1169 -1337 0
-1170 -1338 0
-1171 -1339 0
-1172 -1340 0
-1169 -1369 0
-1170 -1370 0
-1171 -1371 0
-1172 -1372 0
-1169 -1425 0
-1170 -1426 0
-1171 -1427 0
-1172 -1428 0
-1173 -1177 0
-1174 -1178 0
-1175 -1179 0
-1176 -1180 0
-1173 -1249 0
-1174 -1250 0
-1175 -1251 0
-1176 -1252 0
-1173 -1309 0
-1174 -1310 0
-1175 -1311 0
-1176 -1312 0
-1173 -1341 0
-1174 -1342 0
-1175 -1343 0
-1176 -1344 0
-1173 -1373 0
-1174 -1374 0
-1175 -1375 0
-1176 -1376 0
-1173 -1429 0
-1174 -1430 0
-1175 -1431 0
-1176 -1432 0
-1177 -1181 0
-1178 -1182 0
-1179 -1183 0
-1180 -1184 0
-1177 -1253 0
-1178 -1254 0
-1179 -1255 0
-1180 -1256 0
-1177 -1313 0
-1178 -1314 0
-1179 -1315 0
-1180 -1316 0
-1177 -1345 0
-1178 -1346 0
-1179 -1347 0
-1180 -1348 0
-1177 -1377 0
-1178 -1378 0
-1179 -1379 0
-1180 -1380 0
-1177 -1433 0
-1178 -1434 0
-1179 -1435 0
-1180 -1436 0
-1181 -1185 0
-1182 -1186 0
-1183 -1187 0
-1184 -1188 0
-1181 -1257 0
-1182 -1258 0
-1183 -1259 0
-1184 -1260 0
-1181 -1317 0
-1182 -1318 0
-1183 -1319 0
-1184 -1320 0
-1181 -1349 0
-1182 -1350 0
-1183 -1351 0
-1184 -1352 0
-1181 -1381 0
-1182 -1382 0
-1183 -1383 0
-1184 -1384 0
-1181 -1437 0
-1182 -1438 0
-1183 -1439 0
-1184 -1440 0
-1185 -1189 0
-1186 -1190 0
-1187 -1191 0
-1188 -1192 0
-1185 -1261 0
-1186 -1262 0
-1187 -1263 0
-1188 -1264 0
-1185 -1321 0
-1186 -1322 0
-1187 -1323 0
-1188 -1324 0
-1185 -1353 0
-1186 -1354 0
-1187 -1355 0
-1188 -1356 0
-1185 -1385 0
-1186 -1386 0
-1187 -1387 0
-1188 -1388 0
-1185 -1441 0
-1186 -1442 0
-1187 -1443 0
-1188 -1444 0
-1189 -1193 0
-1190 -1194 0
-1191 -1195 0
-1192 -1196 0
-1189 -1265 0
-1190 -1266 0
-1191 -1267 0
-1192 -1268 0
-1189 -1325 0
-1190 -1326 0
-1191 -1327 0
-1192 -1328 0
-1189 -1357 0
-1190 -1358 0
-1191 -1359 0
-1192 -1360 0
-1189 -1369 0
-1190 -1370 0
-1191 -1371 0
-1192 -1372 0
-1189 -1389 0
-1190 -1390 0
-1191 -1391 0
-1192 -1392 0
-1193 -1197 0
-1194 -1198 0
-1195 -1199 0
-1196 -1200 0
-1193 -1269 0
-1194 -1270 0
-1195 -1271 0
-1196 -1272 0
-1193 -1329 0
-1194 -1330 0
-1195 -1331 0
-1196 -1332 0
-1193 -1361 0
-1194 -1362 0
-1195 -1363 0
-1196 -1364 0
-1193 -1373 0
-1194 -1374 0
-1195 -1375 0
-1196 -1376 0
-1193 -1393 0
-1194 -1394 0
-1195 -1395 0
-1196 -1396 0
-1197 -1201 0
-1198 -1202 0
-1199 -1203 0
-1200 -1204 0
-1197 -1273 0
-1198 -1274 0
-1199 -1275 0
-1200 -1276 0
-1197 -1333 0
-1198 -1334 0
-1199 -1335 0
-1200 -1336 0
-1197 -1365 0
-1198 -1366 0
-1199 -1367 0
-1200 -1368 0
-1197 -1377 0
-1198 -1378 0
-1199 -1379 0
-1200 -1380 0
-1197 -1397 0
-1198 -1398 0
-1199 -1399 0
-1200 -1400 0
-1201 -1205 0
-1202 -1206 0
-1203 -1207 0
-1204 -1208 0
-1201 -1277 0
-1202 -1278 0
-1203 -1279 0
-1204 -1280 0
-1201 -1293 0
-1202 -1294 0
-1203 -1295 0
-1204 -1296 0
-1201 -1337 0
-1202 -1338 0
-1203 -1339 0
-1204 -1340 0
-1201 -1381 0
-1202 -1382 0
-1203 -1383 0
-1204 -1384 0
-1201 -1401 0
-1202 -1402 0
-1203 -1403 0
-1204 -1404 0
-1205 -1209 0
-1206 -1210 0
-1207 -1211 0
-1208 -1212 0
-1205 -1281 0
-1206 -1282 0
-1207 -1283 0
-1208 -1284 0
-1205 -1297 0
-1206 -1298 0
-1207 -1299 0
-1208 -1300 0
-1205 -1341 0
-1206 -1342 0
-1207 -1343 0
-1208 -1344 0
-1205 -1385 0
-1206 -1386 0
-1207 -1387 0
-1208 -1388 0
-1205 -1405 0
-1206 -1406 0
-1207 -1407 0
-1208 -1408 0
-1209 -1213 0
-1210 -1214 0
-1211 -1215 0
-1212 -1216 0
-1209 -1285 0
-1210 -1286 0
-1211 -1287 0
-1212 -1288 0
-1209 -1301 0
-1210 -1302 0
-1211 -1303 0
-1212 -1304 0
-1209 -1345 0
-1210 -1346 0
-1211 -1347 0
-1212 -1348 0
-1209 -1389 0
-1210 -1390 0
-1211 -1391 0
-1212 -1392 0
-1209 -1409 0
-1210 -1410 0
-1211 -1411 0
-1212 -1412 0
-1213 -1289 0
-1214 -1290 0
-1215 -1291 0
-1216 -1292 0
-1213 -1305 0
-1214 -1306 0
-1215 -1307 0
-1216 -1308 0
-1213 -1349 0
-1214 -1350 0
-1215 -1351 0
-1216 -1352 0
-1213 -1393 0
-1214 -1394 0
-1215 -1395 0
-1216 -1396 0
-1213 -1413 0
-1214 -1414 0
-1215 -1415 0
-1216 -1416 0
-1217 -1221 0
-1218 -1222 0
-1219 -1223 0
-1220 -1224 0
-1217 -1289 0
-1218 -1290 0
-1219 -1291 0
-1220 -1292 0
-1217 -1293 0
-1218 -1294 0
-1219 -1295 0
-1220 -1296 0
-1217 -1385 0
-1218 -1386 0
-1219 -1387 0
-1220 -1388 0
-1217 -1429 0
-1218 -1430 0
-1219 -1431 0
-1220 -1432 0
-1221 -1225 0
-1222 -1226 0
-1223 -1227 0
-1224 -1228 0
-1221 -1297 0
-1222 -1298 0
-1223 -1299 0
-1224 -1300 0
-1221 -1389 0
-1222 -1390 0
-1223 -1391 0
-1224 -1392 0
-1221 -1433 0
-1222 -1434 0
-1223 -1435 0
-1224 -1436 0
-1225 -1229 0
-1226 -1230 0
-1227 -1231 0
-1228 -1232 0
-1225 -1301 0
-1226 -1302 0
-1227 -1303 0
-1228 -1304 0
-1225 -1393 0
-1226 -1394 0
-1227 -1395 0
-1228 -1396 0
-1225 -1437 0
-1226 -1438 0
-1227 -1439 0
-1228 -1440 0
-1229 -1233 0
-1230 -1234 0
-1231 -1235 0
-1232 -1236 0
-1229 -1305 0
-1230 -1306 0
-1231 -1307 0
-1232 -1308 0
-1229 -1397 0
-1230 -1398 0
-1231 -1399 0
-1232 -1400 0
-1229 -1441 0
-1230 -1442 0
-1231 -1443 0
-1232 -1444 0
-1233 -1237 0
-1234 -1238 0
-1235 -1239 0
-1236 -1240 0
-1233 -1309 0
-1234 -1310 0
-1235 -1311 0
-1236 -1312 0
-1233 -1369 0
-1234 -1370 0
-1235 -1371 0
-1236 -1372 0
-1233 -1401 0
-1234 -1402 0
-1235 -1403 0
-1236 -1404 0
-1237 -1241 0
-1238 -1242 0
-1239 -1243 0
-1240 -1244 0
-1237 -1313 0
-1238 -1314 0
-1239 -1315 0
-1240 -1316 0
-1237 -1373 0
-1238 -1374 0
-1239 -1375 0
-1240 -1376 0
-1237 -1405 0
-1238 -1406 0
-1239 -1407 0
-1240 -1408 0
-1241 -1245 0
-1242 -1246 0
-1243 -1247 0
-1244 -1248 0
-1241 -1317 0
-1242 -1318 0
-1243 -1319 0
-1244 -1320 0
-1241 -1377 0
-1242 -1378 0
-1243 -1379 0
-1244 -1380 0
-1241 -1409 0
-1242 -1410 0
-1243 -1411 0
-1244 -1412 0
-1245 -1249 0
-1246 -1250 0
-1247 -1251 0
-1248 -1252 0
-1245 -1321 0
-1246 -1322 0
-1247 -1323 0
-1248 -1324 0
-1245 -1381 0
-1246 -1382 0
-1247 -1383 0
-1248 -1384 0
-1245 -1413 0
-1246 -1414 0
-1247 -1415 0
-1248 -1416 0
-1249 -1253 0
-1250 -1254 0
-1251 -1255 0
-1252 -1256 0
-1249 -1325 0
-1250 -1326 0
-1251 -1327 0
-1252 -1328 0
-1249 -1385 0
-1250 -1386 0
-1251 -1387 0
-1252 -1388 0
-1249 -1417 0
-1250 -1418 0
-1251 -1419 0
-1252 -1420 0
-1253 -1257 0
-1254 -1258 0
-1255 -1259 0
-1256 -1260 0
-1253 -1329 0
-1254 -1330 0
-1255 -1331 0
-1256 -1332 0
-1253 -1389 0
-1254 -1390 0
-1255 -1391 0
-1256 -1392 0
-1253 -1421 0
-1254 -1422 0
-1255 -1423 0
-1256 -1424 0
-1257 -1261 0
-1258 -1262 0
-1259 -1263 0
-1260 -1264 0
-1257 -1333 0
-1258 -1334 0
-1259 -1335 0
-1260 -1336 0
-1257 -1393 0
-1258 -1394 0
-1259 -1395 0
-1260 -1396 0
-1257 -1425 0
-1258 -1426 0
-1259 -1427 0
-1260 -1428 0
-1261 -1265 0
-1262 -1266 0
-1263 -1267 0
-1264 -1268 0
-1261 -1337 0
-1262 -1338 0
-1263 -1339 0
-1264 -1340 0
-1261 -1397 0
-1262 -1398 0
-1263 -1399 0
-1264 -1400 0
-1261 -1429 0
-1262 -1430 0
-1263 -1431 0
-1264 -1432 0
-1265 -1269 0
-1266 -1270 0
-1267 -1271 0
-1268 -1272 0
-1265 -1341 0
-1266 -1342 0
-1267 -1343 0
-1268 -1344 0
-1265 -1401 0
-1266 -1402 0
-1267 -1403 0
-1268 -1404 0
-1265 -1433 0
-1266 -1434 0
-1267 -1435 0
-1268 -1436 0
-1269 -1273 0
-1270 -1274 0
-1271 -1275 0
-1272 -1276 0
-1269 -1345 0
-1270 -1346 0
-1271 -1347 0
-1272 -1348 0
-1269 -1405 0
-1270 -1406 0
-1271 -1407 0
-1272 -1408 0
-1269 -1437 0
-1270 -1438 0
-1271 -1439 0
-1272 -1440 0
-1273 -1277 0
-1274 -1278 0
-1275 -1279 0
-1276 -1280 0
-1273 -1349 0
-1274 -1350 0
-1275 -1351 0
-1276 -1352 0
-1273 -1409 0
-1274 -1410 0
-1275 -1411 0
-1276 -1412 0
-1273 -1441 0
-1274 -1442 0
-1275 -1443 0
-1276 -1444 0
-1277 -1281 0
-1278 -1282 0
-1279 -1283 0
-1280 -1284 0
-1277 -1353 0
-1278 -1354 0
-1279 -1355 0
-1280 -1356 0
-1277 -1369 0
-1278 -1370 0
-1279 -1371 0
-1280 -1372 0
-1277 -1413 0
-1278 -1414 0
-1279 -1415 0
-1280 -1416 0
-1281 -1285 0
-1282 -1286 0
-1283 -1287 0
-1284 -1288 0
-1281 -1357 0
-1282 -1358 0
-1283 -1359 0
-1284 -1360 0
-1281 -1373 0
-1282 -1374 0
-1283 -1375 0
-1284 -1376 0
-1281 -1417 0
-1282 -1418 0
-1283 -1419 0
-1284 -1420 0
-1285 -1289 0
-1286 -1290 0
-1287 -1291 0
-1288 -1292 0
-1285 -1361 0
-1286 -1362 0
-1287 -1363 0
-1288 -1364 0
-1285 -1377 0
-1286 -1378 0
-1287 -1379 0
-1288 -1380 0
-1285 -1421 0
-1286 -1422 0
-1287 -1423 0
-1288 -1424 0
-1289 -1365 0
-1290 -1366 0
-1291 -1367 0
-1292 -1368 0
-1289 -1381 0
-1290 -1382 0
-1291 -1383 0
-1292 -1384 0
-1289 -1425 0
-1290 -1426 0
-1291 -1427 0
-1292 -1428 0
-1293 -1297 0
-1294 -1298 0
-1295 -1299 0
-1296 -1300 0
-1293 -1365 0
-1294 -1366 0
-1295 -1367 0
-1296 -1368 0
-1293 -1369 0
-1294 -1370 0
-1295 -1371 0
-1296 -1372 0
-1297 -1301 0
-1298 -1302 0
-1299 -1303 0
-1300 -1304 0
-1297 -1373 0
-1298 -1374 0
-1299 -1375 0
-1300 -1376 0
-1301 -1305 0
-1302 -1306 0
-1303 -1307 0
-1304 -1308 0
-1301 -1377 0
-1302 -1378 0
-1303 -1379 0
-1304 -1380 0
-1305 -1309 0
-1306 -1310 0
-1307 -1311 0
-1308 -1312 0
-1305 -1381 0
-1306 -1382 0
-1307 -1383 0
-1308 -1384 0
-1309 -1313 0
-1310 -1314 0
-1311 -1315 0
-1312 -1316 0
-1309 -1385 0
-1310 -1386 0
-1311 -1387 0
-1312 -1388 0
-1313 -1317 0
-1314 -1318 0
-1315 -1319 0
-1316 -1320 0
-1313 -1389 0
-1314 -1390 0
-1315 -1391 0
-1316 -1392 0
-1317 -1321 0
-1318 -1322 0
-1319 -1323 0
-1320 -1324 0
-1317 -1393 0
-1318 -1394 0
-1319 -1395 0
-1320 -1396 0
-1321 -1325 0
-1322 -1326 0
-1323 -1327 0
-1324 -1328 0
-1321 -1397 0
-1322 -1398 0
-1323 -1399 0
-1324 -1400 0
-1325 -1329 0
-1326 -1330 0
-1327 -1331 0
-1328 -1332 0
-1325 -1401 0
-1326 -1402 0
-1327 -1403 0
-1328 -1404 0
-1329 -1333 0
-1330 -1334 0
-1331 -1335 0
-1332 -1336 0
-1329 -1405 0
-1330 -1406 0
-1331 -1407 0
-1332 -1408 0
-1333 -1337 0
-1334 -1338 0
-1335 -1339 0
-1336 -1340 0
-1333 -1409 0
-1334 -1410 0
-1335 -1411 0
-1336 -1412 0
-1337 -1341 0
-1338 -1342 0
-1339 -1343 0
-1340 -1344 0
-1337 -1413 0
-1338 -1414 0
-1339 -1415 0
-1340 -1416 0
-1341 -1345 0
-1342 -1346 0
-1343 -1347 0
-1344 -1348 0
-1341 -1417 0
-1342 -1418 0
-1343 -1419 0
-1344 -1420 0
-1345 -1349 0
-1346 -1350 0
-1347 -1351 0
-1348 -1352 0
-1345 -1421 0
-1346 -1422 0
-1347 -1423 0
-1348 -1424 0
-1349 -1353 0
-1350 -1354 0
-1351 -1355 0
-1352 -1356 0
-1349 -1425 0
-1350 -1426 0
-1351 -1427 0
-1352 -1428 0
-1353 -1357 0
-1354 -1358 0
-1355 -1359 0
-1356 -1360 0
-1353 -1429 0
-1354 -1430 0
-1355 -1431 0
-1356 -1432 0
-1357 -1361 0
-1358 -1362 0
-1359 -1363 0
-1360 -1364 0
-1357 -1433 0
-1358 -1434 0
-1359 -1435 0
-1360 -1436 0
-1361 -1365 0
-1362 -1366 0
-1363 -1367 0
-1364 -1368 0
-1361 -1437 0
-1362 -1438 0
-1363 -1439 0
-1364 -1440 0
-1365 -1441 0
-1366 -1442 0
-1367 -1443 0
-1368 -1444 0
-1369 -1373 0
-1370 -1374 0
-1371 -1375 0
-1372 -1376 0
-1369 -1441 0
-1370 -1442 0
-1371 -1443 0
-1372 -1444 0
-1373 -1377 0
-1374 -1378 0
-1375 -1379 0
-1376 -1380 0
-1377 -1381 0
-1378 -1382 0
-1379 -1383 0
-1380 -1384 0
-1381 -1385 0
-1382 -1386 0
-1383 -1387 0
-1384 -1388 0
-1385 -1389 0
-1386 -1390 0
-1387 -1391 0
-1388 -1392 0
-1389 -1393 0
-1390 -1394 0
-1391 -1395 0
-1392 -1396 0
-1393 -1397 0
-1394 -1398 0
-1395 -1399 0
-1396 -1400 0
-1397 -1401 0
-1398 -1402 0
-1399 -1403 0
-1400 -1404 0
-1401 -1405 0
-1402 -1406 0
-1403 -1407 0
-1404 -1408 0
-1405 -1409 0
-1406 -1410 0
-1407 -1411 0
-1408 -1412 0
-1409 -1413 0
-1410 -1414 0
-1411 -1415 0
-1412 -1416 0
-1413 -1417 0
-1414 -1418 0
-1415 -1419 0
-1416 -1420 0
-1417 -1421 0
-1418 -1422 0
-1419 -1423 0
-1420 -1424 0
-1421 -1425 0
-1422 -1426 0
-1423 -1427 0
-1424 -1428 0
-1425 -1429 0
-1426 -1430 0
-1427 -1431 0
-1428 -1432 0
-1429 -1433 0
-1430 -1434 0
-1431 -1435 0
-1432 -1436 0
-1433 -1437 0
-1434 -1438 0
-1435 -1439 0
-1436 -1440 0
-1437 -1441 0
-1438 -1442 0
-1439 -1443 0
-1440 -1444 0
1 0
6 0
