c independent 4-colouring CNF of core852a (variable c*n+v+1), triangle [8, 23, 34] fixed to 0,1,2
p cnf 3408 18803
1 853 1705 2557 0
2 854 1706 2558 0
3 855 1707 2559 0
4 856 1708 2560 0
5 857 1709 2561 0
6 858 1710 2562 0
7 859 1711 2563 0
8 860 1712 2564 0
9 861 1713 2565 0
10 862 1714 2566 0
11 863 1715 2567 0
12 864 1716 2568 0
13 865 1717 2569 0
14 866 1718 2570 0
15 867 1719 2571 0
16 868 1720 2572 0
17 869 1721 2573 0
18 870 1722 2574 0
19 871 1723 2575 0
20 872 1724 2576 0
21 873 1725 2577 0
22 874 1726 2578 0
23 875 1727 2579 0
24 876 1728 2580 0
25 877 1729 2581 0
26 878 1730 2582 0
27 879 1731 2583 0
28 880 1732 2584 0
29 881 1733 2585 0
30 882 1734 2586 0
31 883 1735 2587 0
32 884 1736 2588 0
33 885 1737 2589 0
34 886 1738 2590 0
35 887 1739 2591 0
36 888 1740 2592 0
37 889 1741 2593 0
38 890 1742 2594 0
39 891 1743 2595 0
40 892 1744 2596 0
41 893 1745 2597 0
42 894 1746 2598 0
43 895 1747 2599 0
44 896 1748 2600 0
45 897 1749 2601 0
46 898 1750 2602 0
47 899 1751 2603 0
48 900 1752 2604 0
49 901 1753 2605 0
50 902 1754 2606 0
51 903 1755 2607 0
52 904 1756 2608 0
53 905 1757 2609 0
54 906 1758 2610 0
55 907 1759 2611 0
56 908 1760 2612 0
57 909 1761 2613 0
58 910 1762 2614 0
59 911 1763 2615 0
60 912 1764 2616 0
61 913 1765 2617 0
62 914 1766 2618 0
63 915 1767 2619 0
64 916 1768 2620 0
65 917 1769 2621 0
66 918 1770 2622 0
67 919 1771 2623 0
68 920 1772 2624 0
69 921 1773 2625 0
70 922 1774 2626 0
71 923 1775 2627 0
72 924 1776 2628 0
73 925 1777 2629 0
74 926 1778 2630 0
75 927 1779 2631 0
76 928 1780 2632 0
77 929 1781 2633 0
78 930 1782 2634 0
79 931 1783 2635 0
80 932 1784 2636 0
81 933 1785 2637 0
82 934 1786 2638 0
83 935 1787 2639 0
84 936 1788 2640 0
85 937 1789 2641 0
86 938 1790 2642 0
87 939 1791 2643 0
88 940 1792 2644 0
89 941 1793 2645 0
90 942 1794 2646 0
91 943 1795 2647 0
92 944 1796 2648 0
93 945 1797 2649 0
94 946 1798 2650 0
95 947 1799 2651 0
96 948 1800 2652 0
97 949 1801 2653 0
98 950 1802 2654 0
99 951 1803 2655 0
100 952 1804 2656 0
101 953 1805 2657 0
102 954 1806 2658 0
103 955 1807 2659 0
104 956 1808 2660 0
105 957 1809 2661 0
106 958 1810 2662 0
107 959 1811 2663 0
108 960 1812 2664 0
109 961 1813 2665 0
110 962 1814 2666 0
111 963 1815 2667 0
112 964 1816 2668 0
113 965 1817 2669 0
114 966 1818 2670 0
115 967 1819 2671 0
116 968 1820 2672 0
117 969 1821 2673 0
118 970 1822 2674 0
119 971 1823 2675 0
120 972 1824 2676 0
121 973 1825 2677 0
122 974 1826 2678 0
123 975 1827 2679 0
124 976 1828 2680 0
125 977 1829 2681 0
126 978 1830 2682 0
127 979 1831 2683 0
128 980 1832 2684 0
129 981 1833 2685 0
130 982 1834 2686 0
131 983 1835 2687 0
132 984 1836 2688 0
133 985 1837 2689 0
134 986 1838 2690 0
135 987 1839 2691 0
136 988 1840 2692 0
137 989 1841 2693 0
138 990 1842 2694 0
139 991 1843 2695 0
140 992 1844 2696 0
141 993 1845 2697 0
142 994 1846 2698 0
143 995 1847 2699 0
144 996 1848 2700 0
145 997 1849 2701 0
146 998 1850 2702 0
147 999 1851 2703 0
148 1000 1852 2704 0
149 1001 1853 2705 0
150 1002 1854 2706 0
151 1003 1855 2707 0
152 1004 1856 2708 0
153 1005 1857 2709 0
154 1006 1858 2710 0
155 1007 1859 2711 0
156 1008 1860 2712 0
157 1009 1861 2713 0
158 1010 1862 2714 0
159 1011 1863 2715 0
160 1012 1864 2716 0
161 1013 1865 2717 0
162 1014 1866 2718 0
163 1015 1867 2719 0
164 1016 1868 2720 0
165 1017 1869 2721 0
166 1018 1870 2722 0
167 1019 1871 2723 0
168 1020 1872 2724 0
169 1021 1873 2725 0
170 1022 1874 2726 0
171 1023 1875 2727 0
172 1024 1876 2728 0
173 1025 1877 2729 0
174 1026 1878 2730 0
175 1027 1879 2731 0
176 1028 1880 2732 0
177 1029 1881 2733 0
178 1030 1882 2734 0
179 1031 1883 2735 0
180 1032 1884 2736 0
181 1033 1885 2737 0
182 1034 1886 2738 0
183 1035 1887 2739 0
184 1036 1888 2740 0
185 1037 1889 2741 0
186 1038 1890 2742 0
187 1039 1891 2743 0
188 1040 1892 2744 0
189 1041 1893 2745 0
190 1042 1894 2746 0
191 1043 1895 2747 0
192 1044 1896 2748 0
193 1045 1897 2749 0
194 1046 1898 2750 0
195 1047 1899 2751 0
196 1048 1900 2752 0
197 1049 1901 2753 0
198 1050 1902 2754 0
199 1051 1903 2755 0
200 1052 1904 2756 0
201 1053 1905 2757 0
202 1054 1906 2758 0
203 1055 1907 2759 0
204 1056 1908 2760 0
205 1057 1909 2761 0
206 1058 1910 2762 0
207 1059 1911 2763 0
208 1060 1912 2764 0
209 1061 1913 2765 0
210 1062 1914 2766 0
211 1063 1915 2767 0
212 1064 1916 2768 0
213 1065 1917 2769 0
214 1066 1918 2770 0
215 1067 1919 2771 0
216 1068 1920 2772 0
217 1069 1921 2773 0
218 1070 1922 2774 0
219 1071 1923 2775 0
220 1072 1924 2776 0
221 1073 1925 2777 0
222 1074 1926 2778 0
223 1075 1927 2779 0
224 1076 1928 2780 0
225 1077 1929 2781 0
226 1078 1930 2782 0
227 1079 1931 2783 0
228 1080 1932 2784 0
229 1081 1933 2785 0
230 1082 1934 2786 0
231 1083 1935 2787 0
232 1084 1936 2788 0
233 1085 1937 2789 0
234 1086 1938 2790 0
235 1087 1939 2791 0
236 1088 1940 2792 0
237 1089 1941 2793 0
238 1090 1942 2794 0
239 1091 1943 2795 0
240 1092 1944 2796 0
241 1093 1945 2797 0
242 1094 1946 2798 0
243 1095 1947 2799 0
244 1096 1948 2800 0
245 1097 1949 2801 0
246 1098 1950 2802 0
247 1099 1951 2803 0
248 1100 1952 2804 0
249 1101 1953 2805 0
250 1102 1954 2806 0
251 1103 1955 2807 0
252 1104 1956 2808 0
253 1105 1957 2809 0
254 1106 1958 2810 0
255 1107 1959 2811 0
256 1108 1960 2812 0
257 1109 1961 2813 0
258 1110 1962 2814 0
259 1111 1963 2815 0
260 1112 1964 2816 0
261 1113 1965 2817 0
262 1114 1966 2818 0
263 1115 1967 2819 0
264 1116 1968 2820 0
265 1117 1969 2821 0
266 1118 1970 2822 0
267 1119 1971 2823 0
268 1120 1972 2824 0
269 1121 1973 2825 0
270 1122 1974 2826 0
271 1123 1975 2827 0
272 1124 1976 2828 0
273 1125 1977 2829 0
274 1126 1978 2830 0
275 1127 1979 2831 0
276 1128 1980 2832 0
277 1129 1981 2833 0
278 1130 1982 2834 0
279 1131 1983 2835 0
280 1132 1984 2836 0
281 1133 1985 2837 0
282 1134 1986 2838 0
283 1135 1987 2839 0
284 1136 1988 2840 0
285 1137 1989 2841 0
286 1138 1990 2842 0
287 1139 1991 2843 0
288 1140 1992 2844 0
289 1141 1993 2845 0
290 1142 1994 2846 0
291 1143 1995 2847 0
292 1144 1996 2848 0
293 1145 1997 2849 0
294 1146 1998 2850 0
295 1147 1999 2851 0
296 1148 2000 2852 0
297 1149 2001 2853 0
298 1150 2002 2854 0
299 1151 2003 2855 0
300 1152 2004 2856 0
301 1153 2005 2857 0
302 1154 2006 2858 0
303 1155 2007 2859 0
304 1156 2008 2860 0
305 1157 2009 2861 0
306 1158 2010 2862 0
307 1159 2011 2863 0
308 1160 2012 2864 0
309 1161 2013 2865 0
310 1162 2014 2866 0
311 1163 2015 2867 0
312 1164 2016 2868 0
313 1165 2017 2869 0
314 1166 2018 2870 0
315 1167 2019 2871 0
316 1168 2020 2872 0
317 1169 2021 2873 0
318 1170 2022 2874 0
319 1171 2023 2875 0
320 1172 2024 2876 0
321 1173 2025 2877 0
322 1174 2026 2878 0
323 1175 2027 2879 0
324 1176 2028 2880 0
325 1177 2029 2881 0
326 1178 2030 2882 0
327 1179 2031 2883 0
328 1180 2032 2884 0
329 1181 2033 2885 0
330 1182 2034 2886 0
331 1183 2035 2887 0
332 1184 2036 2888 0
333 1185 2037 2889 0
334 1186 2038 2890 0
335 1187 2039 2891 0
336 1188 2040 2892 0
337 1189 2041 2893 0
338 1190 2042 2894 0
339 1191 2043 2895 0
340 1192 2044 2896 0
341 1193 2045 2897 0
342 1194 2046 2898 0
343 1195 2047 2899 0
344 1196 2048 2900 0
345 1197 2049 2901 0
346 1198 2050 2902 0
347 1199 2051 2903 0
348 1200 2052 2904 0
349 1201 2053 2905 0
350 1202 2054 2906 0
351 1203 2055 2907 0
352 1204 2056 2908 0
353 1205 2057 2909 0
354 1206 2058 2910 0
355 1207 2059 2911 0
356 1208 2060 2912 0
357 1209 2061 2913 0
358 1210 2062 2914 0
359 1211 2063 2915 0
360 1212 2064 2916 0
361 1213 2065 2917 0
362 1214 2066 2918 0
363 1215 2067 2919 0
364 1216 2068 2920 0
365 1217 2069 2921 0
366 1218 2070 2922 0
367 1219 2071 2923 0
368 1220 2072 2924 0
369 1221 2073 2925 0
370 1222 2074 2926 0
371 1223 2075 2927 0
372 1224 2076 2928 0
373 1225 2077 2929 0
374 1226 2078 2930 0
375 1227 2079 2931 0
376 1228 2080 2932 0
377 1229 2081 2933 0
378 1230 2082 2934 0
379 1231 2083 2935 0
380 1232 2084 2936 0
381 1233 2085 2937 0
382 1234 2086 2938 0
383 1235 2087 2939 0
384 1236 2088 2940 0
385 1237 2089 2941 0
386 1238 2090 2942 0
387 1239 2091 2943 0
388 1240 2092 2944 0
389 1241 2093 2945 0
390 1242 2094 2946 0
391 1243 2095 2947 0
392 1244 2096 2948 0
393 1245 2097 2949 0
394 1246 2098 2950 0
395 1247 2099 2951 0
396 1248 2100 2952 0
397 1249 2101 2953 0
398 1250 2102 2954 0
399 1251 2103 2955 0
400 1252 2104 2956 0
401 1253 2105 2957 0
402 1254 2106 2958 0
403 1255 2107 2959 0
404 1256 2108 2960 0
405 1257 2109 2961 0
406 1258 2110 2962 0
407 1259 2111 2963 0
408 1260 2112 2964 0
409 1261 2113 2965 0
410 1262 2114 2966 0
411 1263 2115 2967 0
412 1264 2116 2968 0
413 1265 2117 2969 0
414 1266 2118 2970 0
415 1267 2119 2971 0
416 1268 2120 2972 0
417 1269 2121 2973 0
418 1270 2122 2974 0
419 1271 2123 2975 0
420 1272 2124 2976 0
421 1273 2125 2977 0
422 1274 2126 2978 0
423 1275 2127 2979 0
424 1276 2128 2980 0
425 1277 2129 2981 0
426 1278 2130 2982 0
427 1279 2131 2983 0
428 1280 2132 2984 0
429 1281 2133 2985 0
430 1282 2134 2986 0
431 1283 2135 2987 0
432 1284 2136 2988 0
433 1285 2137 2989 0
434 1286 2138 2990 0
435 1287 2139 2991 0
436 1288 2140 2992 0
437 1289 2141 2993 0
438 1290 2142 2994 0
439 1291 2143 2995 0
440 1292 2144 2996 0
441 1293 2145 2997 0
442 1294 2146 2998 0
443 1295 2147 2999 0
444 1296 2148 3000 0
445 1297 2149 3001 0
446 1298 2150 3002 0
447 1299 2151 3003 0
448 1300 2152 3004 0
449 1301 2153 3005 0
450 1302 2154 3006 0
451 1303 2155 3007 0
452 1304 2156 3008 0
453 1305 2157 3009 0
454 1306 2158 3010 0
455 1307 2159 3011 0
456 1308 2160 3012 0
457 1309 2161 3013 0
458 1310 2162 3014 0
459 1311 2163 3015 0
460 1312 2164 3016 0
461 1313 2165 3017 0
462 1314 2166 3018 0
463 1315 2167 3019 0
464 1316 2168 3020 0
465 1317 2169 3021 0
466 1318 2170 3022 0
467 1319 2171 3023 0
468 1320 2172 3024 0
469 1321 2173 3025 0
470 1322 2174 3026 0
471 1323 2175 3027 0
472 1324 2176 3028 0
473 1325 2177 3029 0
474 1326 2178 3030 0
475 1327 2179 3031 0
476 1328 2180 3032 0
477 1329 2181 3033 0
478 1330 2182 3034 0
479 1331 2183 3035 0
480 1332 2184 3036 0
481 1333 2185 3037 0
482 1334 2186 3038 0
483 1335 2187 3039 0
484 1336 2188 3040 0
485 1337 2189 3041 0
486 1338 2190 3042 0
487 1339 2191 3043 0
488 1340 2192 3044 0
489 1341 2193 3045 0
490 1342 2194 3046 0
491 1343 2195 3047 0
492 1344 2196 3048 0
493 1345 2197 3049 0
494 1346 2198 3050 0
495 1347 2199 3051 0
496 1348 2200 3052 0
497 1349 2201 3053 0
498 1350 2202 3054 0
499 1351 2203 3055 0
500 1352 2204 3056 0
501 1353 2205 3057 0
502 1354 2206 3058 0
503 1355 2207 3059 0
504 1356 2208 3060 0
505 1357 2209 3061 0
506 1358 2210 3062 0
507 1359 2211 3063 0
508 1360 2212 3064 0
509 1361 2213 3065 0
510 1362 2214 3066 0
511 1363 2215 3067 0
512 1364 2216 3068 0
513 1365 2217 3069 0
514 1366 2218 3070 0
515 1367 2219 3071 0
516 1368 2220 3072 0
517 1369 2221 3073 0
518 1370 2222 3074 0
519 1371 2223 3075 0
520 1372 2224 3076 0
521 1373 2225 3077 0
522 1374 2226 3078 0
523 1375 2227 3079 0
524 1376 2228 3080 0
525 1377 2229 3081 0
526 1378 2230 3082 0
527 1379 2231 3083 0
528 1380 2232 3084 0
529 1381 2233 3085 0
530 1382 2234 3086 0
531 1383 2235 3087 0
532 1384 2236 3088 0
533 1385 2237 3089 0
534 1386 2238 3090 0
535 1387 2239 3091 0
536 1388 2240 3092 0
537 1389 2241 3093 0
538 1390 2242 3094 0
539 1391 2243 3095 0
540 1392 2244 3096 0
541 1393 2245 3097 0
542 1394 2246 3098 0
543 1395 2247 3099 0
544 1396 2248 3100 0
545 1397 2249 3101 0
546 1398 2250 3102 0
547 1399 2251 3103 0
548 1400 2252 3104 0
549 1401 2253 3105 0
550 1402 2254 3106 0
551 1403 2255 3107 0
552 1404 2256 3108 0
553 1405 2257 3109 0
554 1406 2258 3110 0
555 1407 2259 3111 0
556 1408 2260 3112 0
557 1409 2261 3113 0
558 1410 2262 3114 0
559 1411 2263 3115 0
560 1412 2264 3116 0
561 1413 2265 3117 0
562 1414 2266 3118 0
563 1415 2267 3119 0
564 1416 2268 3120 0
565 1417 2269 3121 0
566 1418 2270 3122 0
567 1419 2271 3123 0
568 1420 2272 3124 0
569 1421 2273 3125 0
570 1422 2274 3126 0
571 1423 2275 3127 0
572 1424 2276 3128 0
573 1425 2277 3129 0
574 1426 2278 3130 0
575 1427 2279 3131 0
576 1428 2280 3132 0
577 1429 2281 3133 0
578 1430 2282 3134 0
579 1431 2283 3135 0
580 1432 2284 3136 0
581 1433 2285 3137 0
582 1434 2286 3138 0
583 1435 2287 3139 0
584 1436 2288 3140 0
585 1437 2289 3141 0
586 1438 2290 3142 0
587 1439 2291 3143 0
588 1440 2292 3144 0
589 1441 2293 3145 0
590 1442 2294 3146 0
591 1443 2295 3147 0
592 1444 2296 3148 0
593 1445 2297 3149 0
594 1446 2298 3150 0
595 1447 2299 3151 0
596 1448 2300 3152 0
597 1449 2301 3153 0
598 1450 2302 3154 0
599 1451 2303 3155 0
600 1452 2304 3156 0
601 1453 2305 3157 0
602 1454 2306 3158 0
603 1455 2307 3159 0
604 1456 2308 3160 0
605 1457 2309 3161 0
606 1458 2310 3162 0
607 1459 2311 3163 0
608 1460 2312 3164 0
609 1461 2313 3165 0
610 1462 2314 3166 0
611 1463 2315 3167 0
612 1464 2316 3168 0
613 1465 2317 3169 0
614 1466 2318 3170 0
615 1467 2319 3171 0
616 1468 2320 3172 0
617 1469 2321 3173 0
618 1470 2322 3174 0
619 1471 2323 3175 0
620 1472 2324 3176 0
621 1473 2325 3177 0
622 1474 2326 3178 0
623 1475 2327 3179 0
624 1476 2328 3180 0
625 1477 2329 3181 0
626 1478 2330 3182 0
627 1479 2331 3183 0
628 1480 2332 3184 0
629 1481 2333 3185 0
630 1482 2334 3186 0
631 1483 2335 3187 0
632 1484 2336 3188 0
633 1485 2337 3189 0
634 1486 2338 3190 0
635 1487 2339 3191 0
636 1488 2340 3192 0
637 1489 2341 3193 0
638 1490 2342 3194 0
639 1491 2343 3195 0
640 1492 2344 3196 0
641 1493 2345 3197 0
642 1494 2346 3198 0
643 1495 2347 3199 0
644 1496 2348 3200 0
645 1497 2349 3201 0
646 1498 2350 3202 0
647 1499 2351 3203 0
648 1500 2352 3204 0
649 1501 2353 3205 0
650 1502 2354 3206 0
651 1503 2355 3207 0
652 1504 2356 3208 0
653 1505 2357 3209 0
654 1506 2358 3210 0
655 1507 2359 3211 0
656 1508 2360 3212 0
657 1509 2361 3213 0
658 1510 2362 3214 0
659 1511 2363 3215 0
660 1512 2364 3216 0
661 1513 2365 3217 0
662 1514 2366 3218 0
663 1515 2367 3219 0
664 1516 2368 3220 0
665 1517 2369 3221 0
666 1518 2370 3222 0
667 1519 2371 3223 0
668 1520 2372 3224 0
669 1521 2373 3225 0
670 1522 2374 3226 0
671 1523 2375 3227 0
672 1524 2376 3228 0
673 1525 2377 3229 0
674 1526 2378 3230 0
675 1527 2379 3231 0
676 1528 2380 3232 0
677 1529 2381 3233 0
678 1530 2382 3234 0
679 1531 2383 3235 0
680 1532 2384 3236 0
681 1533 2385 3237 0
682 1534 2386 3238 0
683 1535 2387 3239 0
684 1536 2388 3240 0
685 1537 2389 3241 0
686 1538 2390 3242 0
687 1539 2391 3243 0
688 1540 2392 3244 0
689 1541 2393 3245 0
690 1542 2394 3246 0
691 1543 2395 3247 0
692 1544 2396 3248 0
693 1545 2397 3249 0
694 1546 2398 3250 0
695 1547 2399 3251 0
696 1548 2400 3252 0
697 1549 2401 3253 0
698 1550 2402 3254 0
699 1551 2403 3255 0
700 1552 2404 3256 0
701 1553 2405 3257 0
702 1554 2406 3258 0
703 1555 2407 3259 0
704 1556 2408 3260 0
705 1557 2409 3261 0
706 1558 2410 3262 0
707 1559 2411 3263 0
708 1560 2412 3264 0
709 1561 2413 3265 0
710 1562 2414 3266 0
711 1563 2415 3267 0
712 1564 2416 3268 0
713 1565 2417 3269 0
714 1566 2418 3270 0
715 1567 2419 3271 0
716 1568 2420 3272 0
717 1569 2421 3273 0
718 1570 2422 3274 0
719 1571 2423 3275 0
720 1572 2424 3276 0
721 1573 2425 3277 0
722 1574 2426 3278 0
723 1575 2427 3279 0
724 1576 2428 3280 0
725 1577 2429 3281 0
726 1578 2430 3282 0
727 1579 2431 3283 0
728 1580 2432 3284 0
729 1581 2433 3285 0
730 1582 2434 3286 0
731 1583 2435 3287 0
732 1584 2436 3288 0
733 1585 2437 3289 0
734 1586 2438 3290 0
735 1587 2439 3291 0
736 1588 2440 3292 0
737 1589 2441 3293 0
738 1590 2442 3294 0
739 1591 2443 3295 0
740 1592 2444 3296 0
741 1593 2445 3297 0
742 1594 2446 3298 0
743 1595 2447 3299 0
744 1596 2448 3300 0
745 1597 2449 3301 0
746 1598 2450 3302 0
747 1599 2451 3303 0
748 1600 2452 3304 0
749 1601 2453 3305 0
750 1602 2454 3306 0
751 1603 2455 3307 0
752 1604 2456 3308 0
753 1605 2457 3309 0
754 1606 2458 3310 0
755 1607 2459 3311 0
756 1608 2460 3312 0
757 1609 2461 3313 0
758 1610 2462 3314 0
759 1611 2463 3315 0
760 1612 2464 3316 0
761 1613 2465 3317 0
762 1614 2466 3318 0
763 1615 2467 3319 0
764 1616 2468 3320 0
765 1617 2469 3321 0
766 1618 2470 3322 0
767 1619 2471 3323 0
768 1620 2472 3324 0
769 1621 2473 3325 0
770 1622 2474 3326 0
771 1623 2475 3327 0
772 1624 2476 3328 0
773 1625 2477 3329 0
774 1626 2478 3330 0
775 1627 2479 3331 0
776 1628 2480 3332 0
777 1629 2481 3333 0
778 1630 2482 3334 0
779 1631 2483 3335 0
780 1632 2484 3336 0
781 1633 2485 3337 0
782 1634 2486 3338 0
783 1635 2487 3339 0
784 1636 2488 3340 0
785 1637 2489 3341 0
786 1638 2490 3342 0
787 1639 2491 3343 0
788 1640 2492 3344 0
789 1641 2493 3345 0
790 1642 2494 3346 0
791 1643 2495 3347 0
792 1644 2496 3348 0
793 1645 2497 3349 0
794 1646 2498 3350 0
795 1647 2499 3351 0
796 1648 2500 3352 0
797 1649 2501 3353 0
798 1650 2502 3354 0
799 1651 2503 3355 0
800 1652 2504 3356 0
801 1653 2505 3357 0
802 1654 2506 3358 0
803 1655 2507 3359 0
804 1656 2508 3360 0
805 1657 2509 3361 0
806 1658 2510 3362 0
807 1659 2511 3363 0
808 1660 2512 3364 0
809 1661 2513 3365 0
810 1662 2514 3366 0
811 1663 2515 3367 0
812 1664 2516 3368 0
813 1665 2517 3369 0
814 1666 2518 3370 0
815 1667 2519 3371 0
816 1668 2520 3372 0
817 1669 2521 3373 0
818 1670 2522 3374 0
819 1671 2523 3375 0
820 1672 2524 3376 0
821 1673 2525 3377 0
822 1674 2526 3378 0
823 1675 2527 3379 0
824 1676 2528 3380 0
825 1677 2529 3381 0
826 1678 2530 3382 0
827 1679 2531 3383 0
828 1680 2532 3384 0
829 1681 2533 3385 0
830 1682 2534 3386 0
831 1683 2535 3387 0
832 1684 2536 3388 0
833 1685 2537 3389 0
834 1686 2538 3390 0
835 1687 2539 3391 0
836 1688 2540 3392 0
837 1689 2541 3393 0
838 1690 2542 3394 0
839 1691 2543 3395 0
840 1692 2544 3396 0
841 1693 2545 3397 0
842 1694 2546 3398 0
843 1695 2547 3399 0
844 1696 2548 3400 0
845 1697 2549 3401 0
846 1698 2550 3402 0
847 1699 2551 3403 0
848 1700 2552 3404 0
849 1701 2553 3405 0
850 1702 2554 3406 0
851 1703 2555 3407 0
852 1704 2556 3408 0
-1 -217 0
-853 -1069 0
-1705 -1921 0
-2557 -2773 0
-3 -32 0
-855 -884 0
-1707 -1736 0
-2559 -2588 0
-4 -65 0
-856 -917 0
-1708 -1769 0
-2560 -2621 0
-7 -264 0
-859 -1116 0
-1711 -1968 0
-2563 -2820 0
-10 -80 0
-862 -932 0
-1714 -1784 0
-2566 -2636 0
-11 -815 0
-863 -1667 0
-1715 -2519 0
-2567 -3371 0
-14 -60 0
-866 -912 0
-1718 -1764 0
-2570 -2616 0
-15 -41 0
-867 -893 0
-1719 -1745 0
-2571 -2597 0
-23 -497 0
-875 -1349 0
-1727 -2201 0
-2579 -3053 0
-27 -76 0
-879 -928 0
-1731 -1780 0
-2583 -2632 0
-31 -326 0
-883 -1178 0
-1735 -2030 0
-2587 -2882 0
-50 -664 0
-902 -1516 0
-1754 -2368 0
-2606 -3220 0
-51 -171 0
-903 -1023 0
-1755 -1875 0
-2607 -2727 0
-55 -70 0
-907 -922 0
-1759 -1774 0
-2611 -2626 0
-63 -149 0
-915 -1001 0
-1767 -1853 0
-2619 -2705 0
-71 -154 0
-923 -1006 0
-1775 -1858 0
-2627 -2710 0
-79 -336 0
-931 -1188 0
-1783 -2040 0
-2635 -2892 0
-99 -115 0
-951 -967 0
-1803 -1819 0
-2655 -2671 0
-102 -184 0
-954 -1036 0
-1806 -1888 0
-2658 -2740 0
-113 -446 0
-965 -1298 0
-1817 -2150 0
-2669 -3002 0
-118 -164 0
-970 -1016 0
-1822 -1868 0
-2674 -2720 0
-122 -256 0
-974 -1108 0
-1826 -1960 0
-2678 -2812 0
-126 -153 0
-978 -1005 0
-1830 -1857 0
-2682 -2709 0
-132 -221 0
-984 -1073 0
-1836 -1925 0
-2688 -2777 0
-143 -202 0
-995 -1054 0
-1847 -1906 0
-2699 -2758 0
-150 -192 0
-1002 -1044 0
-1854 -1896 0
-2706 -2748 0
-160 -200 0
-1012 -1052 0
-1864 -1904 0
-2716 -2756 0
-174 -527 0
-1026 -1379 0
-1878 -2231 0
-2730 -3083 0
-176 -194 0
-1028 -1046 0
-1880 -1898 0
-2732 -2750 0
-193 -288 0
-1045 -1140 0
-1897 -1992 0
-2749 -2844 0
-235 -544 0
-1087 -1396 0
-1939 -2248 0
-2791 -3100 0
-240 -364 0
-1092 -1216 0
-1944 -2068 0
-2796 -2920 0
-242 -671 0
-1094 -1523 0
-1946 -2375 0
-2798 -3227 0
-263 -598 0
-1115 -1450 0
-1967 -2302 0
-2819 -3154 0
-269 -720 0
-1121 -1572 0
-1973 -2424 0
-2825 -3276 0
-278 -698 0
-1130 -1550 0
-1982 -2402 0
-2834 -3254 0
-283 -797 0
-1135 -1649 0
-1987 -2501 0
-2839 -3353 0
-284 -356 0
-1136 -1208 0
-1988 -2060 0
-2840 -2912 0
-287 -337 0
-1139 -1189 0
-1991 -2041 0
-2843 -2893 0
-318 -634 0
-1170 -1486 0
-2022 -2338 0
-2874 -3190 0
-324 -603 0
-1176 -1455 0
-2028 -2307 0
-2880 -3159 0
-347 -678 0
-1199 -1530 0
-2051 -2382 0
-2903 -3234 0
-380 -564 0
-1232 -1416 0
-2084 -2268 0
-2936 -3120 0
-479 -545 0
-1331 -1397 0
-2183 -2249 0
-3035 -3101 0
-483 -486 0
-1335 -1338 0
-2187 -2190 0
-3039 -3042 0
-566 -574 0
-1418 -1426 0
-2270 -2278 0
-3122 -3130 0
-567 -818 0
-1419 -1670 0
-2271 -2522 0
-3123 -3374 0
-578 -595 0
-1430 -1447 0
-2282 -2299 0
-3134 -3151 0
-667 -809 0
-1519 -1661 0
-2371 -2513 0
-3223 -3365 0
-1 -702 0
-853 -1554 0
-1705 -2406 0
-2557 -3258 0
-3 -230 0
-855 -1082 0
-1707 -1934 0
-2559 -2786 0
-9 -24 0
-861 -876 0
-1713 -1728 0
-2565 -2580 0
-22 -185 0
-874 -1037 0
-1726 -1889 0
-2578 -2741 0
-32 -121 0
-884 -973 0
-1736 -1825 0
-2588 -2677 0
-34 -817 0
-886 -1669 0
-1738 -2521 0
-2590 -3373 0
-45 -68 0
-897 -920 0
-1749 -1772 0
-2601 -2624 0
-49 -146 0
-901 -998 0
-1753 -1850 0
-2605 -2702 0
-61 -157 0
-913 -1009 0
-1765 -1861 0
-2617 -2713 0
-74 -513 0
-926 -1365 0
-1778 -2217 0
-2630 -3069 0
-78 -639 0
-930 -1491 0
-1782 -2343 0
-2634 -3195 0
-79 -563 0
-931 -1415 0
-1783 -2267 0
-2635 -3119 0
-87 -155 0
-939 -1007 0
-1791 -1859 0
-2643 -2711 0
-91 -98 0
-943 -950 0
-1795 -1802 0
-2647 -2654 0
-102 -622 0
-954 -1474 0
-1806 -2326 0
-2658 -3178 0
-105 -173 0
-957 -1025 0
-1809 -1877 0
-2661 -2729 0
-151 -745 0
-1003 -1597 0
-1855 -2449 0
-2707 -3301 0
-167 -843 0
-1019 -1695 0
-1871 -2547 0
-2723 -3399 0
-232 -340 0
-1084 -1192 0
-1936 -2044 0
-2788 -2896 0
-265 -605 0
-1117 -1457 0
-1969 -2309 0
-2821 -3161 0
-274 -286 0
-1126 -1138 0
-1978 -1990 0
-2830 -2842 0
-280 -381 0
-1132 -1233 0
-1984 -2085 0
-2836 -2937 0
-291 -577 0
-1143 -1429 0
-1995 -2281 0
-2847 -3133 0
-293 -715 0
-1145 -1567 0
-1997 -2419 0
-2849 -3271 0
-314 -793 0
-1166 -1645 0
-2018 -2497 0
-2870 -3349 0
-336 -470 0
-1188 -1322 0
-2040 -2174 0
-2892 -3026 0
-343 -722 0
-1195 -1574 0
-2047 -2426 0
-2899 -3278 0
-403 -462 0
-1255 -1314 0
-2107 -2166 0
-2959 -3018 0
-423 -507 0
-1275 -1359 0
-2127 -2211 0
-2979 -3063 0
-464 -612 0
-1316 -1464 0
-2168 -2316 0
-3020 -3168 0
-468 -645 0
-1320 -1497 0
-2172 -2349 0
-3024 -3201 0
-478 -751 0
-1330 -1603 0
-2182 -2455 0
-3034 -3307 0
-508 -847 0
-1360 -1699 0
-2212 -2551 0
-3064 -3403 0
-525 -737 0
-1377 -1589 0
-2229 -2441 0
-3081 -3293 0
-543 -585 0
-1395 -1437 0
-2247 -2289 0
-3099 -3141 0
-582 -629 0
-1434 -1481 0
-2286 -2333 0
-3138 -3185 0
-608 -681 0
-1460 -1533 0
-2312 -2385 0
-3164 -3237 0
-648 -775 0
-1500 -1627 0
-2352 -2479 0
-3204 -3331 0
-661 -726 0
-1513 -1578 0
-2365 -2430 0
-3217 -3282 0
-738 -765 0
-1590 -1617 0
-2442 -2469 0
-3294 -3321 0
-761 -840 0
-1613 -1692 0
-2465 -2544 0
-3317 -3396 0
-4 -492 0
-856 -1344 0
-1708 -2196 0
-2560 -3048 0
-7 -203 0
-859 -1055 0
-1711 -1907 0
-2563 -2759 0
-10 -675 0
-862 -1527 0
-1714 -2379 0
-2566 -3231 0
-23 -823 0
-875 -1675 0
-1727 -2527 0
-2579 -3379 0
-28 -406 0
-880 -1258 0
-1732 -2110 0
-2584 -2962 0
-39 -64 0
-891 -916 0
-1743 -1768 0
-2595 -2620 0
-50 -111 0
-902 -963 0
-1754 -1815 0
-2606 -2667 0
-55 -814 0
-907 -1666 0
-1759 -2518 0
-2611 -3370 0
-62 -84 0
-914 -936 0
-1766 -1788 0
-2618 -2640 0
-100 -613 0
-952 -1465 0
-1804 -2317 0
-2656 -3169 0
-148 -805 0
-1000 -1657 0
-1852 -2509 0
-2704 -3361 0
-173 -223 0
-1025 -1075 0
-1877 -1927 0
-2729 -2779 0
-215 -389 0
-1067 -1241 0
-1919 -2093 0
-2771 -2945 0
-247 -704 0
-1099 -1556 0
-1951 -2408 0
-2803 -3260 0
-248 -400 0
-1100 -1252 0
-1952 -2104 0
-2804 -2956 0
-258 -759 0
-1110 -1611 0
-1962 -2463 0
-2814 -3315 0
-272 -443 0
-1124 -1295 0
-1976 -2147 0
-2828 -2999 0
-275 -344 0
-1127 -1196 0
-1979 -2048 0
-2831 -2900 0
-284 -711 0
-1136 -1563 0
-1988 -2415 0
-2840 -3267 0
-354 -403 0
-1206 -1255 0
-2058 -2107 0
-2910 -2959 0
-376 -662 0
-1228 -1514 0
-2080 -2366 0
-2932 -3218 0
-393 -408 0
-1245 -1260 0
-2097 -2112 0
-2949 -2964 0
-397 -444 0
-1249 -1296 0
-2101 -2148 0
-2953 -3000 0
-412 -616 0
-1264 -1468 0
-2116 -2320 0
-2968 -3172 0
-510 -624 0
-1362 -1476 0
-2214 -2328 0
-3066 -3180 0
-552 -710 0
-1404 -1562 0
-2256 -2414 0
-3108 -3266 0
-641 -650 0
-1493 -1502 0
-2345 -2354 0
-3197 -3206 0
-665 -788 0
-1517 -1640 0
-2369 -2492 0
-3221 -3344 0
-1 -133 0
-853 -985 0
-1705 -1837 0
-2557 -2689 0
-3 -269 0
-855 -1121 0
-1707 -1973 0
-2559 -2825 0
-4 -209 0
-856 -1061 0
-1708 -1913 0
-2560 -2765 0
-7 -631 0
-859 -1483 0
-1711 -2335 0
-2563 -3187 0
-8 -172 0
-860 -1024 0
-1712 -1876 0
-2564 -2728 0
-10 -162 0
-862 -1014 0
-1714 -1866 0
-2566 -2718 0
-11 -34 0
-863 -886 0
-1715 -1738 0
-2567 -2590 0
-22 -191 0
-874 -1043 0
-1726 -1895 0
-2578 -2747 0
-24 -691 0
-876 -1543 0
-1728 -2395 0
-2580 -3247 0
-25 -125 0
-877 -977 0
-1729 -1829 0
-2581 -2681 0
-26 -153 0
-878 -1005 0
-1730 -1857 0
-2582 -2709 0
-27 -190 0
-879 -1042 0
-1731 -1894 0
-2583 -2746 0
-32 -720 0
-884 -1572 0
-1736 -2424 0
-2588 -3276 0
-49 -225 0
-901 -1077 0
-1753 -1929 0
-2605 -2781 0
-50 -712 0
-902 -1564 0
-1754 -2416 0
-2606 -3268 0
-53 -289 0
-905 -1141 0
-1757 -1993 0
-2609 -2845 0
-55 -129 0
-907 -981 0
-1759 -1833 0
-2611 -2685 0
-56 -182 0
-908 -1034 0
-1760 -1886 0
-2612 -2738 0
-62 -356 0
-914 -1208 0
-1766 -2060 0
-2618 -2912 0
-69 -204 0
-921 -1056 0
-1773 -1908 0
-2625 -2760 0
-73 -538 0
-925 -1390 0
-1777 -2242 0
-2629 -3094 0
-82 -107 0
-934 -959 0
-1786 -1811 0
-2638 -2663 0
-87 -282 0
-939 -1134 0
-1791 -1986 0
-2643 -2838 0
-89 -109 0
-941 -961 0
-1793 -1813 0
-2645 -2665 0
-90 -126 0
-942 -978 0
-1794 -1830 0
-2646 -2682 0
-111 -626 0
-963 -1478 0
-1815 -2330 0
-2667 -3182 0
-112 -175 0
-964 -1027 0
-1816 -1879 0
-2668 -2731 0
-114 -237 0
-966 -1089 0
-1818 -1941 0
-2670 -2793 0
-115 -149 0
-967 -1001 0
-1819 -1853 0
-2671 -2705 0
-131 -361 0
-983 -1213 0
-1835 -2065 0
-2687 -2917 0
-132 -467 0
-984 -1319 0
-1836 -2171 0
-2688 -3023 0
-134 -818 0
-986 -1670 0
-1838 -2522 0
-2690 -3374 0
-137 -303 0
-989 -1155 0
-1841 -2007 0
-2693 -2859 0
-145 -177 0
-997 -1029 0
-1849 -1881 0
-2701 -2733 0
-146 -199 0
-998 -1051 0
-1850 -1903 0
-2702 -2755 0
-156 -304 0
-1008 -1156 0
-1860 -2008 0
-2712 -2860 0
-161 -231 0
-1013 -1083 0
-1865 -1935 0
-2717 -2787 0
-187 -687 0
-1039 -1539 0
-1891 -2391 0
-2743 -3243 0
-195 -456 0
-1047 -1308 0
-1899 -2160 0
-2751 -3012 0
-227 -670 0
-1079 -1522 0
-1931 -2374 0
-2783 -3226 0
-235 -310 0
-1087 -1162 0
-1939 -2014 0
-2791 -2866 0
-250 -420 0
-1102 -1272 0
-1954 -2124 0
-2806 -2976 0
-258 -809 0
-1110 -1661 0
-1962 -2513 0
-2814 -3365 0
-278 -324 0
-1130 -1176 0
-1982 -2028 0
-2834 -2880 0
-287 -388 0
-1139 -1240 0
-1991 -2092 0
-2843 -2944 0
-292 -778 0
-1144 -1630 0
-1996 -2482 0
-2848 -3334 0
-297 -506 0
-1149 -1358 0
-2001 -2210 0
-2853 -3062 0
-299 -739 0
-1151 -1591 0
-2003 -2443 0
-2855 -3295 0
-345 -585 0
-1197 -1437 0
-2049 -2289 0
-2901 -3141 0
-346 -830 0
-1198 -1682 0
-2050 -2534 0
-2902 -3386 0
-349 -838 0
-1201 -1690 0
-2053 -2542 0
-2905 -3394 0
-352 -471 0
-1204 -1323 0
-2056 -2175 0
-2908 -3027 0
-362 -581 0
-1214 -1433 0
-2066 -2285 0
-2918 -3137 0
-377 -393 0
-1229 -1245 0
-2081 -2097 0
-2933 -2949 0
-402 -829 0
-1254 -1681 0
-2106 -2533 0
-2958 -3385 0
-419 -460 0
-1271 -1312 0
-2123 -2164 0
-2975 -3016 0
-440 -608 0
-1292 -1460 0
-2144 -2312 0
-2996 -3164 0
-463 -595 0
-1315 -1447 0
-2167 -2299 0
-3019 -3151 0
-483 -566 0
-1335 -1418 0
-2187 -2270 0
-3039 -3122 0
-485 -706 0
-1337 -1558 0
-2189 -2410 0
-3041 -3262 0
-486 -574 0
-1338 -1426 0
-2190 -2278 0
-3042 -3130 0
-493 -649 0
-1345 -1501 0
-2197 -2353 0
-3049 -3205 0
-500 -719 0
-1352 -1571 0
-2204 -2423 0
-3056 -3275 0
-514 -807 0
-1366 -1659 0
-2218 -2511 0
-3070 -3363 0
-589 -605 0
-1441 -1457 0
-2293 -2309 0
-3145 -3161 0
-637 -810 0
-1489 -1662 0
-2341 -2514 0
-3193 -3366 0
-708 -832 0
-1560 -1684 0
-2412 -2536 0
-3264 -3388 0
-717 -851 0
-1569 -1703 0
-2421 -2555 0
-3273 -3407 0
-2 -5 0
-854 -857 0
-1706 -1709 0
-2558 -2561 0
-3 -287 0
-855 -1139 0
-1707 -1991 0
-2559 -2843 0
-4 -240 0
-856 -1092 0
-1708 -1944 0
-2560 -2796 0
-9 -293 0
-861 -1145 0
-1713 -1997 0
-2565 -2849 0
-17 -85 0
-869 -937 0
-1721 -1789 0
-2573 -2641 0
-22 -26 0
-874 -878 0
-1726 -1730 0
-2578 -2582 0
-24 -715 0
-876 -1567 0
-1728 -2419 0
-2580 -3271 0
-25 -56 0
-877 -908 0
-1729 -1760 0
-2581 -2612 0
-29 -54 0
-881 -906 0
-1733 -1758 0
-2585 -2610 0
-32 -337 0
-884 -1189 0
-1736 -2041 0
-2588 -2893 0
-37 -298 0
-889 -1150 0
-1741 -2002 0
-2593 -2854 0
-38 -473 0
-890 -1325 0
-1742 -2177 0
-2594 -3029 0
-45 -138 0
-897 -990 0
-1749 -1842 0
-2601 -2694 0
-49 -468 0
-901 -1320 0
-1753 -2172 0
-2605 -3024 0
-50 -292 0
-902 -1144 0
-1754 -1996 0
-2606 -2848 0
-58 -581 0
-910 -1433 0
-1762 -2285 0
-2614 -3137 0
-62 -740 0
-914 -1592 0
-1766 -2444 0
-2618 -3296 0
-64 -516 0
-916 -1368 0
-1768 -2220 0
-2620 -3072 0
-65 -364 0
-917 -1216 0
-1769 -2068 0
-2621 -2920 0
-67 -734 0
-919 -1586 0
-1771 -2438 0
-2623 -3290 0
-78 -489 0
-930 -1341 0
-1782 -2193 0
-2634 -3045 0
-84 -169 0
-936 -1021 0
-1788 -1873 0
-2640 -2725 0
-92 -557 0
-944 -1409 0
-1796 -2261 0
-2648 -3113 0
-110 -822 0
-962 -1674 0
-1814 -2526 0
-2666 -3378 0
-111 -132 0
-963 -984 0
-1815 -1836 0
-2667 -2688 0
-112 -201 0
-964 -1053 0
-1816 -1905 0
-2668 -2757 0
-125 -182 0
-977 -1034 0
-1829 -1886 0
-2681 -2738 0
-128 -772 0
-980 -1624 0
-1832 -2476 0
-2684 -3328 0
-142 -381 0
-994 -1233 0
-1846 -2085 0
-2698 -2937 0
-146 -645 0
-998 -1497 0
-1850 -2349 0
-2702 -3201 0
-167 -279 0
-1019 -1131 0
-1871 -1983 0
-2723 -2835 0
-175 -188 0
-1027 -1040 0
-1879 -1892 0
-2731 -2744 0
-197 -430 0
-1049 -1282 0
-1901 -2134 0
-2753 -2986 0
-215 -275 0
-1067 -1127 0
-1919 -1979 0
-2771 -2831 0
-222 -629 0
-1074 -1481 0
-1926 -2333 0
-2778 -3185 0
-226 -723 0
-1078 -1575 0
-1930 -2427 0
-2782 -3279 0
-229 -612 0
-1081 -1464 0
-1933 -2316 0
-2785 -3168 0
-233 -280 0
-1085 -1132 0
-1937 -1984 0
-2789 -2836 0
-249 -769 0
-1101 -1621 0
-1953 -2473 0
-2805 -3325 0
-269 -388 0
-1121 -1240 0
-1973 -2092 0
-2825 -2944 0
-302 -755 0
-1154 -1607 0
-2006 -2459 0
-2858 -3311 0
-313 -695 0
-1165 -1547 0
-2017 -2399 0
-2869 -3251 0
-324 -625 0
-1176 -1477 0
-2028 -2329 0
-2880 -3181 0
-330 -530 0
-1182 -1382 0
-2034 -2234 0
-2886 -3086 0
-338 -382 0
-1190 -1234 0
-2042 -2086 0
-2894 -2938 0
-343 -541 0
-1195 -1393 0
-2047 -2245 0
-2899 -3097 0
-347 -573 0
-1199 -1425 0
-2051 -2277 0
-2903 -3129 0
-351 -362 0
-1203 -1214 0
-2055 -2066 0
-2907 -2918 0
-369 -407 0
-1221 -1259 0
-2073 -2111 0
-2925 -2963 0
-393 -709 0
-1245 -1561 0
-2097 -2413 0
-2949 -3265 0
-398 -683 0
-1250 -1535 0
-2102 -2387 0
-2954 -3239 0
-408 -439 0
-1260 -1291 0
-2112 -2143 0
-2964 -2995 0
-465 -529 0
-1317 -1381 0
-2169 -2233 0
-3021 -3085 0
-505 -729 0
-1357 -1581 0
-2209 -2433 0
-3061 -3285 0
-510 -582 0
-1362 -1434 0
-2214 -2286 0
-3066 -3138 0
-523 -630 0
-1375 -1482 0
-2227 -2334 0
-3079 -3186 0
-550 -742 0
-1402 -1594 0
-2254 -2446 0
-3106 -3298 0
-580 -594 0
-1432 -1446 0
-2284 -2298 0
-3136 -3150 0
-597 -754 0
-1449 -1606 0
-2301 -2458 0
-3153 -3310 0
-606 -746 0
-1458 -1598 0
-2310 -2450 0
-3162 -3302 0
-712 -778 0
-1564 -1630 0
-2416 -2482 0
-3268 -3334 0
-23 -33 0
-875 -885 0
-1727 -1737 0
-2579 -2589 0
-35 -764 0
-887 -1616 0
-1739 -2468 0
-2591 -3320 0
-61 -239 0
-913 -1091 0
-1765 -1943 0
-2617 -2795 0
-79 -274 0
-931 -1126 0
-1783 -1978 0
-2635 -2830 0
-86 -602 0
-938 -1454 0
-1790 -2306 0
-2642 -3158 0
-96 -659 0
-948 -1511 0
-1800 -2363 0
-2652 -3215 0
-122 -322 0
-974 -1174 0
-1826 -2026 0
-2678 -2878 0
-129 -238 0
-981 -1090 0
-1833 -1942 0
-2685 -2794 0
-130 -642 0
-982 -1494 0
-1834 -2346 0
-2686 -3198 0
-143 -370 0
-995 -1222 0
-1847 -2074 0
-2699 -2926 0
-147 -281 0
-999 -1133 0
-1851 -1985 0
-2703 -2837 0
-148 -163 0
-1000 -1015 0
-1852 -1867 0
-2704 -2719 0
-157 -168 0
-1009 -1020 0
-1861 -1872 0
-2713 -2724 0
-160 -844 0
-1012 -1696 0
-1864 -2548 0
-2716 -3400 0
-209 -234 0
-1061 -1086 0
-1913 -1938 0
-2765 -2790 0
-227 -446 0
-1079 -1298 0
-1931 -2150 0
-2783 -3002 0
-232 -403 0
-1084 -1255 0
-1936 -2107 0
-2788 -2959 0
-244 -559 0
-1096 -1411 0
-1948 -2263 0
-2800 -3115 0
-252 -350 0
-1104 -1202 0
-1956 -2054 0
-2808 -2906 0
-269 -613 0
-1121 -1465 0
-1973 -2317 0
-2825 -3169 0
-297 -351 0
-1149 -1203 0
-2001 -2055 0
-2853 -2907 0
-331 -620 0
-1183 -1472 0
-2035 -2324 0
-2887 -3176 0
-332 -368 0
-1184 -1220 0
-2036 -2072 0
-2888 -2924 0
-333 -414 0
-1185 -1266 0
-2037 -2118 0
-2889 -2970 0
-340 -462 0
-1192 -1314 0
-2044 -2166 0
-2896 -3018 0
-374 -504 0
-1226 -1356 0
-2078 -2208 0
-2930 -3060 0
-376 -572 0
-1228 -1424 0
-2080 -2276 0
-2932 -3128 0
-416 -439 0
-1268 -1291 0
-2120 -2143 0
-2972 -2995 0
-437 -741 0
-1289 -1593 0
-2141 -2445 0
-2993 -3297 0
-452 -826 0
-1304 -1678 0
-2156 -2530 0
-3008 -3382 0
-469 -508 0
-1321 -1360 0
-2173 -2212 0
-3025 -3064 0
-500 -698 0
-1352 -1550 0
-2204 -2402 0
-3056 -3254 0
-509 -785 0
-1361 -1637 0
-2213 -2489 0
-3065 -3341 0
-535 -815 0
-1387 -1667 0
-2239 -2519 0
-3091 -3371 0
-611 -704 0
-1463 -1556 0
-2315 -2408 0
-3167 -3260 0
-777 -816 0
-1629 -1668 0
-2481 -2520 0
-3333 -3372 0
-1 -493 0
-853 -1345 0
-1705 -2197 0
-2557 -3049 0
-4 -75 0
-856 -927 0
-1708 -1779 0
-2560 -2631 0
-7 -35 0
-859 -887 0
-1711 -1739 0
-2563 -2591 0
-10 -636 0
-862 -1488 0
-1714 -2340 0
-2566 -3192 0
-12 -36 0
-864 -888 0
-1716 -1740 0
-2568 -2592 0
-19 -88 0
-871 -940 0
-1723 -1792 0
-2575 -2644 0
-27 -784 0
-879 -1636 0
-1731 -2488 0
-2583 -3340 0
-39 -783 0
-891 -1635 0
-1743 -2487 0
-2595 -3339 0
-45 -678 0
-897 -1530 0
-1749 -2382 0
-2601 -3234 0
-63 -441 0
-915 -1293 0
-1767 -2145 0
-2619 -2997 0
-102 -651 0
-954 -1503 0
-1806 -2355 0
-2658 -3207 0
-117 -789 0
-969 -1641 0
-1821 -2493 0
-2673 -3345 0
-133 -649 0
-985 -1501 0
-1837 -2353 0
-2689 -3205 0
-139 -762 0
-991 -1614 0
-1843 -2466 0
-2695 -3318 0
-160 -638 0
-1012 -1490 0
-1864 -2342 0
-2716 -3194 0
-227 -535 0
-1079 -1387 0
-1931 -2239 0
-2783 -3091 0
-236 -573 0
-1088 -1425 0
-1940 -2277 0
-2792 -3129 0
-242 -703 0
-1094 -1555 0
-1946 -2407 0
-2798 -3259 0
-263 -455 0
-1115 -1307 0
-1967 -2159 0
-2819 -3011 0
-271 -536 0
-1123 -1388 0
-1975 -2240 0
-2827 -3092 0
-277 -294 0
-1129 -1146 0
-1981 -1998 0
-2833 -2850 0
-283 -531 0
-1135 -1383 0
-1987 -2235 0
-2839 -3087 0
-299 -637 0
-1151 -1489 0
-2003 -2341 0
-2855 -3193 0
-304 -818 0
-1156 -1670 0
-2008 -2522 0
-2860 -3374 0
-314 -347 0
-1166 -1199 0
-2018 -2051 0
-2870 -2903 0
-318 -570 0
-1170 -1422 0
-2022 -2274 0
-2874 -3126 0
-434 -725 0
-1286 -1577 0
-2138 -2429 0
-2990 -3281 0
-446 -815 0
-1298 -1667 0
-2150 -2519 0
-3002 -3371 0
-478 -646 0
-1330 -1498 0
-2182 -2350 0
-3034 -3202 0
-513 -817 0
-1365 -1669 0
-2217 -2521 0
-3069 -3373 0
-523 -820 0
-1375 -1672 0
-2227 -2524 0
-3079 -3376 0
-545 -664 0
-1397 -1516 0
-2249 -2368 0
-3101 -3220 0
-611 -760 0
-1463 -1612 0
-2315 -2464 0
-3167 -3316 0
-628 -743 0
-1480 -1595 0
-2332 -2447 0
-3184 -3299 0
-630 -733 0
-1482 -1585 0
-2334 -2437 0
-3186 -3289 0
-676 -832 0
-1528 -1684 0
-2380 -2536 0
-3232 -3388 0
-739 -810 0
-1591 -1662 0
-2443 -2514 0
-3295 -3366 0
-10 -51 0
-862 -903 0
-1714 -1755 0
-2566 -2607 0
-11 -132 0
-863 -984 0
-1715 -1836 0
-2567 -2688 0
-22 -37 0
-874 -889 0
-1726 -1741 0
-2578 -2593 0
-25 -443 0
-877 -1295 0
-1729 -2147 0
-2581 -2999 0
-26 -298 0
-878 -1150 0
-1730 -2002 0
-2582 -2854 0
-34 -467 0
-886 -1319 0
-1738 -2171 0
-2590 -3023 0
-38 -207 0
-890 -1059 0
-1742 -1911 0
-2594 -2763 0
-39 -198 0
-891 -1050 0
-1743 -1902 0
-2595 -2754 0
-44 -413 0
-896 -1265 0
-1748 -2117 0
-2600 -2969 0
-49 -444 0
-901 -1296 0
-1753 -2148 0
-2605 -3000 0
-55 -118 0
-907 -970 0
-1759 -1822 0
-2611 -2674 0
-61 -315 0
-913 -1167 0
-1765 -2019 0
-2617 -2871 0
-62 -73 0
-914 -925 0
-1766 -1777 0
-2618 -2629 0
-70 -164 0
-922 -1016 0
-1774 -1868 0
-2626 -2720 0
-72 -681 0
-924 -1533 0
-1776 -2385 0
-2628 -3237 0
-78 -203 0
-930 -1055 0
-1782 -1907 0
-2634 -2759 0
-80 -171 0
-932 -1023 0
-1784 -1875 0
-2636 -2727 0
-81 -541 0
-933 -1393 0
-1785 -2245 0
-2637 -3097 0
-100 -109 0
-952 -961 0
-1804 -1813 0
-2656 -2665 0
-104 -516 0
-956 -1368 0
-1808 -2220 0
-2660 -3072 0
-107 -289 0
-959 -1141 0
-1811 -1993 0
-2663 -2845 0
-113 -174 0
-965 -1026 0
-1817 -1878 0
-2669 -2730 0
-116 -310 0
-968 -1162 0
-1820 -2014 0
-2672 -2866 0
-123 -224 0
-975 -1076 0
-1827 -1928 0
-2679 -2780 0
-127 -373 0
-979 -1225 0
-1831 -2077 0
-2683 -2929 0
-131 -195 0
-983 -1047 0
-1835 -1899 0
-2687 -2751 0
-137 -161 0
-989 -1013 0
-1841 -1865 0
-2693 -2717 0
-160 -176 0
-1012 -1028 0
-1864 -1880 0
-2716 -2732 0
-165 -608 0
-1017 -1460 0
-1869 -2312 0
-2721 -3164 0
-205 -345 0
-1057 -1197 0
-1909 -2049 0
-2761 -2901 0
-247 -421 0
-1099 -1273 0
-1951 -2125 0
-2803 -2977 0
-255 -343 0
-1107 -1195 0
-1959 -2047 0
-2811 -2899 0
-258 -346 0
-1110 -1198 0
-1962 -2050 0
-2814 -2902 0
-266 -335 0
-1118 -1187 0
-1970 -2039 0
-2822 -2891 0
-300 -807 0
-1152 -1659 0
-2004 -2511 0
-2856 -3363 0
-302 -463 0
-1154 -1315 0
-2006 -2167 0
-2858 -3019 0
-336 -690 0
-1188 -1542 0
-2040 -2394 0
-2892 -3246 0
-338 -562 0
-1190 -1414 0
-2042 -2266 0
-2894 -3118 0
-356 -538 0
-1208 -1390 0
-2060 -2242 0
-2912 -3094 0
-357 -440 0
-1209 -1292 0
-2061 -2144 0
-2913 -2996 0
-361 -456 0
-1213 -1308 0
-2065 -2160 0
-2917 -3012 0
-365 -578 0
-1217 -1430 0
-2069 -2282 0
-2921 -3134 0
-369 -823 0
-1221 -1675 0
-2073 -2527 0
-2925 -3379 0
-377 -589 0
-1229 -1441 0
-2081 -2293 0
-2933 -3145 0
-390 -448 0
-1242 -1300 0
-2094 -2152 0
-2946 -3004 0
-393 -605 0
-1245 -1457 0
-2097 -2309 0
-2949 -3161 0
-420 -626 0
-1272 -1478 0
-2124 -2330 0
-2976 -3182 0
-442 -491 0
-1294 -1343 0
-2146 -2195 0
-2998 -3047 0
-446 -527 0
-1298 -1379 0
-2150 -2231 0
-3002 -3083 0
-477 -488 0
-1329 -1340 0
-2181 -2192 0
-3033 -3044 0
-500 -787 0
-1352 -1639 0
-2204 -2491 0
-3056 -3343 0
-551 -610 0
-1403 -1462 0
-2255 -2314 0
-3107 -3166 0
-580 -766 0
-1432 -1618 0
-2284 -2470 0
-3136 -3322 0
-596 -796 0
-1448 -1648 0
-2300 -2500 0
-3152 -3352 0
-612 -715 0
-1464 -1567 0
-2316 -2419 0
-3168 -3271 0
-621 -728 0
-1473 -1580 0
-2325 -2432 0
-3177 -3284 0
-689 -833 0
-1541 -1685 0
-2393 -2537 0
-3245 -3389 0
-809 -830 0
-1661 -1682 0
-2513 -2534 0
-3365 -3386 0
-4 -718 0
-856 -1570 0
-1708 -2422 0
-2560 -3274 0
-7 -277 0
-859 -1129 0
-1711 -1981 0
-2563 -2833 0
-16 -418 0
-868 -1270 0
-1720 -2122 0
-2572 -2974 0
-17 -21 0
-869 -873 0
-1721 -1725 0
-2573 -2577 0
-22 -135 0
-874 -987 0
-1726 -1839 0
-2578 -2691 0
-26 -104 0
-878 -956 0
-1730 -1808 0
-2582 -2660 0
-27 -375 0
-879 -1227 0
-1731 -2079 0
-2583 -2931 0
-35 -294 0
-887 -1146 0
-1739 -1998 0
-2591 -2850 0
-37 -64 0
-889 -916 0
-1741 -1768 0
-2593 -2620 0
-38 -39 0
-890 -891 0
-1742 -1743 0
-2594 -2595 0
-50 -411 0
-902 -1263 0
-1754 -2115 0
-2606 -2967 0
-53 -833 0
-905 -1685 0
-1757 -2537 0
-2609 -3389 0
-61 -551 0
-913 -1403 0
-1765 -2255 0
-2617 -3107 0
-62 -205 0
-914 -1057 0
-1766 -1909 0
-2618 -2761 0
-63 -117 0
-915 -969 0
-1767 -1821 0
-2619 -2673 0
-67 -108 0
-919 -960 0
-1771 -1812 0
-2623 -2664 0
-70 -80 0
-922 -932 0
-1774 -1784 0
-2626 -2636 0
-71 -170 0
-923 -1022 0
-1775 -1874 0
-2627 -2726 0
-73 -345 0
-925 -1197 0
-1777 -2049 0
-2629 -2901 0
-75 -584 0
-927 -1436 0
-1779 -2288 0
-2631 -3140 0
-82 -689 0
-934 -1541 0
-1786 -2393 0
-2638 -3245 0
-87 -151 0
-939 -1003 0
-1791 -1855 0
-2643 -2707 0
-90 -705 0
-942 -1557 0
-1794 -2409 0
-2646 -3261 0
-98 -817 0
-950 -1669 0
-1802 -2521 0
-2654 -3373 0
-122 -143 0
-974 -995 0
-1826 -1847 0
-2678 -2699 0
-127 -390 0
-979 -1242 0
-1831 -2094 0
-2683 -2946 0
-129 -162 0
-981 -1014 0
-1833 -1866 0
-2685 -2718 0
-140 -146 0
-992 -998 0
-1844 -1850 0
-2696 -2702 0
-155 -745 0
-1007 -1597 0
-1859 -2449 0
-2711 -3301 0
-160 -747 0
-1012 -1599 0
-1864 -2451 0
-2716 -3303 0
-164 -171 0
-1016 -1023 0
-1868 -1875 0
-2720 -2727 0
-173 -513 0
-1025 -1365 0
-1877 -2217 0
-2729 -3069 0
-186 -344 0
-1038 -1196 0
-1890 -2048 0
-2742 -2900 0
-196 -230 0
-1048 -1082 0
-1900 -1934 0
-2752 -2786 0
-206 -288 0
-1058 -1140 0
-1910 -1992 0
-2762 -2844 0
-220 -572 0
-1072 -1424 0
-1924 -2276 0
-2776 -3128 0
-239 -476 0
-1091 -1328 0
-1943 -2180 0
-2795 -3032 0
-252 -416 0
-1104 -1268 0
-1956 -2120 0
-2808 -2972 0
-257 -640 0
-1109 -1492 0
-1961 -2344 0
-2813 -3196 0
-261 -609 0
-1113 -1461 0
-1965 -2313 0
-2817 -3165 0
-263 -749 0
-1115 -1601 0
-1967 -2453 0
-2819 -3305 0
-266 -852 0
-1118 -1704 0
-1970 -2556 0
-2822 -3408 0
-276 -286 0
-1128 -1138 0
-1980 -1990 0
-2832 -2842 0
-297 -331 0
-1149 -1183 0
-2001 -2035 0
-2853 -2887 0
-298 -516 0
-1150 -1368 0
-2002 -2220 0
-2854 -3072 0
-302 -321 0
-1154 -1173 0
-2006 -2025 0
-2858 -2877 0
-306 -798 0
-1158 -1650 0
-2010 -2502 0
-2862 -3354 0
-315 -610 0
-1167 -1462 0
-2019 -2314 0
-2871 -3166 0
-322 -370 0
-1174 -1222 0
-2026 -2074 0
-2878 -2926 0
-333 -428 0
-1185 -1280 0
-2037 -2132 0
-2889 -2984 0
-350 -439 0
-1202 -1291 0
-2054 -2143 0
-2906 -2995 0
-351 -620 0
-1203 -1472 0
-2055 -2324 0
-2907 -3176 0
-352 -526 0
-1204 -1378 0
-2056 -2230 0
-2908 -3082 0
-365 -580 0
-1217 -1432 0
-2069 -2284 0
-2921 -3136 0
-366 -432 0
-1218 -1284 0
-2070 -2136 0
-2922 -2988 0
-373 -448 0
-1225 -1300 0
-2077 -2152 0
-2929 -3004 0
-374 -509 0
-1226 -1361 0
-2078 -2213 0
-2930 -3065 0
-380 -653 0
-1232 -1505 0
-2084 -2357 0
-2936 -3209 0
-386 -484 0
-1238 -1336 0
-2090 -2188 0
-2942 -3040 0
-392 -677 0
-1244 -1529 0
-2096 -2381 0
-2948 -3233 0
-399 -721 0
-1251 -1573 0
-2103 -2425 0
-2955 -3277 0
-426 -632 0
-1278 -1484 0
-2130 -2336 0
-2982 -3188 0
-427 -586 0
-1279 -1438 0
-2131 -2290 0
-2983 -3142 0
-436 -507 0
-1288 -1359 0
-2140 -2211 0
-2992 -3063 0
-441 -789 0
-1293 -1641 0
-2145 -2493 0
-2997 -3345 0
-445 -647 0
-1297 -1499 0
-2149 -2351 0
-3001 -3203 0
-503 -710 0
-1355 -1562 0
-2207 -2414 0
-3059 -3266 0
-504 -785 0
-1356 -1637 0
-2208 -2489 0
-3060 -3341 0
-525 -792 0
-1377 -1644 0
-2229 -2496 0
-3081 -3348 0
-531 -662 0
-1383 -1514 0
-2235 -2366 0
-3087 -3218 0
-532 -569 0
-1384 -1421 0
-2236 -2273 0
-3088 -3125 0
-536 -842 0
-1388 -1694 0
-2240 -2546 0
-3092 -3398 0
-538 -585 0
-1390 -1437 0
-2242 -2289 0
-3094 -3141 0
-556 -709 0
-1408 -1561 0
-2260 -2413 0
-3112 -3265 0
-562 -807 0
-1414 -1659 0
-2266 -2511 0
-3118 -3363 0
-564 -633 0
-1416 -1485 0
-2268 -2337 0
-3120 -3189 0
-578 -766 0
-1430 -1618 0
-2282 -2470 0
-3134 -3322 0
-672 -722 0
-1524 -1574 0
-2376 -2426 0
-3228 -3278 0
-724 -767 0
-1576 -1619 0
-2428 -2471 0
-3280 -3323 0
-732 -752 0
-1584 -1604 0
-2436 -2456 0
-3288 -3308 0
-753 -819 0
-1605 -1671 0
-2457 -2523 0
-3309 -3375 0
-805 -823 0
-1657 -1675 0
-2509 -2527 0
-3361 -3379 0
-3 -8 0
-855 -860 0
-1707 -1712 0
-2559 -2564 0
-7 -742 0
-859 -1594 0
-1711 -2446 0
-2563 -3298 0
-10 -612 0
-862 -1464 0
-1714 -2316 0
-2566 -3168 0
-37 -841 0
-889 -1693 0
-1741 -2545 0
-2593 -3397 0
-39 -470 0
-891 -1322 0
-1743 -2174 0
-2595 -3026 0
-51 -715 0
-903 -1567 0
-1755 -2419 0
-2607 -3271 0
-59 -210 0
-911 -1062 0
-1763 -1914 0
-2615 -2766 0
-63 -581 0
-915 -1433 0
-1767 -2285 0
-2619 -3137 0
-86 -563 0
-938 -1415 0
-1790 -2267 0
-2642 -3119 0
-99 -362 0
-951 -1214 0
-1803 -2066 0
-2655 -2918 0
-118 -772 0
-970 -1624 0
-1822 -2476 0
-2674 -3328 0
-123 -336 0
-975 -1188 0
-1827 -2040 0
-2679 -2892 0
-145 -734 0
-997 -1586 0
-1849 -2438 0
-2701 -3290 0
-156 -364 0
-1008 -1216 0
-1860 -2068 0
-2712 -2920 0
-160 -464 0
-1012 -1316 0
-1864 -2168 0
-2716 -3020 0
-176 -293 0
-1028 -1145 0
-1880 -1997 0
-2732 -2849 0
-224 -690 0
-1076 -1542 0
-1928 -2394 0
-2780 -3246 0
-232 -385 0
-1084 -1237 0
-1936 -2089 0
-2788 -2941 0
-261 -481 0
-1113 -1333 0
-1965 -2185 0
-2817 -3037 0
-265 -471 0
-1117 -1323 0
-1969 -2175 0
-2821 -3027 0
-284 -570 0
-1136 -1422 0
-1988 -2274 0
-2840 -3126 0
-339 -618 0
-1191 -1470 0
-2043 -2322 0
-2895 -3174 0
-343 -779 0
-1195 -1631 0
-2047 -2483 0
-2899 -3335 0
-378 -700 0
-1230 -1552 0
-2082 -2404 0
-2934 -3256 0
-445 -812 0
-1297 -1664 0
-2149 -2516 0
-3001 -3368 0
-479 -496 0
-1331 -1348 0
-2183 -2200 0
-3035 -3052 0
-495 -554 0
-1347 -1406 0
-2199 -2258 0
-3051 -3110 0
-500 -535 0
-1352 -1387 0
-2204 -2239 0
-3056 -3091 0
-525 -550 0
-1377 -1402 0
-2229 -2254 0
-3081 -3106 0
-547 -822 0
-1399 -1674 0
-2251 -2526 0
-3103 -3378 0
-607 -813 0
-1459 -1665 0
-2311 -2517 0
-3163 -3369 0
-647 -771 0
-1499 -1623 0
-2351 -2475 0
-3203 -3327 0
-698 -815 0
-1550 -1667 0
-2402 -2519 0
-3254 -3371 0
-724 -821 0
-1576 -1673 0
-2428 -2525 0
-3280 -3377 0
-1 -27 0
-853 -879 0
-1705 -1731 0
-2557 -2583 0
-2 -29 0
-854 -881 0
-1706 -1733 0
-2558 -2585 0
-3 -379 0
-855 -1231 0
-1707 -2083 0
-2559 -2935 0
-5 -54 0
-857 -906 0
-1709 -1758 0
-2561 -2610 0
-8 -159 0
-860 -1011 0
-1712 -1863 0
-2564 -2715 0
-9 -226 0
-861 -1078 0
-1713 -1930 0
-2565 -2782 0
-11 -596 0
-863 -1448 0
-1715 -2300 0
-2567 -3152 0
-23 -567 0
-875 -1419 0
-1727 -2271 0
-2579 -3123 0
-32 -358 0
-884 -1210 0
-1736 -2062 0
-2588 -2914 0
-33 -484 0
-885 -1336 0
-1737 -2188 0
-2589 -3040 0
-50 -540 0
-902 -1392 0
-1754 -2244 0
-2606 -3096 0
-61 -469 0
-913 -1321 0
-1765 -2173 0
-2617 -3025 0
-62 -127 0
-914 -979 0
-1766 -1831 0
-2618 -2683 0
-66 -409 0
-918 -1261 0
-1770 -2113 0
-2622 -2965 0
-67 -92 0
-919 -944 0
-1771 -1796 0
-2623 -2648 0
-73 -373 0
-925 -1225 0
-1777 -2077 0
-2629 -2929 0
-83 -289 0
-935 -1141 0
-1787 -1993 0
-2639 -2845 0
-102 -126 0
-954 -978 0
-1806 -1830 0
-2658 -2682 0
-119 -415 0
-971 -1267 0
-1823 -2119 0
-2675 -2971 0
-122 -252 0
-974 -1104 0
-1826 -1956 0
-2678 -2808 0
-132 -796 0
-984 -1648 0
-1836 -2500 0
-2688 -3352 0
-133 -190 0
-985 -1042 0
-1837 -1894 0
-2689 -2746 0
-143 -416 0
-995 -1268 0
-1847 -2120 0
-2699 -2972 0
-161 -519 0
-1013 -1371 0
-1865 -2223 0
-2717 -3075 0
-163 -386 0
-1015 -1238 0
-1867 -2090 0
-2719 -2942 0
-168 -847 0
-1020 -1699 0
-1872 -2551 0
-2724 -3403 0
-205 -390 0
-1057 -1242 0
-1909 -2094 0
-2761 -2946 0
-239 -508 0
-1091 -1360 0
-1943 -2212 0
-2795 -3064 0
-244 -666 0
-1096 -1518 0
-1948 -2370 0
-2800 -3222 0
-293 -723 0
-1145 -1575 0
-1997 -2427 0
-2849 -3279 0
-297 -452 0
-1149 -1304 0
-2001 -2156 0
-2853 -3008 0
-301 -417 0
-1153 -1269 0
-2005 -2121 0
-2857 -2973 0
-311 -657 0
-1163 -1509 0
-2015 -2361 0
-2867 -3213 0
-322 -350 0
-1174 -1202 0
-2026 -2054 0
-2878 -2906 0
-331 -340 0
-1183 -1192 0
-2035 -2044 0
-2887 -2896 0
-333 -587 0
-1185 -1439 0
-2037 -2291 0
-2889 -3143 0
-345 -448 0
-1197 -1300 0
-2049 -2152 0
-2901 -3004 0
-346 -421 0
-1198 -1273 0
-2050 -2125 0
-2902 -2977 0
-351 -826 0
-1203 -1678 0
-2055 -2530 0
-2907 -3382 0
-355 -520 0
-1207 -1372 0
-2059 -2224 0
-2911 -3076 0
-369 -590 0
-1221 -1442 0
-2073 -2294 0
-2925 -3146 0
-370 -439 0
-1222 -1291 0
-2074 -2143 0
-2926 -2995 0
-433 -605 0
-1285 -1457 0
-2137 -2309 0
-2989 -3161 0
-435 -480 0
-1287 -1332 0
-2139 -2184 0
-2991 -3036 0
-474 -573 0
-1326 -1425 0
-2178 -2277 0
-3030 -3129 0
-486 -660 0
-1338 -1512 0
-2190 -2364 0
-3042 -3216 0
-493 -784 0
-1345 -1636 0
-2197 -2488 0
-3049 -3340 0
-497 -818 0
-1349 -1670 0
-2201 -2522 0
-3053 -3374 0
-545 -837 0
-1397 -1689 0
-2249 -2541 0
-3101 -3393 0
-547 -685 0
-1399 -1537 0
-2251 -2389 0
-3103 -3241 0
-592 -686 0
-1444 -1538 0
-2296 -2390 0
-3148 -3242 0
-621 -811 0
-1473 -1663 0
-2325 -2515 0
-3177 -3367 0
-637 -703 0
-1489 -1555 0
-2341 -2407 0
-3193 -3259 0
-644 -816 0
-1496 -1668 0
-2348 -2520 0
-3200 -3372 0
-708 -760 0
-1560 -1612 0
-2412 -2464 0
-3264 -3316 0
-741 -764 0
-1593 -1616 0
-2445 -2468 0
-3297 -3320 0
-1 -565 0
-853 -1417 0
-1705 -2269 0
-2557 -3121 0
-4 -25 0
-856 -877 0
-1708 -1729 0
-2560 -2581 0
-7 -136 0
-859 -988 0
-1711 -1840 0
-2563 -2692 0
-10 -819 0
-862 -1671 0
-1714 -2523 0
-2566 -3375 0
-27 -491 0
-879 -1343 0
-1731 -2195 0
-2583 -3047 0
-38 -579 0
-890 -1431 0
-1742 -2283 0
-2594 -3135 0
-55 -753 0
-907 -1605 0
-1759 -2457 0
-2611 -3309 0
-71 -730 0
-923 -1582 0
-1775 -2434 0
-2627 -3286 0
-74 -151 0
-926 -1003 0
-1778 -1855 0
-2630 -2707 0
-100 -603 0
-952 -1455 0
-1804 -2307 0
-2656 -3159 0
-102 -423 0
-954 -1275 0
-1806 -2127 0
-2658 -2979 0
-113 -785 0
-965 -1637 0
-1817 -2489 0
-2669 -3341 0
-114 -701 0
-966 -1553 0
-1818 -2405 0
-2670 -3257 0
-133 -543 0
-985 -1395 0
-1837 -2247 0
-2689 -3099 0
-139 -677 0
-991 -1529 0
-1843 -2381 0
-2695 -3233 0
-147 -810 0
-999 -1662 0
-1851 -2514 0
-2703 -3366 0
-227 -254 0
-1079 -1106 0
-1931 -1958 0
-2783 -2810 0
-249 -502 0
-1101 -1354 0
-1953 -2206 0
-2805 -3058 0
-253 -537 0
-1105 -1389 0
-1957 -2241 0
-2809 -3093 0
-257 -312 0
-1109 -1164 0
-1961 -2016 0
-2813 -2868 0
-263 -517 0
-1115 -1369 0
-1967 -2221 0
-2819 -3073 0
-271 -528 0
-1123 -1380 0
-1975 -2232 0
-2827 -3084 0
-276 -764 0
-1128 -1616 0
-1980 -2468 0
-2832 -3320 0
-284 -820 0
-1136 -1672 0
-1988 -2524 0
-2840 -3376 0
-285 -698 0
-1137 -1550 0
-1989 -2402 0
-2841 -3254 0
-297 -708 0
-1149 -1560 0
-2001 -2412 0
-2853 -3264 0
-301 -369 0
-1153 -1221 0
-2005 -2073 0
-2857 -2925 0
-318 -342 0
-1170 -1194 0
-2022 -2046 0
-2874 -2898 0
-354 -442 0
-1206 -1294 0
-2058 -2146 0
-2910 -2998 0
-383 -392 0
-1235 -1244 0
-2087 -2096 0
-2939 -2948 0
-384 -741 0
-1236 -1593 0
-2088 -2445 0
-2940 -3297 0
-393 -748 0
-1245 -1600 0
-2097 -2452 0
-2949 -3304 0
-402 -500 0
-1254 -1352 0
-2106 -2204 0
-2958 -3056 0
-412 -574 0
-1264 -1426 0
-2116 -2278 0
-2968 -3130 0
-417 -590 0
-1269 -1442 0
-2121 -2294 0
-2973 -3146 0
-451 -758 0
-1303 -1610 0
-2155 -2462 0
-3007 -3314 0
-452 -760 0
-1304 -1612 0
-2156 -2464 0
-3008 -3316 0
-479 -781 0
-1331 -1633 0
-2183 -2485 0
-3035 -3337 0
-506 -832 0
-1358 -1684 0
-2210 -2536 0
-3062 -3388 0
-513 -745 0
-1365 -1597 0
-2217 -2449 0
-3069 -3301 0
-614 -721 0
-1466 -1573 0
-2318 -2425 0
-3170 -3277 0
-618 -678 0
-1470 -1530 0
-2322 -2382 0
-3174 -3234 0
-3 -59 0
-855 -911 0
-1707 -1763 0
-2559 -2615 0
-4 -187 0
-856 -1039 0
-1708 -1891 0
-2560 -2743 0
-6 -824 0
-858 -1676 0
-1710 -2528 0
-2562 -3380 0
-8 -210 0
-860 -1062 0
-1712 -1914 0
-2564 -2766 0
-9 -606 0
-861 -1458 0
-1713 -2310 0
-2565 -3162 0
-13 -66 0
-865 -918 0
-1717 -1770 0
-2569 -2622 0
-14 -15 0
-866 -867 0
-1718 -1719 0
-2570 -2571 0
-18 -77 0
-870 -929 0
-1722 -1781 0
-2574 -2633 0
-22 -183 0
-874 -1035 0
-1726 -1887 0
-2578 -2739 0
-25 -146 0
-877 -998 0
-1729 -1850 0
-2581 -2702 0
-32 -33 0
-884 -885 0
-1736 -1737 0
-2588 -2589 0
-43 -286 0
-895 -1138 0
-1747 -1990 0
-2599 -2842 0
-45 -360 0
-897 -1212 0
-1749 -2064 0
-2601 -2916 0
-48 -296 0
-900 -1148 0
-1752 -2000 0
-2604 -2852 0
-56 -645 0
-908 -1497 0
-1760 -2349 0
-2612 -3201 0
-65 -168 0
-917 -1020 0
-1769 -1872 0
-2621 -2724 0
-67 -141 0
-919 -993 0
-1771 -1845 0
-2623 -2697 0
-72 -817 0
-924 -1669 0
-1776 -2521 0
-2628 -3373 0
-78 -457 0
-930 -1309 0
-1782 -2161 0
-2634 -3013 0
-81 -275 0
-933 -1127 0
-1785 -1979 0
-2637 -2831 0
-92 -98 0
-944 -950 0
-1796 -1802 0
-2648 -2654 0
-112 -140 0
-964 -992 0
-1816 -1844 0
-2668 -2696 0
-120 -570 0
-972 -1422 0
-1824 -2274 0
-2676 -3126 0
-123 -248 0
-975 -1100 0
-1827 -1952 0
-2679 -2804 0
-125 -199 0
-977 -1051 0
-1829 -1903 0
-2681 -2755 0
-160 -317 0
-1012 -1169 0
-1864 -2021 0
-2716 -2873 0
-200 -268 0
-1052 -1120 0
-1904 -1972 0
-2756 -2824 0
-209 -687 0
-1061 -1539 0
-1913 -2391 0
-2765 -3243 0
-227 -752 0
-1079 -1604 0
-1931 -2456 0
-2783 -3308 0
-254 -633 0
-1106 -1485 0
-1958 -2337 0
-2810 -3189 0
-267 -564 0
-1119 -1416 0
-1971 -2268 0
-2823 -3120 0
-279 -581 0
-1131 -1433 0
-1983 -2285 0
-2835 -3137 0
-293 -746 0
-1145 -1598 0
-1997 -2450 0
-2849 -3302 0
-311 -425 0
-1163 -1277 0
-2015 -2129 0
-2867 -2981 0
-353 -472 0
-1205 -1324 0
-2057 -2176 0
-2909 -3028 0
-358 -484 0
-1210 -1336 0
-2062 -2188 0
-2914 -3040 0
-374 -380 0
-1226 -1232 0
-2078 -2084 0
-2930 -2936 0
-509 -653 0
-1361 -1505 0
-2213 -2357 0
-3065 -3209 0
-521 -840 0
-1373 -1692 0
-2225 -2544 0
-3077 -3396 0
-583 -693 0
-1435 -1545 0
-2287 -2397 0
-3139 -3249 0
-641 -754 0
-1493 -1606 0
-2345 -2458 0
-3197 -3310 0
-646 -651 0
-1498 -1503 0
-2350 -2355 0
-3202 -3207 0
-656 -732 0
-1508 -1584 0
-2360 -2436 0
-3212 -3288 0
-662 -789 0
-1514 -1641 0
-2366 -2493 0
-3218 -3345 0
-708 -743 0
-1560 -1595 0
-2412 -2447 0
-3264 -3299 0
-4 -139 0
-856 -991 0
-1708 -1843 0
-2560 -2695 0
-7 -236 0
-859 -1088 0
-1711 -1940 0
-2563 -2792 0
-10 -705 0
-862 -1557 0
-1714 -2409 0
-2566 -3261 0
-22 -403 0
-874 -1255 0
-1726 -2107 0
-2578 -2959 0
-23 -450 0
-875 -1302 0
-1727 -2154 0
-2579 -3006 0
-25 -677 0
-877 -1529 0
-1729 -2381 0
-2581 -3233 0
-33 -344 0
-885 -1196 0
-1737 -2048 0
-2589 -2900 0
-35 -573 0
-887 -1425 0
-1739 -2277 0
-2591 -3129 0
-39 -375 0
-891 -1227 0
-1743 -2079 0
-2595 -2931 0
-50 -69 0
-902 -921 0
-1754 -1773 0
-2606 -2625 0
-55 -90 0
-907 -942 0
-1759 -1794 0
-2611 -2646 0
-61 -79 0
-913 -931 0
-1765 -1783 0
-2617 -2635 0
-73 -132 0
-925 -984 0
-1777 -1836 0
-2629 -2688 0
-75 -762 0
-927 -1614 0
-1779 -2466 0
-2631 -3318 0
-80 -104 0
-932 -956 0
-1784 -1808 0
-2636 -2660 0
-92 -159 0
-944 -1011 0
-1796 -1863 0
-2648 -2715 0
-112 -392 0
-964 -1244 0
-1816 -2096 0
-2668 -2948 0
-120 -385 0
-972 -1237 0
-1824 -2089 0
-2676 -2941 0
-121 -833 0
-973 -1685 0
-1825 -2537 0
-2677 -3389 0
-127 -596 0
-979 -1448 0
-1831 -2300 0
-2683 -3152 0
-141 -210 0
-993 -1062 0
-1845 -1914 0
-2697 -2766 0
-145 -287 0
-997 -1139 0
-1849 -1991 0
-2701 -2843 0
-155 -439 0
-1007 -1291 0
-1859 -2143 0
-2711 -2995 0
-157 -563 0
-1009 -1415 0
-1861 -2267 0
-2713 -3119 0
-161 -195 0
-1013 -1047 0
-1865 -1899 0
-2717 -2751 0
-163 -186 0
-1015 -1038 0
-1867 -1890 0
-2719 -2742 0
-164 -298 0
-1016 -1150 0
-1868 -2002 0
-2720 -2854 0
-168 -286 0
-1020 -1138 0
-1872 -1990 0
-2724 -2842 0
-171 -516 0
-1023 -1368 0
-1875 -2220 0
-2727 -3072 0
-175 -226 0
-1027 -1078 0
-1879 -1930 0
-2731 -2782 0
-177 -388 0
-1029 -1240 0
-1881 -2092 0
-2733 -2944 0
-185 -462 0
-1037 -1314 0
-1889 -2166 0
-2741 -3018 0
-188 -723 0
-1040 -1575 0
-1892 -2427 0
-2744 -3279 0
-213 -673 0
-1065 -1525 0
-1917 -2377 0
-2769 -3229 0
-214 -407 0
-1066 -1259 0
-1918 -2111 0
-2770 -2963 0
-229 -511 0
-1081 -1363 0
-1933 -2215 0
-2785 -3067 0
-231 -456 0
-1083 -1308 0
-1935 -2160 0
-2787 -3012 0
-239 -274 0
-1091 -1126 0
-1943 -1978 0
-2795 -2830 0
-256 -293 0
-1108 -1145 0
-1960 -1997 0
-2812 -2849 0
-257 -686 0
-1109 -1538 0
-1961 -2390 0
-2813 -3242 0
-262 -416 0
-1114 -1268 0
-1966 -2120 0
-2818 -2972 0
-267 -729 0
-1119 -1581 0
-1971 -2433 0
-2823 -3285 0
-290 -316 0
-1142 -1168 0
-1994 -2020 0
-2846 -2872 0
-302 -357 0
-1154 -1209 0
-2006 -2061 0
-2858 -2913 0
-303 -361 0
-1155 -1213 0
-2007 -2065 0
-2859 -2917 0
-305 -350 0
-1157 -1202 0
-2009 -2054 0
-2861 -2906 0
-313 -340 0
-1165 -1192 0
-2017 -2044 0
-2869 -2896 0
-333 -405 0
-1185 -1257 0
-2037 -2109 0
-2889 -2961 0
-334 -489 0
-1186 -1341 0
-2038 -2193 0
-2890 -3045 0
-338 -599 0
-1190 -1451 0
-2042 -2303 0
-2894 -3155 0
-342 -771 0
-1194 -1623 0
-2046 -2475 0
-2898 -3327 0
-373 -796 0
-1225 -1648 0
-2077 -2500 0
-2929 -3352 0
-436 -488 0
-1288 -1340 0
-2140 -2192 0
-2992 -3044 0
-437 -474 0
-1289 -1326 0
-2141 -2178 0
-2993 -3030 0
-438 -763 0
-1290 -1615 0
-2142 -2467 0
-2994 -3319 0
-453 -592 0
-1305 -1444 0
-2157 -2296 0
-3009 -3148 0
-479 -795 0
-1331 -1647 0
-2183 -2499 0
-3035 -3351 0
-485 -524 0
-1337 -1376 0
-2189 -2228 0
-3041 -3080 0
-486 -526 0
-1338 -1378 0
-2190 -2230 0
-3042 -3082 0
-503 -713 0
-1355 -1565 0
-2207 -2417 0
-3059 -3269 0
-523 -647 0
-1375 -1499 0
-2227 -2351 0
-3079 -3203 0
-552 -594 0
-1404 -1446 0
-2256 -2298 0
-3108 -3150 0
-595 -608 0
-1447 -1460 0
-2299 -2312 0
-3151 -3164 0
-682 -700 0
-1534 -1552 0
-2386 -2404 0
-3238 -3256 0
-737 -793 0
-1589 -1645 0
-2441 -2497 0
-3293 -3349 0
-765 -807 0
-1617 -1659 0
-2469 -2511 0
-3321 -3363 0
-3 -343 0
-855 -1195 0
-1707 -2047 0
-2559 -2899 0
-4 -213 0
-856 -1065 0
-1708 -1917 0
-2560 -2769 0
-7 -335 0
-859 -1187 0
-1711 -2039 0
-2563 -2891 0
-8 -779 0
-860 -1631 0
-1712 -2483 0
-2564 -3335 0
-10 -39 0
-862 -891 0
-1714 -1743 0
-2566 -2595 0
-11 -44 0
-863 -896 0
-1715 -1748 0
-2567 -2600 0
-15 -454 0
-867 -1306 0
-1719 -2158 0
-2571 -3010 0
-16 -42 0
-868 -894 0
-1720 -1746 0
-2572 -2598 0
-17 -431 0
-869 -1283 0
-1721 -2135 0
-2573 -2987 0
-22 -97 0
-874 -949 0
-1726 -1801 0
-2578 -2653 0
-26 -76 0
-878 -928 0
-1730 -1780 0
-2582 -2632 0
-30 -326 0
-882 -1178 0
-1734 -2030 0
-2586 -2882 0
-51 -198 0
-903 -1050 0
-1755 -1902 0
-2607 -2754 0
-59 -212 0
-911 -1064 0
-1763 -1916 0
-2615 -2768 0
-62 -664 0
-914 -1516 0
-1766 -2368 0
-2618 -3220 0
-63 -109 0
-915 -961 0
-1767 -1813 0
-2619 -2665 0
-71 -100 0
-923 -952 0
-1775 -1804 0
-2627 -2656 0
-82 -101 0
-934 -953 0
-1786 -1805 0
-2638 -2657 0
-102 -133 0
-954 -985 0
-1806 -1837 0
-2658 -2689 0
-106 -791 0
-958 -1643 0
-1810 -2495 0
-2662 -3347 0
-118 -207 0
-970 -1059 0
-1822 -1911 0
-2674 -2763 0
-119 -616 0
-971 -1468 0
-1823 -2320 0
-2675 -3172 0
-122 -315 0
-974 -1167 0
-1826 -2019 0
-2678 -2871 0
-126 -190 0
-978 -1042 0
-1830 -1894 0
-2682 -2746 0
-132 -413 0
-984 -1265 0
-1836 -2117 0
-2688 -2969 0
-139 -673 0
-991 -1525 0
-1843 -2377 0
-2695 -3229 0
-143 -610 0
-995 -1462 0
-1847 -2314 0
-2699 -3166 0
-158 -204 0
-1010 -1056 0
-1862 -1908 0
-2714 -2760 0
-169 -221 0
-1021 -1073 0
-1873 -1925 0
-2725 -2777 0
-176 -224 0
-1028 -1076 0
-1880 -1928 0
-2732 -2780 0
-181 -544 0
-1033 -1396 0
-1885 -2248 0
-2737 -3100 0
-192 -217 0
-1044 -1069 0
-1896 -1921 0
-2748 -2773 0
-196 -672 0
-1048 -1524 0
-1900 -2376 0
-2752 -3228 0
-214 -497 0
-1066 -1349 0
-1918 -2201 0
-2770 -3053 0
-230 -722 0
-1082 -1574 0
-1934 -2426 0
-2786 -3278 0
-242 -539 0
-1094 -1391 0
-1946 -2243 0
-2798 -3095 0
-247 -837 0
-1099 -1689 0
-1951 -2541 0
-2803 -3393 0
-258 -545 0
-1110 -1397 0
-1962 -2249 0
-2814 -3101 0
-263 -266 0
-1115 -1118 0
-1967 -1970 0
-2819 -2822 0
-284 -712 0
-1136 -1564 0
-1988 -2416 0
-2840 -3268 0
-287 -541 0
-1139 -1393 0
-1991 -2245 0
-2843 -3097 0
-293 -690 0
-1145 -1542 0
-1997 -2394 0
-2849 -3246 0
-299 -770 0
-1151 -1622 0
-2003 -2474 0
-2855 -3326 0
-318 -412 0
-1170 -1264 0
-2022 -2116 0
-2874 -2968 0
-340 -449 0
-1192 -1301 0
-2044 -2153 0
-2896 -3005 0
-342 -574 0
-1194 -1426 0
-2046 -2278 0
-2898 -3130 0
-351 -659 0
-1203 -1511 0
-2055 -2363 0
-2907 -3215 0
-369 -502 0
-1221 -1354 0
-2073 -2206 0
-2925 -3058 0
-374 -487 0
-1226 -1339 0
-2078 -2191 0
-2930 -3043 0
-380 -397 0
-1232 -1249 0
-2084 -2101 0
-2936 -2953 0
-407 -432 0
-1259 -1284 0
-2111 -2136 0
-2963 -2988 0
-416 -575 0
-1268 -1427 0
-2120 -2279 0
-2972 -3131 0
-423 -543 0
-1275 -1395 0
-2127 -2247 0
-2979 -3099 0
-429 -527 0
-1281 -1379 0
-2133 -2231 0
-2985 -3083 0
-436 -538 0
-1288 -1390 0
-2140 -2242 0
-2992 -3094 0
-451 -499 0
-1303 -1351 0
-2155 -2203 0
-3007 -3055 0
-460 -720 0
-1312 -1572 0
-2164 -2424 0
-3016 -3276 0
-503 -595 0
-1355 -1447 0
-2207 -2299 0
-3059 -3151 0
-507 -585 0
-1359 -1437 0
-2211 -2289 0
-3063 -3141 0
-553 -566 0
-1405 -1418 0
-2257 -2270 0
-3109 -3122 0
-636 -783 0
-1488 -1635 0
-2340 -2487 0
-3192 -3339 0
-749 -852 0
-1601 -1704 0
-2453 -2556 0
-3305 -3408 0
-1 -292 0
-853 -1144 0
-1705 -1996 0
-2557 -2848 0
-9 -35 0
-861 -887 0
-1713 -1739 0
-2565 -2591 0
-22 -127 0
-874 -979 0
-1726 -1831 0
-2578 -2683 0
-32 -134 0
-884 -986 0
-1736 -1838 0
-2588 -2690 0
-37 -373 0
-889 -1225 0
-1741 -2077 0
-2593 -2929 0
-45 -660 0
-897 -1512 0
-1749 -2364 0
-2601 -3216 0
-58 -98 0
-910 -950 0
-1762 -1802 0
-2614 -2654 0
-64 -448 0
-916 -1300 0
-1768 -2152 0
-2620 -3004 0
-74 -709 0
-926 -1561 0
-1778 -2413 0
-2630 -3265 0
-78 -811 0
-930 -1663 0
-1782 -2515 0
-2634 -3367 0
-87 -208 0
-939 -1060 0
-1791 -1912 0
-2643 -2764 0
-105 -556 0
-957 -1408 0
-1809 -2260 0
-2661 -3112 0
-133 -778 0
-985 -1630 0
-1837 -2482 0
-2689 -3334 0
-135 -390 0
-987 -1242 0
-1839 -2094 0
-2691 -2946 0
-180 -325 0
-1032 -1177 0
-1884 -2029 0
-2736 -2881 0
-192 -740 0
-1044 -1592 0
-1896 -2444 0
-2748 -3296 0
-203 -515 0
-1055 -1367 0
-1907 -2219 0
-2759 -3071 0
-233 -736 0
-1085 -1588 0
-1937 -2440 0
-2789 -3292 0
-234 -847 0
-1086 -1699 0
-1938 -2551 0
-2790 -3403 0
-251 -577 0
-1103 -1429 0
-1955 -2281 0
-2807 -3133 0
-269 -567 0
-1121 -1419 0
-1973 -2271 0
-2825 -3123 0
-279 -557 0
-1131 -1409 0
-1983 -2261 0
-2835 -3113 0
-339 -540 0
-1191 -1392 0
-2043 -2244 0
-2895 -3096 0
-359 -589 0
-1211 -1441 0
-2063 -2293 0
-2915 -3145 0
-369 -636 0
-1221 -1488 0
-2073 -2340 0
-2925 -3192 0
-370 -645 0
-1222 -1497 0
-2074 -2349 0
-2926 -3201 0
-391 -473 0
-1243 -1325 0
-2095 -2177 0
-2947 -3029 0
-403 -596 0
-1255 -1448 0
-2107 -2300 0
-2959 -3152 0
-423 -733 0
-1275 -1585 0
-2127 -2437 0
-2979 -3289 0
-435 -461 0
-1287 -1313 0
-2139 -2165 0
-2991 -3017 0
-502 -783 0
-1354 -1635 0
-2206 -2487 0
-3058 -3339 0
-525 -665 0
-1377 -1517 0
-2229 -2369 0
-3081 -3221 0
-559 -725 0
-1411 -1577 0
-2263 -2429 0
-3115 -3281 0
-624 -654 0
-1476 -1506 0
-2328 -2358 0
-3180 -3210 0
-627 -663 0
-1479 -1515 0
-2331 -2367 0
-3183 -3219 0
-643 -840 0
-1495 -1692 0
-2347 -2544 0
-3199 -3396 0
-720 -818 0
-1572 -1670 0
-2424 -2522 0
-3276 -3374 0
-724 -777 0
-1576 -1629 0
-2428 -2481 0
-3280 -3333 0
-739 -808 0
-1591 -1660 0
-2443 -2512 0
-3295 -3364 0
-3 -492 0
-855 -1344 0
-1707 -2196 0
-2559 -3048 0
-10 -639 0
-862 -1491 0
-1714 -2343 0
-2566 -3195 0
-23 -24 0
-875 -876 0
-1727 -1728 0
-2579 -2580 0
-28 -29 0
-880 -881 0
-1732 -1733 0
-2584 -2585 0
-38 -142 0
-890 -994 0
-1742 -1846 0
-2594 -2698 0
-39 -68 0
-891 -920 0
-1743 -1772 0
-2595 -2624 0
-50 -349 0
-902 -1201 0
-1754 -2053 0
-2606 -2905 0
-61 -550 0
-913 -1402 0
-1765 -2254 0
-2617 -3106 0
-63 -223 0
-915 -1075 0
-1767 -1927 0
-2619 -2779 0
-86 -793 0
-938 -1645 0
-1790 -2497 0
-2642 -3349 0
-100 -234 0
-952 -1086 0
-1804 -1938 0
-2656 -2790 0
-102 -119 0
-954 -971 0
-1806 -1823 0
-2658 -2675 0
-126 -415 0
-978 -1267 0
-1830 -2119 0
-2682 -2971 0
-130 -314 0
-982 -1166 0
-1834 -2018 0
-2686 -2870 0
-133 -616 0
-985 -1468 0
-1837 -2320 0
-2689 -3172 0
-145 -161 0
-997 -1013 0
-1849 -1865 0
-2701 -2717 0
-176 -203 0
-1028 -1055 0
-1880 -1907 0
-2732 -2759 0
-177 -231 0
-1029 -1083 0
-1881 -1935 0
-2733 -2787 0
-215 -394 0
-1067 -1246 0
-1919 -2098 0
-2771 -2950 0
-218 -643 0
-1070 -1495 0
-1922 -2347 0
-2774 -3199 0
-222 -737 0
-1074 -1589 0
-1926 -2441 0
-2778 -3293 0
-242 -704 0
-1094 -1556 0
-1946 -2408 0
-2798 -3260 0
-248 -360 0
-1100 -1212 0
-1952 -2064 0
-2804 -2916 0
-255 -615 0
-1107 -1467 0
-1959 -2319 0
-2811 -3171 0
-275 -286 0
-1127 -1138 0
-1979 -1990 0
-2831 -2842 0
-292 -328 0
-1144 -1180 0
-1996 -2032 0
-2848 -2884 0
-299 -759 0
-1151 -1611 0
-2003 -2463 0
-2855 -3315 0
-317 -457 0
-1169 -1309 0
-2021 -2161 0
-2873 -3013 0
-324 -408 0
-1176 -1260 0
-2028 -2112 0
-2880 -2964 0
-353 -768 0
-1205 -1620 0
-2057 -2472 0
-2909 -3324 0
-366 -841 0
-1218 -1693 0
-2070 -2545 0
-2922 -3397 0
-388 -456 0
-1240 -1308 0
-2092 -2160 0
-2944 -3012 0
-510 -525 0
-1362 -1377 0
-2214 -2229 0
-3066 -3081 0
-654 -788 0
-1506 -1640 0
-2358 -2492 0
-3210 -3344 0
-712 -838 0
-1564 -1690 0
-2416 -2542 0
-3268 -3394 0
-725 -764 0
-1577 -1616 0
-2429 -2468 0
-3281 -3320 0
-3 -699 0
-855 -1551 0
-1707 -2403 0
-2559 -3255 0
-4 -614 0
-856 -1466 0
-1708 -2318 0
-2560 -3170 0
-7 -566 0
-859 -1418 0
-1711 -2270 0
-2563 -3122 0
-22 -420 0
-874 -1272 0
-1726 -2124 0
-2578 -2976 0
-25 -721 0
-877 -1573 0
-1729 -2425 0
-2581 -3277 0
-26 -34 0
-878 -886 0
-1730 -1738 0
-2582 -2590 0
-27 -204 0
-879 -1056 0
-1731 -1908 0
-2583 -2760 0
-32 -502 0
-884 -1354 0
-1736 -2206 0
-2588 -3058 0
-37 -626 0
-889 -1478 0
-1741 -2330 0
-2593 -3182 0
-38 -712 0
-890 -1564 0
-1742 -2416 0
-2594 -3268 0
-53 -310 0
-905 -1162 0
-1757 -2014 0
-2609 -2866 0
-55 -284 0
-907 -1136 0
-1759 -1988 0
-2611 -2840 0
-56 -294 0
-908 -1146 0
-1760 -1998 0
-2612 -2850 0
-70 -356 0
-922 -1208 0
-1774 -2060 0
-2626 -2912 0
-82 -116 0
-934 -968 0
-1786 -1820 0
-2638 -2672 0
-87 -225 0
-939 -1077 0
-1791 -1929 0
-2643 -2781 0
-89 -212 0
-941 -1064 0
-1793 -1916 0
-2645 -2768 0
-90 -158 0
-942 -1010 0
-1794 -1862 0
-2646 -2714 0
-93 -584 0
-945 -1436 0
-1797 -2288 0
-2649 -3140 0
-112 -399 0
-964 -1251 0
-1816 -2103 0
-2668 -2955 0
-113 -609 0
-965 -1461 0
-1817 -2313 0
-2669 -3165 0
-131 -511 0
-983 -1363 0
-1835 -2215 0
-2687 -3067 0
-134 -783 0
-986 -1635 0
-1838 -2487 0
-2690 -3339 0
-137 -229 0
-989 -1081 0
-1841 -1933 0
-2693 -2785 0
-142 -838 0
-994 -1690 0
-1846 -2542 0
-2698 -3394 0
-144 -726 0
-996 -1578 0
-1848 -2430 0
-2700 -3282 0
-155 -199 0
-1007 -1051 0
-1859 -1903 0
-2711 -2755 0
-164 -538 0
-1016 -1390 0
-1868 -2242 0
-2720 -3094 0
-171 -585 0
-1023 -1437 0
-1875 -2289 0
-2727 -3141 0
-173 -687 0
-1025 -1539 0
-1877 -2391 0
-2729 -3243 0
-176 -593 0
-1028 -1445 0
-1880 -2297 0
-2732 -3149 0
-192 -273 0
-1044 -1125 0
-1896 -1977 0
-2748 -2829 0
-194 -543 0
-1046 -1395 0
-1898 -2247 0
-2750 -3099 0
-227 -551 0
-1079 -1403 0
-1931 -2255 0
-2783 -3107 0
-231 -691 0
-1083 -1543 0
-1935 -2395 0
-2787 -3247 0
-240 -563 0
-1092 -1415 0
-1944 -2267 0
-2796 -3119 0
-242 -324 0
-1094 -1176 0
-1946 -2028 0
-2798 -2880 0
-247 -393 0
-1099 -1245 0
-1951 -2097 0
-2803 -2949 0
-264 -574 0
-1116 -1426 0
-1968 -2278 0
-2820 -3130 0
-280 -471 0
-1132 -1323 0
-1984 -2175 0
-2836 -3027 0
-287 -450 0
-1139 -1302 0
-1991 -2154 0
-2843 -3006 0
-298 -467 0
-1150 -1319 0
-2002 -2171 0
-2854 -3023 0
-306 -631 0
-1158 -1483 0
-2010 -2335 0
-2862 -3187 0
-309 -618 0
-1161 -1470 0
-2013 -2322 0
-2865 -3174 0
-322 -606 0
-1174 -1458 0
-2026 -2310 0
-2878 -3162 0
-329 -663 0
-1181 -1515 0
-2033 -2367 0
-2885 -3219 0
-334 -342 0
-1186 -1194 0
-2038 -2046 0
-2890 -2898 0
-337 -432 0
-1189 -1284 0
-2041 -2136 0
-2893 -2988 0
-346 -433 0
-1198 -1285 0
-2050 -2137 0
-2902 -2989 0
-351 -425 0
-1203 -1277 0
-2055 -2129 0
-2907 -2981 0
-363 -507 0
-1215 -1359 0
-2067 -2211 0
-2919 -3063 0
-364 -470 0
-1216 -1322 0
-2068 -2174 0
-2920 -3026 0
-366 -649 0
-1218 -1501 0
-2070 -2353 0
-2922 -3205 0
-382 -700 0
-1234 -1552 0
-2086 -2404 0
-2938 -3256 0
-421 -605 0
-1273 -1457 0
-2125 -2309 0
-2977 -3161 0
-446 -476 0
-1298 -1328 0
-2150 -2180 0
-3002 -3032 0
-453 -827 0
-1305 -1679 0
-2157 -2531 0
-3009 -3383 0
-473 -778 0
-1325 -1630 0
-2177 -2482 0
-3029 -3334 0
-489 -771 0
-1341 -1623 0
-2193 -2475 0
-3045 -3327 0
-503 -832 0
-1355 -1684 0
-2207 -2536 0
-3059 -3388 0
-555 -743 0
-1407 -1595 0
-2259 -2447 0
-3111 -3299 0
-560 -580 0
-1412 -1432 0
-2264 -2284 0
-3116 -3136 0
-753 -820 0
-1605 -1672 0
-2457 -2524 0
-3309 -3376 0
-790 -810 0
-1642 -1662 0
-2494 -2514 0
-3346 -3366 0
-804 -849 0
-1656 -1701 0
-2508 -2553 0
-3360 -3405 0
-3 -176 0
-855 -1028 0
-1707 -1880 0
-2559 -2732 0
-4 -7 0
-856 -859 0
-1708 -1711 0
-2560 -2563 0
-8 -293 0
-860 -1145 0
-1712 -1997 0
-2564 -2849 0
-10 -630 0
-862 -1482 0
-1714 -2334 0
-2566 -3186 0
-11 -468 0
-863 -1320 0
-1715 -2172 0
-2567 -3024 0
-12 -166 0
-864 -1018 0
-1716 -1870 0
-2568 -2722 0
-16 -85 0
-868 -937 0
-1720 -1789 0
-2572 -2641 0
-22 -87 0
-874 -939 0
-1726 -1791 0
-2578 -2643 0
-25 -136 0
-877 -988 0
-1729 -1840 0
-2581 -2692 0
-32 -194 0
-884 -1046 0
-1736 -1898 0
-2588 -2750 0
-36 -40 0
-888 -892 0
-1740 -1744 0
-2592 -2596 0
-43 -138 0
-895 -990 0
-1747 -1842 0
-2599 -2694 0
-50 -397 0
-902 -1249 0
-1754 -2101 0
-2606 -2953 0
-53 -298 0
-905 -1150 0
-1757 -2002 0
-2609 -2854 0
-62 -564 0
-914 -1416 0
-1766 -2268 0
-2618 -3120 0
-65 -264 0
-917 -1116 0
-1769 -1968 0
-2621 -2820 0
-67 -256 0
-919 -1108 0
-1771 -1960 0
-2623 -2812 0
-72 -182 0
-924 -1034 0
-1776 -1886 0
-2628 -2738 0
-92 -188 0
-944 -1040 0
-1796 -1892 0
-2648 -2744 0
-96 -315 0
-948 -1167 0
-1800 -2019 0
-2652 -2871 0
-106 -201 0
-958 -1053 0
-1810 -1905 0
-2662 -2757 0
-107 -153 0
-959 -1005 0
-1811 -1857 0
-2663 -2709 0
-108 -202 0
-960 -1054 0
-1812 -1906 0
-2664 -2758 0
-110 -184 0
-962 -1036 0
-1814 -1888 0
-2666 -2740 0
-111 -444 0
-963 -1296 0
-1815 -2148 0
-2667 -3000 0
-112 -291 0
-964 -1143 0
-1816 -1995 0
-2668 -2847 0
-121 -171 0
-973 -1023 0
-1825 -1875 0
-2677 -2727 0
-127 -208 0
-979 -1060 0
-1831 -1912 0
-2683 -2764 0
-131 -489 0
-983 -1341 0
-1835 -2193 0
-2687 -3045 0
-135 -151 0
-987 -1003 0
-1839 -1855 0
-2691 -2707 0
-137 -334 0
-989 -1186 0
-1841 -2038 0
-2693 -2890 0
-139 -236 0
-991 -1088 0
-1843 -1940 0
-2695 -2792 0
-144 -164 0
-996 -1016 0
-1848 -1868 0
-2700 -2720 0
-159 -723 0
-1011 -1575 0
-1863 -2427 0
-2715 -3279 0
-167 -319 0
-1019 -1171 0
-1871 -2023 0
-2723 -2875 0
-179 -268 0
-1031 -1120 0
-1883 -1972 0
-2735 -2824 0
-191 -282 0
-1043 -1134 0
-1895 -1986 0
-2747 -2838 0
-197 -200 0
-1049 -1052 0
-1901 -1904 0
-2753 -2756 0
-205 -633 0
-1057 -1485 0
-1909 -2337 0
-2761 -3189 0
-209 -631 0
-1061 -1483 0
-1913 -2335 0
-2765 -3187 0
-210 -746 0
-1062 -1598 0
-1914 -2450 0
-2766 -3302 0
-213 -335 0
-1065 -1187 0
-1917 -2039 0
-2769 -2891 0
-215 -248 0
-1067 -1100 0
-1919 -1952 0
-2771 -2804 0
-229 -342 0
-1081 -1194 0
-1933 -2046 0
-2785 -2898 0
-257 -306 0
-1109 -1158 0
-1961 -2010 0
-2813 -2862 0
-285 -434 0
-1137 -1286 0
-1989 -2138 0
-2841 -2990 0
-310 -467 0
-1162 -1319 0
-2014 -2171 0
-2866 -3023 0
-330 -487 0
-1182 -1339 0
-2034 -2191 0
-2886 -3043 0
-333 -380 0
-1185 -1232 0
-2037 -2084 0
-2889 -2936 0
-340 -416 0
-1192 -1268 0
-2044 -2120 0
-2896 -2972 0
-353 -714 0
-1205 -1566 0
-2057 -2418 0
-2909 -3270 0
-357 -729 0
-1209 -1581 0
-2061 -2433 0
-2913 -3285 0
-369 -423 0
-1221 -1275 0
-2073 -2127 0
-2925 -2979 0
-389 -400 0
-1241 -1252 0
-2093 -2104 0
-2945 -2956 0
-398 -475 0
-1250 -1327 0
-2102 -2179 0
-2954 -3031 0
-402 -582 0
-1254 -1434 0
-2106 -2286 0
-2958 -3138 0
-419 -533 0
-1271 -1385 0
-2123 -2237 0
-2975 -3089 0
-425 -606 0
-1277 -1458 0
-2129 -2310 0
-2981 -3162 0
-428 -653 0
-1280 -1505 0
-2132 -2357 0
-2984 -3209 0
-449 -575 0
-1301 -1427 0
-2153 -2279 0
-3005 -3131 0
-461 -473 0
-1313 -1325 0
-2165 -2177 0
-3017 -3029 0
-498 -576 0
-1350 -1428 0
-2202 -2280 0
-3054 -3132 0
-502 -543 0
-1354 -1395 0
-2206 -2247 0
-3058 -3099 0
-511 -771 0
-1363 -1623 0
-2215 -2475 0
-3067 -3327 0
-619 -625 0
-1471 -1477 0
-2323 -2329 0
-3175 -3181 0
-636 -733 0
-1488 -1585 0
-2340 -2437 0
-3192 -3289 0
-640 -798 0
-1492 -1650 0
-2344 -2502 0
-3196 -3354 0
-765 -830 0
-1617 -1682 0
-2469 -2534 0
-3321 -3386 0
-1 -103 0
-853 -955 0
-1705 -1807 0
-2557 -2659 0
-8 -43 0
-860 -895 0
-1712 -1747 0
-2564 -2599 0
-9 -45 0
-861 -897 0
-1713 -1749 0
-2565 -2601 0
-23 -39 0
-875 -891 0
-1727 -1743 0
-2579 -2595 0
-24 -68 0
-876 -920 0
-1728 -1772 0
-2580 -2624 0
-35 -660 0
-887 -1512 0
-1739 -2364 0
-2591 -3216 0
-38 -837 0
-890 -1689 0
-1742 -2541 0
-2594 -3393 0
-55 -247 0
-907 -1099 0
-1759 -1951 0
-2611 -2803 0
-58 -234 0
-910 -1086 0
-1762 -1938 0
-2614 -2790 0
-59 -602 0
-911 -1454 0
-1763 -2306 0
-2615 -3158 0
-61 -266 0
-913 -1118 0
-1765 -1970 0
-2617 -2822 0
-91 -508 0
-943 -1360 0
-1795 -2212 0
-2647 -3064 0
-96 -213 0
-948 -1065 0
-1800 -1917 0
-2652 -2769 0
-98 -847 0
-950 -1699 0
-1802 -2551 0
-2654 -3403 0
-118 -421 0
-970 -1273 0
-1822 -2125 0
-2674 -2977 0
-120 -554 0
-972 -1406 0
-1824 -2258 0
-2676 -3110 0
-128 -142 0
-980 -994 0
-1832 -1846 0
-2684 -2698 0
-141 -168 0
-993 -1020 0
-1845 -1872 0
-2697 -2724 0
-143 -277 0
-995 -1129 0
-1847 -1981 0
-2699 -2833 0
-145 -156 0
-997 -1008 0
-1849 -1860 0
-2701 -2712 0
-177 -304 0
-1029 -1156 0
-1881 -2008 0
-2733 -2860 0
-192 -446 0
-1044 -1298 0
-1896 -2150 0
-2748 -3002 0
-210 -286 0
-1062 -1138 0
-1914 -1990 0
-2766 -2842 0
-218 -545 0
-1070 -1397 0
-1922 -2249 0
-2774 -3101 0
-256 -264 0
-1108 -1116 0
-1960 -1968 0
-2812 -2820 0
-273 -476 0
-1125 -1328 0
-1977 -2180 0
-2829 -3032 0
-284 -393 0
-1136 -1245 0
-1988 -2097 0
-2840 -2949 0
-311 -615 0
-1163 -1467 0
-2015 -2319 0
-2867 -3171 0
-315 -335 0
-1167 -1187 0
-2019 -2039 0
-2871 -2891 0
-331 -718 0
-1183 -1570 0
-2035 -2422 0
-2887 -3274 0
-333 -377 0
-1185 -1229 0
-2037 -2081 0
-2889 -2933 0
-365 -495 0
-1217 -1347 0
-2069 -2199 0
-2921 -3051 0
-398 -669 0
-1250 -1521 0
-2102 -2373 0
-2954 -3225 0
-437 -486 0
-1289 -1338 0
-2141 -2190 0
-2993 -3042 0
-441 -484 0
-1293 -1336 0
-2145 -2188 0
-2997 -3040 0
-474 -526 0
-1326 -1378 0
-2178 -2230 0
-3030 -3082 0
-507 -745 0
-1359 -1597 0
-2211 -2449 0
-3063 -3301 0
-551 -852 0
-1403 -1704 0
-2255 -2556 0
-3107 -3408 0
-553 -692 0
-1405 -1544 0
-2257 -2396 0
-3109 -3248 0
-627 -792 0
-1479 -1644 0
-2331 -2496 0
-3183 -3348 0
-637 -698 0
-1489 -1550 0
-2341 -2402 0
-3193 -3254 0
-668 -834 0
-1520 -1686 0
-2372 -2538 0
-3224 -3390 0
-684 -749 0
-1536 -1601 0
-2388 -2453 0
-3240 -3305 0
-806 -809 0
-1658 -1661 0
-2510 -2513 0
-3362 -3365 0
-7 -352 0
-859 -1204 0
-1711 -2056 0
-2563 -2908 0
-10 -11 0
-862 -863 0
-1714 -1715 0
-2566 -2567 0
-19 -20 0
-871 -872 0
-1723 -1724 0
-2575 -2576 0
-23 -493 0
-875 -1345 0
-1727 -2197 0
-2579 -3049 0
-38 -802 0
-890 -1654 0
-1742 -2506 0
-2594 -3358 0
-39 -44 0
-891 -896 0
-1743 -1748 0
-2595 -2600 0
-51 -132 0
-903 -984 0
-1755 -1836 0
-2607 -2688 0
-63 -186 0
-915 -1038 0
-1767 -1890 0
-2619 -2742 0
-74 -274 0
-926 -1126 0
-1778 -1978 0
-2630 -2830 0
-80 -815 0
-932 -1667 0
-1784 -2519 0
-2636 -3371 0
-102 -316 0
-954 -1168 0
-1806 -2020 0
-2658 -2872 0
-117 -344 0
-969 -1196 0
-1821 -2048 0
-2673 -2900 0
-121 -544 0
-973 -1396 0
-1825 -2248 0
-2677 -3100 0
-125 -678 0
-977 -1530 0
-1829 -2382 0
-2681 -3234 0
-143 -474 0
-995 -1326 0
-1847 -2178 0
-2699 -3030 0
-155 -764 0
-1007 -1616 0
-1859 -2468 0
-2711 -3320 0
-171 -221 0
-1023 -1073 0
-1875 -1925 0
-2727 -2777 0
-173 -276 0
-1025 -1128 0
-1877 -1980 0
-2729 -2832 0
-177 -366 0
-1029 -1218 0
-1881 -2070 0
-2733 -2922 0
-198 -413 0
-1050 -1265 0
-1902 -2117 0
-2754 -2969 0
-209 -618 0
-1061 -1470 0
-1913 -2322 0
-2765 -3174 0
-230 -235 0
-1082 -1087 0
-1934 -1939 0
-2786 -2791 0
-231 -841 0
-1083 -1693 0
-1935 -2545 0
-2787 -3397 0
-242 -786 0
-1094 -1638 0
-1946 -2490 0
-2798 -3342 0
-247 -816 0
-1099 -1668 0
-1951 -2520 0
-2803 -3372 0
-253 -384 0
-1105 -1236 0
-1957 -2088 0
-2809 -2940 0
-257 -309 0
-1109 -1161 0
-1961 -2013 0
-2813 -2865 0
-258 -644 0
-1110 -1496 0
-1962 -2348 0
-2814 -3200 0
-277 -526 0
-1129 -1378 0
-1981 -2230 0
-2833 -3082 0
-283 -650 0
-1135 -1502 0
-1987 -2354 0
-2839 -3206 0
-318 -481 0
-1170 -1333 0
-2022 -2185 0
-2874 -3037 0
-331 -831 0
-1183 -1683 0
-2035 -2535 0
-2887 -3387 0
-340 -762 0
-1192 -1614 0
-2044 -2466 0
-2896 -3318 0
-395 -821 0
-1247 -1673 0
-2099 -2525 0
-2951 -3377 0
-416 -573 0
-1268 -1425 0
-2120 -2277 0
-2972 -3129 0
-426 -498 0
-1278 -1350 0
-2130 -2202 0
-2982 -3054 0
-451 -546 0
-1303 -1398 0
-2155 -2250 0
-3007 -3102 0
-478 -688 0
-1330 -1540 0
-2182 -2392 0
-3034 -3244 0
-537 -741 0
-1389 -1593 0
-2241 -2445 0
-3093 -3297 0
-567 -784 0
-1419 -1636 0
-2271 -2488 0
-3123 -3340 0
-627 -668 0
-1479 -1520 0
-2331 -2372 0
-3183 -3224 0
-792 -834 0
-1644 -1686 0
-2496 -2538 0
-3348 -3390 0
-25 -788 0
-877 -1640 0
-1729 -2492 0
-2581 -3344 0
-26 -350 0
-878 -1202 0
-1730 -2054 0
-2582 -2906 0
-32 -37 0
-884 -889 0
-1736 -1741 0
-2588 -2593 0
-39 -605 0
-891 -1457 0
-1743 -2309 0
-2595 -3161 0
-56 -515 0
-908 -1367 0
-1760 -2219 0
-2612 -3071 0
-62 -140 0
-914 -992 0
-1766 -1844 0
-2618 -2696 0
-65 -142 0
-917 -994 0
-1769 -1846 0
-2621 -2698 0
-67 -128 0
-919 -980 0
-1771 -1832 0
-2623 -2684 0
-70 -305 0
-922 -1157 0
-1774 -2009 0
-2626 -2861 0
-80 -155 0
-932 -1007 0
-1784 -1859 0
-2636 -2711 0
-82 -826 0
-934 -1678 0
-1786 -2530 0
-2638 -3382 0
-104 -439 0
-956 -1291 0
-1808 -2143 0
-2660 -2995 0
-123 -265 0
-975 -1117 0
-1827 -1969 0
-2679 -2821 0
-134 -373 0
-986 -1225 0
-1838 -2077 0
-2690 -2929 0
-135 -408 0
-987 -1260 0
-1839 -2112 0
-2691 -2964 0
-154 -238 0
-1006 -1090 0
-1858 -1942 0
-2710 -2794 0
-156 -421 0
-1008 -1273 0
-1860 -2125 0
-2712 -2977 0
-160 -445 0
-1012 -1297 0
-1864 -2149 0
-2716 -3001 0
-165 -226 0
-1017 -1078 0
-1869 -1930 0
-2721 -2782 0
-179 -183 0
-1031 -1035 0
-1883 -1887 0
-2735 -2739 0
-192 -322 0
-1044 -1174 0
-1896 -2026 0
-2748 -2878 0
-214 -436 0
-1066 -1288 0
-1918 -2140 0
-2770 -2992 0
-219 -577 0
-1071 -1429 0
-1923 -2281 0
-2775 -3133 0
-220 -386 0
-1072 -1238 0
-1924 -2090 0
-2776 -2942 0
-255 -339 0
-1107 -1191 0
-1959 -2043 0
-2811 -2895 0
-267 -291 0
-1119 -1143 0
-1971 -1995 0
-2823 -2847 0
-273 -606 0
-1125 -1458 0
-1977 -2310 0
-2829 -3162 0
-336 -471 0
-1188 -1323 0
-2040 -2175 0
-2892 -3027 0
-357 -392 0
-1209 -1244 0
-2061 -2096 0
-2913 -2948 0
-361 -415 0
-1213 -1267 0
-2065 -2119 0
-2917 -2971 0
-364 -381 0
-1216 -1233 0
-2068 -2085 0
-2920 -2937 0
-365 -534 0
-1217 -1386 0
-2069 -2238 0
-2921 -3090 0
-369 -711 0
-1221 -1563 0
-2073 -2415 0
-2925 -3267 0
-376 -567 0
-1228 -1419 0
-2080 -2271 0
-2932 -3123 0
-404 -519 0
-1256 -1371 0
-2108 -2223 0
-2960 -3075 0
-407 -488 0
-1259 -1340 0
-2111 -2192 0
-2963 -3044 0
-419 -814 0
-1271 -1666 0
-2123 -2518 0
-2975 -3370 0
-432 -467 0
-1284 -1319 0
-2136 -2171 0
-2988 -3023 0
-435 -562 0
-1287 -1414 0
-2139 -2266 0
-2991 -3118 0
-438 -665 0
-1290 -1517 0
-2142 -2369 0
-2994 -3221 0
-464 -812 0
-1316 -1664 0
-2168 -2516 0
-3020 -3368 0
-497 -538 0
-1349 -1390 0
-2201 -2242 0
-3053 -3094 0
-500 -654 0
-1352 -1506 0
-2204 -2358 0
-3056 -3210 0
-502 -626 0
-1354 -1478 0
-2206 -2330 0
-3058 -3182 0
-551 -566 0
-1403 -1418 0
-2255 -2270 0
-3107 -3122 0
-559 -576 0
-1411 -1428 0
-2263 -2280 0
-3115 -3132 0
-560 -611 0
-1412 -1463 0
-2264 -2315 0
-3116 -3167 0
-679 -805 0
-1531 -1657 0
-2383 -2509 0
-3235 -3361 0
-718 -793 0
-1570 -1645 0
-2422 -2497 0
-3274 -3349 0
-734 -772 0
-1586 -1624 0
-2438 -2476 0
-3290 -3328 0
-22 -25 0
-874 -877 0
-1726 -1729 0
-2578 -2581 0
-26 -56 0
-878 -908 0
-1730 -1760 0
-2582 -2612 0
-28 -31 0
-880 -883 0
-1732 -1735 0
-2584 -2587 0
-33 -345 0
-885 -1197 0
-1737 -2049 0
-2589 -2901 0
-34 -294 0
-886 -1146 0
-1738 -1998 0
-2590 -2850 0
-37 -443 0
-889 -1295 0
-1741 -2147 0
-2593 -2999 0
-38 -272 0
-890 -1124 0
-1742 -1976 0
-2594 -2828 0
-55 -329 0
-907 -1181 0
-1759 -2033 0
-2611 -2885 0
-70 -219 0
-922 -1071 0
-1774 -1923 0
-2626 -2775 0
-74 -277 0
-926 -1129 0
-1778 -1981 0
-2630 -2833 0
-82 -93 0
-934 -945 0
-1786 -1797 0
-2638 -2649 0
-87 -136 0
-939 -988 0
-1791 -1840 0
-2643 -2692 0
-102 -143 0
-954 -995 0
-1806 -1847 0
-2658 -2699 0
-109 -198 0
-961 -1050 0
-1813 -1902 0
-2665 -2754 0
-116 -584 0
-968 -1436 0
-1820 -2288 0
-2672 -3140 0
-126 -416 0
-978 -1268 0
-1830 -2120 0
-2682 -2972 0
-129 -262 0
-981 -1114 0
-1833 -1966 0
-2685 -2818 0
-133 -610 0
-985 -1462 0
-1837 -2314 0
-2689 -3166 0
-149 -171 0
-1001 -1023 0
-1853 -1875 0
-2705 -2727 0
-153 -182 0
-1005 -1034 0
-1857 -1886 0
-2709 -2738 0
-160 -509 0
-1012 -1361 0
-1864 -2213 0
-2716 -3065 0
-167 -800 0
-1019 -1652 0
-1871 -2504 0
-2723 -3356 0
-179 -205 0
-1031 -1057 0
-1883 -1909 0
-2735 -2761 0
-184 -202 0
-1036 -1054 0
-1888 -1906 0
-2740 -2758 0
-190 -575 0
-1042 -1427 0
-1894 -2279 0
-2746 -3131 0
-197 -321 0
-1049 -1173 0
-1901 -2025 0
-2753 -2877 0
-200 -254 0
-1052 -1106 0
-1904 -1958 0
-2756 -2810 0
-215 -411 0
-1067 -1263 0
-1919 -2115 0
-2771 -2967 0
-237 -449 0
-1089 -1301 0
-1941 -2153 0
-2793 -3005 0
-239 -486 0
-1091 -1338 0
-1943 -2190 0
-2795 -3042 0
-261 -483 0
-1113 -1335 0
-1965 -2187 0
-2817 -3039 0
-268 -633 0
-1120 -1485 0
-1972 -2337 0
-2824 -3189 0
-269 -766 0
-1121 -1618 0
-1973 -2470 0
-2825 -3322 0
-274 -526 0
-1126 -1378 0
-1978 -2230 0
-2830 -3082 0
-276 -328 0
-1128 -1180 0
-1980 -2032 0
-2832 -2884 0
-284 -663 0
-1136 -1515 0
-1988 -2367 0
-2840 -3219 0
-285 -655 0
-1137 -1507 0
-1989 -2359 0
-2841 -3211 0
-289 -681 0
-1141 -1533 0
-1993 -2385 0
-2845 -3237 0
-290 -437 0
-1142 -1289 0
-1994 -2141 0
-2846 -2993 0
-300 -718 0
-1152 -1570 0
-2004 -2422 0
-2856 -3274 0
-301 -331 0
-1153 -1183 0
-2005 -2035 0
-2857 -2887 0
-305 -577 0
-1157 -1429 0
-2009 -2281 0
-2861 -3133 0
-309 -367 0
-1161 -1219 0
-2013 -2071 0
-2865 -2923 0
-316 -474 0
-1168 -1326 0
-2020 -2178 0
-2872 -3030 0
-317 -653 0
-1169 -1505 0
-2021 -2357 0
-2873 -3209 0
-320 -428 0
-1172 -1280 0
-2024 -2132 0
-2876 -2984 0
-322 -728 0
-1174 -1580 0
-2026 -2432 0
-2878 -3284 0
-350 -515 0
-1202 -1367 0
-2054 -2219 0
-2906 -3071 0
-354 -763 0
-1206 -1615 0
-2058 -2467 0
-2910 -3319 0
-403 -677 0
-1255 -1529 0
-2107 -2381 0
-2959 -3233 0
-420 -721 0
-1272 -1573 0
-2124 -2425 0
-2976 -3277 0
-460 -710 0
-1312 -1562 0
-2164 -2414 0
-3016 -3266 0
-499 -722 0
-1351 -1574 0
-2203 -2426 0
-3055 -3278 0
-508 -660 0
-1360 -1512 0
-2212 -2364 0
-3064 -3216 0
-531 -697 0
-1383 -1549 0
-2235 -2401 0
-3087 -3253 0
-549 -787 0
-1401 -1639 0
-2253 -2491 0
-3105 -3343 0
-559 -565 0
-1411 -1417 0
-2263 -2269 0
-3115 -3121 0
-581 -715 0
-1433 -1567 0
-2285 -2419 0
-3137 -3271 0
-648 -792 0
-1500 -1644 0
-2352 -2496 0
-3204 -3348 0
-667 -839 0
-1519 -1691 0
-2371 -2543 0
-3223 -3395 0
-730 -819 0
-1582 -1671 0
-2434 -2523 0
-3286 -3375 0
-806 -835 0
-1658 -1687 0
-2510 -2539 0
-3362 -3391 0
-4 -496 0
-856 -1348 0
-1708 -2200 0
-2560 -3052 0
-10 -752 0
-862 -1604 0
-1714 -2456 0
-2566 -3308 0
-22 -239 0
-874 -1091 0
-1726 -1943 0
-2578 -2795 0
-25 -486 0
-877 -1338 0
-1729 -2190 0
-2581 -3042 0
-32 -217 0
-884 -1069 0
-1736 -1921 0
-2588 -2773 0
-55 -732 0
-907 -1584 0
-1759 -2436 0
-2611 -3288 0
-72 -470 0
-924 -1322 0
-1776 -2174 0
-2628 -3026 0
-84 -741 0
-936 -1593 0
-1788 -2445 0
-2640 -3297 0
-112 -761 0
-964 -1613 0
-1816 -2465 0
-2668 -3317 0
-125 -574 0
-977 -1426 0
-1829 -2278 0
-2681 -3130 0
-135 -476 0
-987 -1328 0
-1839 -2180 0
-2691 -3032 0
-165 -336 0
-1017 -1188 0
-1869 -2040 0
-2721 -2892 0
-193 -433 0
-1045 -1285 0
-1897 -2137 0
-2749 -2989 0
-209 -412 0
-1061 -1264 0
-1913 -2116 0
-2765 -2968 0
-226 -471 0
-1078 -1323 0
-1930 -2175 0
-2782 -3027 0
-230 -702 0
-1082 -1554 0
-1934 -2406 0
-2786 -3258 0
-242 -434 0
-1094 -1286 0
-1946 -2138 0
-2798 -2990 0
-283 -391 0
-1135 -1243 0
-1987 -2095 0
-2839 -2947 0
-303 -634 0
-1155 -1486 0
-2007 -2338 0
-2859 -3190 0
-325 -742 0
-1177 -1594 0
-2029 -2446 0
-2881 -3298 0
-340 -563 0
-1192 -1415 0
-2044 -2267 0
-2896 -3119 0
-351 -384 0
-1203 -1236 0
-2055 -2088 0
-2907 -2940 0
-417 -700 0
-1269 -1552 0
-2121 -2404 0
-2973 -3256 0
-424 -566 0
-1276 -1418 0
-2128 -2270 0
-2980 -3122 0
-488 -746 0
-1340 -1598 0
-2192 -2450 0
-3044 -3302 0
-567 -778 0
-1419 -1630 0
-2271 -2482 0
-3123 -3334 0
-608 -690 0
-1460 -1542 0
-2312 -2394 0
-3164 -3246 0
-703 -725 0
-1555 -1577 0
-2407 -2429 0
-3259 -3281 0
-1 -79 0
-853 -931 0
-1705 -1783 0
-2557 -2635 0
-2 -308 0
-854 -1160 0
-1706 -2012 0
-2558 -2864 0
-3 -232 0
-855 -1084 0
-1707 -1936 0
-2559 -2788 0
-8 -385 0
-860 -1237 0
-1712 -2089 0
-2564 -2941 0
-12 -396 0
-864 -1248 0
-1716 -2100 0
-2568 -2952 0
-13 -14 0
-865 -866 0
-1717 -1718 0
-2569 -2570 0
-32 -165 0
-884 -1017 0
-1736 -1869 0
-2588 -2721 0
-33 -34 0
-885 -886 0
-1737 -1738 0
-2589 -2590 0
-37 -226 0
-889 -1078 0
-1741 -1930 0
-2593 -2782 0
-38 -469 0
-890 -1321 0
-1742 -2173 0
-2594 -3025 0
-51 -416 0
-903 -1268 0
-1755 -2120 0
-2607 -2972 0
-53 -159 0
-905 -1011 0
-1757 -1863 0
-2609 -2715 0
-59 -158 0
-911 -1010 0
-1763 -1862 0
-2615 -2714 0
-62 -455 0
-914 -1307 0
-1766 -2159 0
-2618 -3011 0
-63 -126 0
-915 -978 0
-1767 -1830 0
-2619 -2682 0
-65 -554 0
-917 -1406 0
-1769 -2258 0
-2621 -3110 0
-67 -120 0
-919 -972 0
-1771 -1824 0
-2623 -2676 0
-83 -172 0
-935 -1024 0
-1787 -1876 0
-2639 -2728 0
-109 -190 0
-961 -1042 0
-1813 -1894 0
-2665 -2746 0
-111 -347 0
-963 -1199 0
-1815 -2051 0
-2667 -2903 0
-118 -252 0
-970 -1104 0
-1822 -1956 0
-2674 -2808 0
-132 -573 0
-984 -1425 0
-1836 -2277 0
-2688 -3129 0
-141 -570 0
-993 -1422 0
-1845 -2274 0
-2697 -3126 0
-149 -153 0
-1001 -1005 0
-1853 -1857 0
-2705 -2709 0
-161 -325 0
-1013 -1177 0
-1865 -2029 0
-2717 -2881 0
-164 -188 0
-1016 -1040 0
-1868 -1892 0
-2720 -2744 0
-171 -182 0
-1023 -1034 0
-1875 -1886 0
-2727 -2738 0
-174 -236 0
-1026 -1088 0
-1878 -1940 0
-2730 -2792 0
-192 -464 0
-1044 -1316 0
-1896 -2168 0
-2748 -3020 0
-193 -424 0
-1045 -1276 0
-1897 -2128 0
-2749 -2980 0
-196 -452 0
-1048 -1304 0
-1900 -2156 0
-2752 -3008 0
-198 -575 0
-1050 -1427 0
-1902 -2279 0
-2754 -3131 0
-217 -336 0
-1069 -1188 0
-1921 -2040 0
-2773 -2892 0
-223 -415 0
-1075 -1267 0
-1927 -2119 0
-2779 -2971 0
-230 -340 0
-1082 -1192 0
-1934 -2044 0
-2786 -2896 0
-235 -762 0
-1087 -1614 0
-1939 -2466 0
-2791 -3318 0
-253 -318 0
-1105 -1170 0
-1957 -2022 0
-2809 -2874 0
-258 -263 0
-1110 -1115 0
-1962 -1967 0
-2814 -2819 0
-259 -534 0
-1111 -1386 0
-1963 -2238 0
-2815 -3090 0
-270 -601 0
-1122 -1453 0
-1974 -2305 0
-2826 -3157 0
-285 -354 0
-1137 -1206 0
-1989 -2058 0
-2841 -2910 0
-298 -723 0
-1150 -1575 0
-2002 -2427 0
-2854 -3279 0
-322 -812 0
-1174 -1664 0
-2026 -2516 0
-2878 -3368 0
-351 -813 0
-1203 -1665 0
-2055 -2517 0
-2907 -3369 0
-353 -365 0
-1205 -1217 0
-2057 -2069 0
-2909 -2921 0
-363 -518 0
-1215 -1370 0
-2067 -2222 0
-2919 -3074 0
-368 -477 0
-1220 -1329 0
-2072 -2181 0
-2924 -3033 0
-370 -771 0
-1222 -1623 0
-2074 -2475 0
-2926 -3327 0
-384 -481 0
-1236 -1333 0
-2088 -2185 0
-2940 -3037 0
-426 -458 0
-1278 -1310 0
-2130 -2162 0
-2982 -3014 0
-429 -489 0
-1281 -1341 0
-2133 -2193 0
-2985 -3045 0
-433 -566 0
-1285 -1418 0
-2137 -2270 0
-2989 -3122 0
-479 -542 0
-1331 -1394 0
-2183 -2246 0
-3035 -3098 0
-549 -666 0
-1401 -1518 0
-2253 -2370 0
-3105 -3222 0
-637 -638 0
-1489 -1490 0
-2341 -2342 0
-3193 -3194 0
-655 -763 0
-1507 -1615 0
-2359 -2467 0
-3211 -3319 0
-10 -25 0
-862 -877 0
-1714 -1729 0
-2566 -2581 0
-34 -678 0
-886 -1530 0
-1738 -2382 0
-2590 -3234 0
-51 -443 0
-903 -1295 0
-1755 -2147 0
-2607 -2999 0
-55 -112 0
-907 -964 0
-1759 -1816 0
-2611 -2668 0
-59 -111 0
-911 -963 0
-1763 -1815 0
-2615 -2667 0
-90 -392 0
-942 -1244 0
-1794 -2096 0
-2646 -2948 0
-105 -233 0
-957 -1085 0
-1809 -1937 0
-2661 -2789 0
-126 -226 0
-978 -1078 0
-1830 -1930 0
-2682 -2782 0
-129 -175 0
-981 -1027 0
-1833 -1879 0
-2685 -2731 0
-145 -463 0
-997 -1315 0
-1849 -2167 0
-2701 -3019 0
-147 -661 0
-999 -1513 0
-1851 -2365 0
-2703 -3217 0
-158 -347 0
-1010 -1199 0
-1862 -2051 0
-2714 -2903 0
-160 -505 0
-1012 -1357 0
-1864 -2209 0
-2716 -3061 0
-177 -595 0
-1029 -1447 0
-1881 -2299 0
-2733 -3151 0
-187 -349 0
-1039 -1201 0
-1891 -2053 0
-2743 -2905 0
-240 -367 0
-1092 -1219 0
-1944 -2071 0
-2796 -2923 0
-253 -643 0
-1105 -1495 0
-1957 -2347 0
-2809 -3199 0
-284 -399 0
-1136 -1251 0
-1988 -2103 0
-2840 -2955 0
-287 -440 0
-1139 -1292 0
-1991 -2144 0
-2843 -2996 0
-300 -615 0
-1152 -1467 0
-2004 -2319 0
-2856 -3171 0
-301 -311 0
-1153 -1163 0
-2005 -2015 0
-2857 -2867 0
-318 -550 0
-1170 -1402 0
-2022 -2254 0
-2874 -3106 0
-332 -708 0
-1184 -1560 0
-2036 -2412 0
-2888 -3264 0
-388 -608 0
-1240 -1460 0
-2092 -2312 0
-2944 -3164 0
-417 -657 0
-1269 -1509 0
-2121 -2361 0
-2973 -3213 0
-447 -521 0
-1299 -1373 0
-2151 -2225 0
-3003 -3077 0
-451 -716 0
-1303 -1568 0
-2155 -2420 0
-3007 -3272 0
-461 -791 0
-1313 -1643 0
-2165 -2495 0
-3017 -3347 0
-556 -736 0
-1408 -1588 0
-2260 -2440 0
-3112 -3292 0
-581 -841 0
-1433 -1693 0
-2285 -2545 0
-3137 -3397 0
-609 -834 0
-1461 -1686 0
-2313 -2538 0
-3165 -3390 0
-619 -701 0
-1471 -1553 0
-2323 -2405 0
-3175 -3257 0
-674 -707 0
-1526 -1559 0
-2378 -2411 0
-3230 -3263 0
-687 -838 0
-1539 -1690 0
-2391 -2542 0
-3243 -3394 0
-732 -761 0
-1584 -1613 0
-2436 -2465 0
-3288 -3317 0
-751 -800 0
-1603 -1652 0
-2455 -2504 0
-3307 -3356 0
-754 -802 0
-1606 -1654 0
-2458 -2506 0
-3310 -3358 0
-769 -779 0
-1621 -1631 0
-2473 -2483 0
-3325 -3335 0
-3 -278 0
-855 -1130 0
-1707 -1982 0
-2559 -2834 0
-4 -377 0
-856 -1229 0
-1708 -2081 0
-2560 -2933 0
-5 -824 0
-857 -1676 0
-1709 -2528 0
-2561 -3380 0
-8 -11 0
-860 -863 0
-1712 -1715 0
-2564 -2567 0
-9 -49 0
-861 -901 0
-1713 -1753 0
-2565 -2605 0
-14 -401 0
-866 -1253 0
-1718 -2105 0
-2570 -2957 0
-18 -21 0
-870 -873 0
-1722 -1725 0
-2574 -2577 0
-19 -341 0
-871 -1193 0
-1723 -2045 0
-2575 -2897 0
-24 -146 0
-876 -998 0
-1728 -1850 0
-2580 -2702 0
-32 -698 0
-884 -1550 0
-1736 -2402 0
-2588 -3254 0
-58 -183 0
-910 -1035 0
-1762 -1887 0
-2614 -2739 0
-60 -243 0
-912 -1095 0
-1764 -1947 0
-2616 -2799 0
-72 -390 0
-924 -1242 0
-1776 -2094 0
-2628 -2946 0
-92 -127 0
-944 -979 0
-1796 -1831 0
-2648 -2683 0
-102 -317 0
-954 -1169 0
-1806 -2021 0
-2658 -2873 0
-108 -205 0
-960 -1057 0
-1812 -1909 0
-2664 -2761 0
-110 -179 0
-962 -1031 0
-1814 -1883 0
-2666 -2735 0
-119 -457 0
-971 -1309 0
-1823 -2161 0
-2675 -3013 0
-120 -455 0
-972 -1307 0
-1824 -2159 0
-2676 -3011 0
-122 -380 0
-974 -1232 0
-1826 -2084 0
-2678 -2936 0
-125 -748 0
-977 -1600 0
-1829 -2452 0
-2681 -3304 0
-128 -140 0
-980 -992 0
-1832 -1844 0
-2684 -2696 0
-133 -248 0
-985 -1100 0
-1837 -1952 0
-2689 -2804 0
-143 -653 0
-995 -1505 0
-1847 -2357 0
-2699 -3209 0
-159 -596 0
-1011 -1448 0
-1863 -2300 0
-2715 -3152 0
-165 -442 0
-1017 -1294 0
-1869 -2146 0
-2721 -2998 0
-177 -808 0
-1029 -1660 0
-1881 -2512 0
-2733 -3364 0
-184 -268 0
-1036 -1120 0
-1888 -1972 0
-2740 -2824 0
-188 -208 0
-1040 -1060 0
-1892 -1912 0
-2744 -2764 0
-202 -633 0
-1054 -1485 0
-1906 -2337 0
-2758 -3189 0
-209 -393 0
-1061 -1245 0
-1913 -2097 0
-2765 -2949 0
-256 -564 0
-1108 -1416 0
-1960 -2268 0
-2812 -3120 0
-269 -324 0
-1121 -1176 0
-1973 -2028 0
-2825 -2880 0
-289 -484 0
-1141 -1336 0
-1993 -2188 0
-2845 -3040 0
-293 -468 0
-1145 -1320 0
-1997 -2172 0
-2849 -3024 0
-297 -333 0
-1149 -1185 0
-2001 -2037 0
-2853 -2889 0
-301 -320 0
-1153 -1172 0
-2005 -2024 0
-2857 -2876 0
-309 -816 0
-1161 -1668 0
-2013 -2520 0
-2865 -3372 0
-315 -397 0
-1167 -1249 0
-2019 -2101 0
-2871 -2953 0
-325 -811 0
-1177 -1663 0
-2029 -2515 0
-2881 -3367 0
-331 -428 0
-1183 -1280 0
-2035 -2132 0
-2887 -2984 0
-351 -414 0
-1203 -1266 0
-2055 -2118 0
-2907 -2970 0
-355 -504 0
-1207 -1356 0
-2059 -2208 0
-2911 -3060 0
-366 -725 0
-1218 -1577 0
-2070 -2429 0
-2922 -3281 0
-388 -625 0
-1240 -1477 0
-2092 -2329 0
-2944 -3181 0
-391 -434 0
-1243 -1286 0
-2095 -2138 0
-2947 -2990 0
-452 -587 0
-1304 -1439 0
-2156 -2291 0
-3008 -3143 0
-460 -730 0
-1312 -1582 0
-2164 -2434 0
-3016 -3286 0
-503 -753 0
-1355 -1605 0
-2207 -2457 0
-3059 -3309 0
-531 -703 0
-1383 -1555 0
-2235 -2407 0
-3087 -3259 0
-578 -654 0
-1430 -1506 0
-2282 -2358 0
-3134 -3210 0
-650 -786 0
-1502 -1638 0
-2354 -2490 0
-3206 -3342 0
-707 -781 0
-1559 -1633 0
-2411 -2485 0
-3263 -3337 0
-710 -819 0
-1562 -1671 0
-2414 -2523 0
-3266 -3375 0
-734 -740 0
-1586 -1592 0
-2438 -2444 0
-3290 -3296 0
-22 -78 0
-874 -930 0
-1726 -1782 0
-2578 -2634 0
-23 -143 0
-875 -995 0
-1727 -1847 0
-2579 -2699 0
-26 -489 0
-878 -1341 0
-1730 -2193 0
-2582 -3045 0
-27 -236 0
-879 -1088 0
-1731 -1940 0
-2583 -2792 0
-33 -370 0
-885 -1222 0
-1737 -2074 0
-2589 -2926 0
-34 -771 0
-886 -1623 0
-1738 -2475 0
-2590 -3327 0
-37 -203 0
-889 -1055 0
-1741 -1907 0
-2593 -2759 0
-39 -277 0
-891 -1129 0
-1743 -1981 0
-2595 -2833 0
-44 -526 0
-896 -1378 0
-1748 -2230 0
-2600 -3082 0
-50 -483 0
-902 -1335 0
-1754 -2187 0
-2606 -3039 0
-53 -195 0
-905 -1047 0
-1757 -1899 0
-2609 -2751 0
-58 -119 0
-910 -971 0
-1762 -1823 0
-2614 -2675 0
-62 -621 0
-914 -1473 0
-1766 -2325 0
-2618 -3177 0
-70 -334 0
-922 -1186 0
-1774 -2038 0
-2626 -2890 0
-73 -728 0
-925 -1580 0
-1777 -2432 0
-2629 -3284 0
-76 -138 0
-928 -990 0
-1780 -1842 0
-2632 -2694 0
-82 -131 0
-934 -983 0
-1786 -1835 0
-2638 -2687 0
-89 -174 0
-941 -1026 0
-1793 -1878 0
-2645 -2730 0
-91 -812 0
-943 -1664 0
-1795 -2516 0
-2647 -3368 0
-92 -325 0
-944 -1177 0
-1796 -2029 0
-2648 -2881 0
-107 -361 0
-959 -1213 0
-1811 -2065 0
-2663 -2917 0
-114 -139 0
-966 -991 0
-1818 -1843 0
-2670 -2695 0
-115 -429 0
-967 -1281 0
-1819 -2133 0
-2671 -2985 0
-116 -511 0
-968 -1363 0
-1820 -2215 0
-2672 -3067 0
-127 -811 0
-979 -1663 0
-1831 -2515 0
-2683 -3367 0
-144 -161 0
-996 -1013 0
-1848 -1865 0
-2700 -2717 0
-163 -322 0
-1015 -1174 0
-1867 -2026 0
-2719 -2878 0
-167 -180 0
-1019 -1032 0
-1871 -1884 0
-2723 -2736 0
-183 -457 0
-1035 -1309 0
-1887 -2161 0
-2739 -3013 0
-185 -639 0
-1037 -1491 0
-1889 -2343 0
-2741 -3195 0
-206 -251 0
-1058 -1103 0
-1910 -1955 0
-2762 -2807 0
-215 -609 0
-1067 -1461 0
-1919 -2313 0
-2771 -3165 0
-216 -227 0
-1068 -1079 0
-1920 -1931 0
-2772 -2783 0
-217 -744 0
-1069 -1596 0
-1921 -2448 0
-2773 -3300 0
-222 -839 0
-1074 -1691 0
-1926 -2543 0
-2778 -3395 0
-255 -767 0
-1107 -1619 0
-1959 -2471 0
-2811 -3323 0
-284 -553 0
-1136 -1405 0
-1988 -2257 0
-2840 -3109 0
-289 -456 0
-1141 -1308 0
-1993 -2160 0
-2845 -3012 0
-304 -798 0
-1156 -1650 0
-2008 -2502 0
-2860 -3354 0
-324 -647 0
-1176 -1499 0
-2028 -2351 0
-2880 -3203 0
-333 -750 0
-1185 -1602 0
-2037 -2454 0
-2889 -3306 0
-365 -680 0
-1217 -1532 0
-2069 -2384 0
-2921 -3236 0
-373 -515 0
-1225 -1367 0
-2077 -2219 0
-2929 -3071 0
-376 -594 0
-1228 -1446 0
-2080 -2298 0
-2932 -3150 0
-393 -692 0
-1245 -1544 0
-2097 -2396 0
-2949 -3248 0
-398 -684 0
-1250 -1536 0
-2102 -2388 0
-2954 -3240 0
-402 -804 0
-1254 -1656 0
-2106 -2508 0
-2958 -3360 0
-435 -592 0
-1287 -1444 0
-2139 -2296 0
-2991 -3148 0
-441 -488 0
-1293 -1340 0
-2145 -2192 0
-2997 -3044 0
-472 -628 0
-1324 -1480 0
-2176 -2332 0
-3028 -3184 0
-480 -686 0
-1332 -1538 0
-2184 -2390 0
-3036 -3242 0
-485 -850 0
-1337 -1702 0
-2189 -2554 0
-3041 -3406 0
-499 -807 0
-1351 -1659 0
-2203 -2511 0
-3055 -3363 0
-500 -509 0
-1352 -1361 0
-2204 -2213 0
-3056 -3065 0
-531 -713 0
-1383 -1565 0
-2235 -2417 0
-3087 -3269 0
-619 -705 0
-1471 -1557 0
-2323 -2409 0
-3175 -3261 0
-669 -749 0
-1521 -1601 0
-2373 -2453 0
-3225 -3305 0
-696 -747 0
-1548 -1599 0
-2400 -2451 0
-3252 -3303 0
-698 -785 0
-1550 -1637 0
-2402 -2489 0
-3254 -3341 0
-6 -46 0
-858 -898 0
-1710 -1750 0
-2562 -2602 0
-10 -86 0
-862 -938 0
-1714 -1790 0
-2566 -2642 0
-11 -69 0
-863 -921 0
-1715 -1773 0
-2567 -2625 0
-16 -295 0
-868 -1147 0
-1720 -1999 0
-2572 -2851 0
-22 -339 0
-874 -1191 0
-1726 -2043 0
-2578 -2895 0
-26 -27 0
-878 -879 0
-1730 -1731 0
-2582 -2583 0
-30 -31 0
-882 -883 0
-1734 -1735 0
-2586 -2587 0
-32 -343 0
-884 -1195 0
-1736 -2047 0
-2588 -2899 0
-33 -212 0
-885 -1064 0
-1737 -1916 0
-2589 -2768 0
-34 -204 0
-886 -1056 0
-1738 -1908 0
-2590 -2760 0
-41 -454 0
-893 -1306 0
-1745 -2158 0
-2597 -3010 0
-43 -673 0
-895 -1525 0
-1747 -2377 0
-2599 -3229 0
-65 -213 0
-917 -1065 0
-1769 -1917 0
-2621 -2769 0
-67 -96 0
-919 -948 0
-1771 -1800 0
-2623 -2652 0
-71 -378 0
-923 -1230 0
-1775 -2082 0
-2627 -2934 0
-72 -449 0
-924 -1301 0
-1776 -2153 0
-2628 -3005 0
-78 -314 0
-930 -1166 0
-1782 -2018 0
-2634 -2870 0
-82 -114 0
-934 -966 0
-1786 -1818 0
-2638 -2670 0
-84 -111 0
-936 -963 0
-1788 -1815 0
-2640 -2667 0
-87 -265 0
-939 -1117 0
-1791 -1969 0
-2643 -2821 0
-104 -375 0
-956 -1227 0
-1808 -2079 0
-2660 -2931 0
-107 -237 0
-959 -1089 0
-1811 -1941 0
-2663 -2793 0
-110 -249 0
-962 -1101 0
-1814 -1953 0
-2666 -2805 0
-113 -795 0
-965 -1647 0
-1817 -2499 0
-2669 -3351 0
-121 -722 0
-973 -1574 0
-1825 -2426 0
-2677 -3278 0
-127 -540 0
-979 -1392 0
-1831 -2244 0
-2683 -3096 0
-131 -139 0
-983 -991 0
-1835 -1843 0
-2687 -2695 0
-144 -672 0
-996 -1524 0
-1848 -2376 0
-2700 -3228 0
-153 -190 0
-1005 -1042 0
-1857 -1894 0
-2709 -2746 0
-155 -605 0
-1007 -1457 0
-1859 -2309 0
-2711 -3161 0
-164 -207 0
-1016 -1059 0
-1868 -1911 0
-2720 -2763 0
-171 -198 0
-1023 -1050 0
-1875 -1902 0
-2727 -2754 0
-179 -215 0
-1031 -1067 0
-1883 -1919 0
-2735 -2771 0
-181 -235 0
-1033 -1087 0
-1885 -1939 0
-2737 -2791 0
-182 -575 0
-1034 -1427 0
-1886 -2279 0
-2738 -3131 0
-189 -499 0
-1041 -1351 0
-1893 -2203 0
-2745 -3055 0
-194 -224 0
-1046 -1076 0
-1898 -1928 0
-2750 -2780 0
-197 -255 0
-1049 -1107 0
-1901 -1959 0
-2753 -2811 0
-202 -610 0
-1054 -1462 0
-1906 -2314 0
-2758 -3166 0
-205 -411 0
-1057 -1263 0
-1909 -2115 0
-2761 -2967 0
-219 -272 0
-1071 -1124 0
-1923 -1976 0
-2775 -2828 0
-221 -413 0
-1073 -1265 0
-1925 -2117 0
-2777 -2969 0
-229 -614 0
-1081 -1466 0
-1933 -2318 0
-2785 -3170 0
-246 -568 0
-1098 -1420 0
-1950 -2272 0
-2802 -3124 0
-256 -315 0
-1108 -1167 0
-1960 -2019 0
-2812 -2871 0
-258 -479 0
-1110 -1331 0
-1962 -2183 0
-2814 -3035 0
-263 -542 0
-1115 -1394 0
-1967 -2246 0
-2819 -3098 0
-264 -335 0
-1116 -1187 0
-1968 -2039 0
-2820 -2891 0
-267 -487 0
-1119 -1339 0
-1971 -2191 0
-2823 -3043 0
-270 -780 0
-1122 -1632 0
-1974 -2484 0
-2826 -3336 0
-302 -330 0
-1154 -1182 0
-2006 -2034 0
-2858 -2886 0
-337 -541 0
-1189 -1393 0
-2041 -2245 0
-2893 -3097 0
-342 -566 0
-1194 -1418 0
-2046 -2270 0
-2898 -3122 0
-348 -588 0
-1200 -1440 0
-2052 -2292 0
-2904 -3144 0
-356 -712 0
-1208 -1564 0
-2060 -2416 0
-2912 -3268 0
-369 -699 0
-1221 -1551 0
-2073 -2403 0
-2925 -3255 0
-407 -450 0
-1259 -1302 0
-2111 -2154 0
-2963 -3006 0
-423 -593 0
-1275 -1445 0
-2127 -2297 0
-2979 -3149 0
-453 -773 0
-1305 -1625 0
-2157 -2477 0
-3009 -3329 0
-503 -578 0
-1355 -1430 0
-2207 -2282 0
-3059 -3134 0
-512 -525 0
-1364 -1377 0
-2216 -2229 0
-3068 -3081 0
-639 -793 0
-1491 -1645 0
-2343 -2497 0
-3195 -3349 0
-684 -849 0
-1536 -1701 0
-2388 -2553 0
-3240 -3405 0
-706 -829 0
-1558 -1681 0
-2410 -2533 0
-3262 -3385 0
-710 -766 0
-1562 -1618 0
-2414 -2470 0
-3266 -3322 0
-4 -777 0
-856 -1629 0
-1708 -2481 0
-2560 -3333 0
-24 -35 0
-876 -887 0
-1728 -1739 0
-2580 -2591 0
-33 -725 0
-885 -1577 0
-1737 -2429 0
-2589 -3281 0
-58 -91 0
-910 -943 0
-1762 -1795 0
-2614 -2647 0
-64 -491 0
-916 -1343 0
-1768 -2195 0
-2620 -3047 0
-68 -660 0
-920 -1512 0
-1772 -2364 0
-2624 -3216 0
-83 -366 0
-935 -1218 0
-1787 -2070 0
-2639 -2922 0
-108 -535 0
-960 -1387 0
-1812 -2239 0
-2664 -3091 0
-117 -625 0
-969 -1477 0
-1821 -2329 0
-2673 -3181 0
-119 -812 0
-971 -1664 0
-1823 -2516 0
-2675 -3368 0
-121 -134 0
-973 -986 0
-1825 -1838 0
-2677 -2690 0
-135 -442 0
-987 -1294 0
-1839 -2146 0
-2691 -2998 0
-142 -736 0
-994 -1588 0
-1846 -2440 0
-2698 -3292 0
-155 -208 0
-1007 -1060 0
-1859 -1912 0
-2711 -2764 0
-161 -201 0
-1013 -1053 0
-1865 -1905 0
-2717 -2757 0
-173 -556 0
-1025 -1408 0
-1877 -2260 0
-2729 -3112 0
-189 -220 0
-1041 -1072 0
-1893 -1924 0
-2745 -2776 0
-193 -654 0
-1045 -1506 0
-1897 -2358 0
-2749 -3210 0
-209 -469 0
-1061 -1321 0
-1913 -2173 0
-2765 -3025 0
-223 -350 0
-1075 -1202 0
-1927 -2054 0
-2779 -2906 0
-229 -455 0
-1081 -1307 0
-1933 -2159 0
-2785 -3011 0
-234 -508 0
-1086 -1360 0
-1938 -2212 0
-2790 -3064 0
-251 -291 0
-1103 -1143 0
-1955 -1995 0
-2807 -2847 0
-253 -732 0
-1105 -1584 0
-1957 -2436 0
-2809 -3288 0
-269 -666 0
-1121 -1518 0
-1973 -2370 0
-2825 -3222 0
-288 -579 0
-1140 -1431 0
-1992 -2283 0
-2844 -3135 0
-300 -354 0
-1152 -1206 0
-2004 -2058 0
-2856 -2910 0
-310 -784 0
-1162 -1636 0
-2014 -2488 0
-2866 -3340 0
-369 -638 0
-1221 -1490 0
-2073 -2342 0
-2925 -3194 0
-370 -468 0
-1222 -1320 0
-2074 -2172 0
-2926 -3024 0
-435 -641 0
-1287 -1493 0
-2139 -2345 0
-2991 -3197 0
-453 -656 0
-1305 -1508 0
-2157 -2360 0
-3009 -3212 0
-456 -723 0
-1308 -1575 0
-2160 -2427 0
-3012 -3279 0
-462 -596 0
-1314 -1448 0
-2166 -2300 0
-3018 -3152 0
-507 -733 0
-1359 -1585 0
-2211 -2437 0
-3063 -3289 0
-513 -709 0
-1365 -1561 0
-2217 -2413 0
-3069 -3265 0
-528 -757 0
-1380 -1609 0
-2232 -2461 0
-3084 -3313 0
-537 -564 0
-1389 -1416 0
-2241 -2268 0
-3093 -3120 0
-639 -811 0
-1491 -1663 0
-2343 -2515 0
-3195 -3367 0
-643 -761 0
-1495 -1613 0
-2347 -2465 0
-3199 -3317 0
-659 -802 0
-1511 -1654 0
-2363 -2506 0
-3215 -3358 0
-718 -763 0
-1570 -1615 0
-2422 -2467 0
-3274 -3319 0
-1 -496 0
-853 -1348 0
-1705 -2200 0
-2557 -3052 0
-3 -4 0
-855 -856 0
-1707 -1708 0
-2559 -2560 0
-9 -550 0
-861 -1402 0
-1713 -2254 0
-2565 -3106 0
-23 -157 0
-875 -1009 0
-1727 -1861 0
-2579 -2713 0
-28 -228 0
-880 -1080 0
-1732 -1932 0
-2584 -2784 0
-32 -65 0
-884 -917 0
-1736 -1769 0
-2588 -2621 0
-33 -168 0
-885 -1020 0
-1737 -1872 0
-2589 -2724 0
-36 -95 0
-888 -947 0
-1740 -1799 0
-2592 -2651 0
-37 -142 0
-889 -994 0
-1741 -1846 0
-2593 -2698 0
-40 -41 0
-892 -893 0
-1744 -1745 0
-2596 -2597 0
-59 -187 0
-911 -1039 0
-1763 -1891 0
-2615 -2743 0
-63 -173 0
-915 -1025 0
-1767 -1877 0
-2619 -2729 0
-64 -68 0
-916 -920 0
-1768 -1772 0
-2620 -2624 0
-73 -840 0
-925 -1692 0
-1777 -2544 0
-2629 -3396 0
-102 -318 0
-954 -1170 0
-1806 -2022 0
-2658 -2874 0
-111 -349 0
-963 -1201 0
-1815 -2053 0
-2667 -2905 0
-117 -513 0
-969 -1365 0
-1821 -2217 0
-2673 -3069 0
-123 -266 0
-975 -1118 0
-1827 -1970 0
-2679 -2822 0
-130 -542 0
-982 -1394 0
-1834 -2246 0
-2686 -3098 0
-132 -328 0
-984 -1180 0
-1836 -2032 0
-2688 -2884 0
-133 -412 0
-985 -1264 0
-1837 -2116 0
-2689 -2968 0
-145 -447 0
-997 -1299 0
-1849 -2151 0
-2701 -3003 0
-147 -682 0
-999 -1534 0
-1851 -2386 0
-2703 -3238 0
-160 -263 0
-1012 -1115 0
-1864 -1967 0
-2716 -2819 0
-165 -554 0
-1017 -1406 0
-1869 -2258 0
-2721 -3110 0
-184 -634 0
-1036 -1486 0
-1888 -2338 0
-2740 -3190 0
-186 -276 0
-1038 -1128 0
-1890 -1980 0
-2742 -2832 0
-193 -737 0
-1045 -1589 0
-1897 -2441 0
-2749 -3293 0
-194 -264 0
-1046 -1116 0
-1898 -1968 0
-2750 -2820 0
-200 -598 0
-1052 -1450 0
-1904 -2302 0
-2756 -3154 0
-224 -335 0
-1076 -1187 0
-1928 -2039 0
-2780 -2891 0
-242 -247 0
-1094 -1099 0
-1946 -1951 0
-2798 -2803 0
-278 -377 0
-1130 -1229 0
-1982 -2081 0
-2834 -2933 0
-293 -742 0
-1145 -1594 0
-1997 -2446 0
-2849 -3298 0
-298 -381 0
-1150 -1233 0
-2002 -2085 0
-2854 -2937 0
-316 -481 0
-1168 -1333 0
-2020 -2185 0
-2872 -3037 0
-324 -393 0
-1176 -1245 0
-2028 -2097 0
-2880 -2949 0
-337 -364 0
-1189 -1216 0
-2041 -2068 0
-2893 -2920 0
-389 -394 0
-1241 -1246 0
-2093 -2098 0
-2945 -2950 0
-407 -612 0
-1259 -1464 0
-2111 -2316 0
-2963 -3168 0
-410 -495 0
-1262 -1347 0
-2114 -2199 0
-2966 -3051 0
-432 -470 0
-1284 -1322 0
-2136 -2174 0
-2988 -3026 0
-450 -563 0
-1302 -1415 0
-2154 -2267 0
-3006 -3119 0
-463 -521 0
-1315 -1373 0
-2167 -2225 0
-3019 -3077 0
-484 -847 0
-1336 -1699 0
-2188 -2551 0
-3040 -3403 0
-491 -660 0
-1343 -1512 0
-2195 -2364 0
-3047 -3216 0
-539 -837 0
-1391 -1689 0
-2243 -2541 0
-3095 -3393 0
-543 -574 0
-1395 -1426 0
-2247 -2278 0
-3099 -3130 0
-625 -709 0
-1477 -1561 0
-2329 -2413 0
-3181 -3265 0
-626 -838 0
-1478 -1690 0
-2330 -2542 0
-3182 -3394 0
-632 -775 0
-1484 -1627 0
-2336 -2479 0
-3188 -3331 0
-647 -692 0
-1499 -1544 0
-2351 -2396 0
-3203 -3248 0
-654 -665 0
-1506 -1517 0
-2358 -2369 0
-3210 -3221 0
-688 -821 0
-1540 -1673 0
-2392 -2525 0
-3244 -3377 0
-727 -845 0
-1579 -1697 0
-2431 -2549 0
-3283 -3401 0
-739 -809 0
-1591 -1661 0
-2443 -2513 0
-3295 -3365 0
-747 -749 0
-1599 -1601 0
-2451 -2453 0
-3303 -3305 0
-786 -816 0
-1638 -1668 0
-2490 -2520 0
-3342 -3372 0
-789 -817 0
-1641 -1669 0
-2493 -2521 0
-3345 -3373 0
-7 -483 0
-859 -1335 0
-1711 -2187 0
-2563 -3039 0
-8 -831 0
-860 -1683 0
-1712 -2535 0
-2564 -3387 0
-9 -668 0
-861 -1520 0
-1713 -2372 0
-2565 -3224 0
-10 -428 0
-862 -1280 0
-1714 -2132 0
-2566 -2984 0
-22 -250 0
-874 -1102 0
-1726 -1954 0
-2578 -2806 0
-27 -69 0
-879 -921 0
-1731 -1773 0
-2583 -2625 0
-37 -111 0
-889 -963 0
-1741 -1815 0
-2593 -2667 0
-38 -50 0
-890 -902 0
-1742 -1754 0
-2594 -2606 0
-39 -411 0
-891 -1263 0
-1743 -2115 0
-2595 -2967 0
-45 -834 0
-897 -1686 0
-1749 -2538 0
-2601 -3390 0
-53 -235 0
-905 -1087 0
-1757 -1939 0
-2609 -2791 0
-55 -333 0
-907 -1185 0
-1759 -2037 0
-2611 -2889 0
-58 -425 0
-910 -1277 0
-1762 -2129 0
-2614 -2981 0
-71 -320 0
-923 -1172 0
-1775 -2024 0
-2627 -2876 0
-72 -584 0
-924 -1436 0
-1776 -2288 0
-2628 -3140 0
-74 -609 0
-926 -1461 0
-1778 -2313 0
-2630 -3165 0
-80 -205 0
-932 -1057 0
-1784 -1909 0
-2636 -2761 0
-82 -482 0
-934 -1334 0
-1786 -2186 0
-2638 -3038 0
-90 -405 0
-942 -1257 0
-1794 -2109 0
-2646 -2961 0
-100 -215 0
-952 -1067 0
-1804 -1919 0
-2656 -2771 0
-105 -261 0
-957 -1113 0
-1809 -1965 0
-2661 -2817 0
-107 -116 0
-959 -968 0
-1811 -1820 0
-2663 -2672 0
-109 -212 0
-961 -1064 0
-1813 -1916 0
-2665 -2768 0
-125 -721 0
-977 -1573 0
-1829 -2425 0
-2681 -3277 0
-126 -158 0
-978 -1010 0
-1830 -1862 0
-2682 -2714 0
-129 -284 0
-981 -1136 0
-1833 -1988 0
-2685 -2840 0
-138 -526 0
-990 -1378 0
-1842 -2230 0
-2694 -3082 0
-142 -349 0
-994 -1201 0
-1846 -2053 0
-2698 -2905 0
-154 -179 0
-1006 -1031 0
-1858 -1883 0
-2710 -2735 0
-156 -655 0
-1008 -1507 0
-1860 -2359 0
-2712 -3211 0
-159 -762 0
-1011 -1614 0
-1863 -2466 0
-2715 -3318 0
-167 -311 0
-1019 -1163 0
-1871 -2015 0
-2723 -2867 0
-171 -345 0
-1023 -1197 0
-1875 -2049 0
-2727 -2901 0
-173 -187 0
-1025 -1039 0
-1877 -1891 0
-2729 -2743 0
-175 -399 0
-1027 -1251 0
-1879 -2103 0
-2731 -2955 0
-182 -294 0
-1034 -1146 0
-1886 -1998 0
-2738 -2850 0
-184 -273 0
-1036 -1125 0
-1888 -1977 0
-2740 -2829 0
-190 -204 0
-1042 -1056 0
-1894 -1908 0
-2746 -2760 0
-191 -420 0
-1043 -1272 0
-1895 -2124 0
-2747 -2976 0
-194 -565 0
-1046 -1417 0
-1898 -2269 0
-2750 -3121 0
-209 -614 0
-1061 -1466 0
-1913 -2318 0
-2765 -3170 0
-226 -347 0
-1078 -1199 0
-1930 -2051 0
-2782 -2903 0
-234 -394 0
-1086 -1246 0
-1938 -2098 0
-2790 -2950 0
-242 -278 0
-1094 -1130 0
-1946 -1982 0
-2798 -2834 0
-247 -377 0
-1099 -1229 0
-1951 -2081 0
-2803 -2933 0
-256 -437 0
-1108 -1289 0
-1960 -2141 0
-2812 -2993 0
-262 -663 0
-1114 -1515 0
-1966 -2367 0
-2818 -3219 0
-264 -486 0
-1116 -1338 0
-1968 -2190 0
-2820 -3042 0
-269 -699 0
-1121 -1551 0
-1973 -2403 0
-2825 -3255 0
-280 -352 0
-1132 -1204 0
-1984 -2056 0
-2836 -2908 0
-289 -310 0
-1141 -1162 0
-1993 -2014 0
-2845 -2866 0
-293 -474 0
-1145 -1326 0
-1997 -2178 0
-2849 -3030 0
-334 -621 0
-1186 -1473 0
-2038 -2325 0
-2890 -3177 0
-358 -701 0
-1210 -1553 0
-2062 -2405 0
-2914 -3257 0
-361 -511 0
-1213 -1363 0
-2065 -2215 0
-2917 -3067 0
-366 -493 0
-1218 -1345 0
-2070 -2197 0
-2922 -3049 0
-388 -450 0
-1240 -1302 0
-2092 -2154 0
-2944 -3006 0
-421 -589 0
-1273 -1441 0
-2125 -2293 0
-2977 -3145 0
-436 -743 0
-1288 -1595 0
-2140 -2447 0
-2992 -3299 0
-503 -708 0
-1355 -1560 0
-2207 -2412 0
-3059 -3264 0
-522 -555 0
-1374 -1407 0
-2226 -2259 0
-3078 -3111 0
-528 -600 0
-1380 -1452 0
-2232 -2304 0
-3084 -3156 0
-560 -586 0
-1412 -1438 0
-2264 -2290 0
-3116 -3142 0
-630 -653 0
-1482 -1505 0
-2334 -2357 0
-3186 -3209 0
-640 -718 0
-1492 -1570 0
-2344 -2422 0
-3196 -3274 0
-671 -698 0
-1523 -1550 0
-2375 -2402 0
-3227 -3254 0
-3 -624 0
-855 -1476 0
-1707 -2328 0
-2559 -3180 0
-4 -525 0
-856 -1377 0
-1708 -2229 0
-2560 -3081 0
-8 -9 0
-860 -861 0
-1712 -1713 0
-2564 -2565 0
-10 -523 0
-862 -1375 0
-1714 -2227 0
-2566 -3079 0
-11 -49 0
-863 -901 0
-1715 -1753 0
-2567 -2605 0
-16 -17 0
-868 -869 0
-1720 -1721 0
-2572 -2573 0
-26 -87 0
-878 -939 0
-1730 -1791 0
-2582 -2643 0
-27 -265 0
-879 -1117 0
-1731 -1969 0
-2583 -2821 0
-34 -225 0
-886 -1077 0
-1738 -1929 0
-2590 -2781 0
-42 -431 0
-894 -1283 0
-1746 -2135 0
-2598 -2987 0
-43 -45 0
-895 -897 0
-1747 -1749 0
-2599 -2601 0
-56 -136 0
-908 -988 0
-1760 -1840 0
-2612 -2692 0
-67 -532 0
-919 -1384 0
-1771 -2236 0
-2623 -3088 0
-72 -125 0
-924 -977 0
-1776 -1829 0
-2628 -2681 0
-75 -399 0
-927 -1251 0
-1779 -2103 0
-2631 -2955 0
-81 -123 0
-933 -975 0
-1785 -1827 0
-2637 -2679 0
-90 -445 0
-942 -1297 0
-1794 -2149 0
-2646 -3001 0
-92 -175 0
-944 -1027 0
-1796 -1879 0
-2648 -2731 0
-104 -151 0
-956 -1003 0
-1808 -1855 0
-2660 -2707 0
-106 -112 0
-958 -964 0
-1810 -1816 0
-2662 -2668 0
-107 -191 0
-959 -1043 0
-1811 -1895 0
-2663 -2747 0
-108 -569 0
-960 -1421 0
-1812 -2273 0
-2664 -3125 0
-114 -339 0
-966 -1191 0
-1818 -2043 0
-2670 -2895 0
-116 -420 0
-968 -1272 0
-1820 -2124 0
-2672 -2976 0
-121 -288 0
-973 -1140 0
-1825 -1992 0
-2677 -2844 0
-132 -444 0
-984 -1296 0
-1836 -2148 0
-2688 -3000 0
-134 -579 0
-986 -1431 0
-1838 -2283 0
-2690 -3135 0
-137 -512 0
-989 -1364 0
-1841 -2216 0
-2693 -3068 0
-139 -314 0
-991 -1166 0
-1843 -2018 0
-2695 -2870 0
-144 -206 0
-996 -1058 0
-1848 -1910 0
-2700 -2762 0
-145 -714 0
-997 -1566 0
-1849 -2418 0
-2701 -3270 0
-153 -282 0
-1005 -1134 0
-1857 -1986 0
-2709 -2838 0
-159 -226 0
-1011 -1078 0
-1863 -1930 0
-2715 -2782 0
-161 -251 0
-1013 -1103 0
-1865 -1955 0
-2717 -2807 0
-186 -576 0
-1038 -1428 0
-1890 -2280 0
-2742 -3132 0
-195 -203 0
-1047 -1055 0
-1899 -1907 0
-2751 -2759 0
-196 -259 0
-1048 -1111 0
-1900 -1963 0
-2752 -2815 0
-201 -291 0
-1053 -1143 0
-1905 -1995 0
-2757 -2847 0
-210 -606 0
-1062 -1458 0
-1914 -2310 0
-2766 -3162 0
-279 -319 0
-1131 -1171 0
-1983 -2023 0
-2835 -2875 0
-286 -360 0
-1138 -1212 0
-1990 -2064 0
-2842 -2916 0
-292 -397 0
-1144 -1249 0
-1996 -2101 0
-2848 -2953 0
-297 -658 0
-1149 -1510 0
-2001 -2362 0
-2853 -3214 0
-300 -648 0
-1152 -1500 0
-2004 -2352 0
-2856 -3204 0
-301 -652 0
-1153 -1504 0
-2005 -2356 0
-2857 -3208 0
-307 -501 0
-1159 -1353 0
-2011 -2205 0
-2863 -3057 0
-310 -626 0
-1162 -1478 0
-2014 -2330 0
-2866 -3182 0
-331 -627 0
-1183 -1479 0
-2035 -2331 0
-2887 -3183 0
-340 -424 0
-1192 -1276 0
-2044 -2128 0
-2896 -2980 0
-344 -400 0
-1196 -1252 0
-2048 -2104 0
-2900 -2956 0
-357 -505 0
-1209 -1357 0
-2061 -2209 0
-2913 -3061 0
-376 -719 0
-1228 -1571 0
-2080 -2423 0
-2932 -3275 0
-390 -748 0
-1242 -1600 0
-2094 -2452 0
-2946 -3304 0
-402 -510 0
-1254 -1362 0
-2106 -2214 0
-2958 -3066 0
-407 -423 0
-1259 -1275 0
-2111 -2127 0
-2963 -2979 0
-417 -458 0
-1269 -1310 0
-2121 -2162 0
-2973 -3014 0
-432 -543 0
-1284 -1395 0
-2136 -2247 0
-2988 -3099 0
-435 -738 0
-1287 -1590 0
-2139 -2442 0
-2991 -3294 0
-450 -593 0
-1302 -1445 0
-2154 -2297 0
-3006 -3149 0
-452 -534 0
-1304 -1386 0
-2156 -2238 0
-3008 -3090 0
-470 -574 0
-1322 -1426 0
-2174 -2278 0
-3026 -3130 0
-490 -801 0
-1342 -1653 0
-2194 -2505 0
-3046 -3357 0
-547 -739 0
-1399 -1591 0
-2251 -2443 0
-3103 -3295 0
-563 -566 0
-1415 -1418 0
-2267 -2270 0
-3119 -3122 0
-572 -603 0
-1424 -1455 0
-2276 -2307 0
-3128 -3159 0
-584 -721 0
-1436 -1573 0
-2288 -2425 0
-3140 -3277 0
-601 -635 0
-1453 -1487 0
-2305 -2339 0
-3157 -3191 0
-636 -820 0
-1488 -1672 0
-2340 -2524 0
-3192 -3376 0
-655 -781 0
-1507 -1633 0
-2359 -2485 0
-3211 -3337 0
-718 -792 0
-1570 -1644 0
-2422 -2496 0
-3274 -3348 0
-11 -763 0
-863 -1615 0
-1715 -2467 0
-2567 -3319 0
-22 -495 0
-874 -1347 0
-1726 -2199 0
-2578 -3051 0
-33 -39 0
-885 -891 0
-1737 -1743 0
-2589 -2595 0
-58 -209 0
-910 -1061 0
-1762 -1913 0
-2614 -2765 0
-59 -86 0
-911 -938 0
-1763 -1790 0
-2615 -2642 0
-62 -438 0
-914 -1290 0
-1766 -2142 0
-2618 -2994 0
-63 -588 0
-915 -1440 0
-1767 -2292 0
-2619 -3144 0
-73 -272 0
-925 -1124 0
-1777 -1976 0
-2629 -2828 0
-91 -469 0
-943 -1321 0
-1795 -2173 0
-2647 -3025 0
-115 -156 0
-967 -1008 0
-1819 -1860 0
-2671 -2712 0
-140 -665 0
-992 -1517 0
-1844 -2369 0
-2696 -3221 0
-141 -157 0
-993 -1009 0
-1845 -1861 0
-2697 -2713 0
-147 -829 0
-999 -1681 0
-1851 -2533 0
-2703 -3385 0
-149 -304 0
-1001 -1156 0
-1853 -2008 0
-2705 -2860 0
-150 -804 0
-1002 -1656 0
-1854 -2508 0
-2706 -3360 0
-179 -669 0
-1031 -1521 0
-1883 -2373 0
-2735 -3225 0
-183 -393 0
-1035 -1245 0
-1887 -2097 0
-2739 -2949 0
-184 -670 0
-1036 -1522 0
-1888 -2374 0
-2740 -3226 0
-192 -227 0
-1044 -1079 0
-1896 -1931 0
-2748 -2783 0
-210 -563 0
-1062 -1415 0
-1914 -2267 0
-2766 -3119 0
-214 -552 0
-1066 -1404 0
-1918 -2256 0
-2770 -3108 0
-239 -266 0
-1091 -1118 0
-1943 -1970 0
-2795 -2822 0
-261 -542 0
-1113 -1394 0
-1965 -2246 0
-2817 -3098 0
-273 -551 0
-1125 -1403 0
-1977 -2255 0
-2829 -3107 0
-310 -449 0
-1162 -1301 0
-2014 -2153 0
-2866 -3005 0
-344 -375 0
-1196 -1227 0
-2048 -2079 0
-2900 -2931 0
-369 -580 0
-1221 -1432 0
-2073 -2284 0
-2925 -3136 0
-384 -496 0
-1236 -1348 0
-2088 -2200 0
-2940 -3052 0
-407 -594 0
-1259 -1446 0
-2111 -2298 0
-2963 -3150 0
-419 -560 0
-1271 -1412 0
-2123 -2264 0
-2975 -3116 0
-425 -614 0
-1277 -1466 0
-2129 -2318 0
-2981 -3170 0
-441 -567 0
-1293 -1419 0
-2145 -2271 0
-2997 -3123 0
-457 -692 0
-1309 -1544 0
-2161 -2396 0
-3013 -3248 0
-467 -575 0
-1319 -1427 0
-2171 -2279 0
-3023 -3131 0
-476 -852 0
-1328 -1704 0
-2180 -2556 0
-3032 -3408 0
-620 -718 0
-1472 -1570 0
-2324 -2422 0
-3176 -3274 0
-628 -839 0
-1480 -1691 0
-2332 -2543 0
-3184 -3395 0
-10 -113 0
-862 -965 0
-1714 -1817 0
-2566 -2669 0
-31 -46 0
-883 -898 0
-1735 -1750 0
-2587 -2602 0
-34 -274 0
-886 -1126 0
-1738 -1978 0
-2590 -2830 0
-35 -352 0
-887 -1204 0
-1739 -2056 0
-2591 -2908 0
-39 -103 0
-891 -955 0
-1743 -1807 0
-2595 -2659 0
-51 -174 0
-903 -1026 0
-1755 -1878 0
-2607 -2730 0
-62 -644 0
-914 -1496 0
-1766 -2348 0
-2618 -3200 0
-80 -446 0
-932 -1298 0
-1784 -2150 0
-2636 -3002 0
-86 -795 0
-938 -1647 0
-1790 -2499 0
-2642 -3351 0
-92 -309 0
-944 -1161 0
-1796 -2013 0
-2648 -2865 0
-98 -276 0
-950 -1128 0
-1802 -1980 0
-2654 -2832 0
-120 -821 0
-972 -1673 0
-1824 -2525 0
-2676 -3377 0
-127 -816 0
-979 -1668 0
-1831 -2520 0
-2683 -3372 0
-141 -384 0
-993 -1236 0
-1845 -2088 0
-2697 -2940 0
-157 -496 0
-1009 -1348 0
-1861 -2200 0
-2713 -3052 0
-171 -527 0
-1023 -1379 0
-1875 -2231 0
-2727 -3083 0
-175 -233 0
-1027 -1085 0
-1879 -1937 0
-2731 -2789 0
-177 -391 0
-1029 -1243 0
-1881 -2095 0
-2733 -2947 0
-188 -280 0
-1040 -1132 0
-1892 -1984 0
-2744 -2836 0
-193 -359 0
-1045 -1211 0
-1897 -2063 0
-2749 -2915 0
-199 -360 0
-1051 -1212 0
-1903 -2064 0
-2755 -2916 0
-202 -744 0
-1054 -1596 0
-1906 -2448 0
-2758 -3300 0
-222 -479 0
-1074 -1331 0
-1926 -2183 0
-2778 -3035 0
-230 -514 0
-1082 -1366 0
-1934 -2218 0
-2786 -3070 0
-294 -526 0
-1146 -1378 0
-1998 -2230 0
-2850 -3082 0
-324 -642 0
-1176 -1494 0
-2028 -2346 0
-2880 -3198 0
-363 -429 0
-1215 -1281 0
-2067 -2133 0
-2919 -2985 0
-365 -724 0
-1217 -1576 0
-2069 -2428 0
-2921 -3280 0
-417 -599 0
-1269 -1451 0
-2121 -2303 0
-2973 -3155 0
-449 -673 0
-1301 -1525 0
-2153 -2377 0
-3005 -3229 0
-506 -591 0
-1358 -1443 0
-2210 -2295 0
-3062 -3147 0
-531 -650 0
-1383 -1502 0
-2235 -2354 0
-3087 -3206 0
-580 -767 0
-1432 -1619 0
-2284 -2471 0
-3136 -3323 0
-627 -846 0
-1479 -1698 0
-2331 -2550 0
-3183 -3402 0
-646 -688 0
-1498 -1540 0
-2350 -2392 0
-3202 -3244 0
-703 -786 0
-1555 -1638 0
-2407 -2490 0
-3259 -3342 0
-721 -834 0
-1573 -1686 0
-2425 -2538 0
-3277 -3390 0
-730 -844 0
-1582 -1696 0
-2434 -2548 0
-3286 -3400 0
-1 -261 0
-853 -1113 0
-1705 -1965 0
-2557 -2817 0
-3 -607 0
-855 -1459 0
-1707 -2311 0
-2559 -3163 0
-8 -813 0
-860 -1665 0
-1712 -2517 0
-2564 -3369 0
-23 -284 0
-875 -1136 0
-1727 -1988 0
-2579 -2840 0
-33 -183 0
-885 -1035 0
-1737 -1887 0
-2589 -2739 0
-39 -393 0
-891 -1245 0
-1743 -2097 0
-2595 -2949 0
-53 -826 0
-905 -1678 0
-1757 -2530 0
-2609 -3382 0
-56 -811 0
-908 -1663 0
-1760 -2515 0
-2612 -3367 0
-64 -408 0
-916 -1260 0
-1768 -2112 0
-2620 -2964 0
-73 -140 0
-925 -992 0
-1777 -1844 0
-2629 -2696 0
-76 -508 0
-928 -1360 0
-1780 -2212 0
-2632 -3064 0
-81 -354 0
-933 -1206 0
-1785 -2058 0
-2637 -2910 0
-108 -229 0
-960 -1081 0
-1812 -1933 0
-2664 -2785 0
-121 -185 0
-973 -1037 0
-1825 -1889 0
-2677 -2741 0
-143 -553 0
-995 -1405 0
-1847 -2257 0
-2699 -3109 0
-149 -238 0
-1001 -1090 0
-1853 -1942 0
-2705 -2794 0
-156 -247 0
-1008 -1099 0
-1860 -1951 0
-2712 -2803 0
-164 -305 0
-1016 -1157 0
-1868 -2009 0
-2720 -2861 0
-176 -445 0
-1028 -1297 0
-1880 -2149 0
-2732 -3001 0
-192 -731 0
-1044 -1583 0
-1896 -2435 0
-2748 -3287 0
-198 -605 0
-1050 -1457 0
-1902 -2309 0
-2754 -3161 0
-202 -342 0
-1054 -1194 0
-1906 -2046 0
-2758 -2898 0
-217 -239 0
-1069 -1091 0
-1921 -1943 0
-2773 -2795 0
-221 -764 0
-1073 -1616 0
-1925 -2468 0
-2777 -3320 0
-224 -265 0
-1076 -1117 0
-1928 -1969 0
-2780 -2821 0
-227 -263 0
-1079 -1115 0
-1931 -1967 0
-2783 -2819 0
-254 -517 0
-1106 -1369 0
-1958 -2221 0
-2810 -3073 0
-269 -458 0
-1121 -1310 0
-1973 -2162 0
-2825 -3014 0
-272 -665 0
-1124 -1517 0
-1976 -2369 0
-2828 -3221 0
-277 -692 0
-1129 -1544 0
-1981 -2396 0
-2833 -3248 0
-293 -812 0
-1145 -1664 0
-1997 -2516 0
-2849 -3368 0
-298 -350 0
-1150 -1202 0
-2002 -2054 0
-2854 -2906 0
-370 -457 0
-1222 -1309 0
-2074 -2161 0
-2926 -3013 0
-407 -477 0
-1259 -1329 0
-2111 -2181 0
-2963 -3033 0
-443 -788 0
-1295 -1640 0
-2147 -2492 0
-2999 -3344 0
-473 -556 0
-1325 -1408 0
-2177 -2260 0
-3029 -3112 0
-507 -693 0
-1359 -1545 0
-2211 -2397 0
-3063 -3249 0
-530 -777 0
-1382 -1629 0
-2234 -2481 0
-3086 -3333 0
-697 -760 0
-1549 -1612 0
-2401 -2464 0
-3253 -3316 0
-10 -329 0
-862 -1181 0
-1714 -2033 0
-2566 -2885 0
-12 -13 0
-864 -865 0
-1716 -1717 0
-2568 -2569 0
-22 -112 0
-874 -964 0
-1726 -1816 0
-2578 -2668 0
-26 -201 0
-878 -1053 0
-1730 -1905 0
-2582 -2757 0
-28 -568 0
-880 -1420 0
-1732 -2272 0
-2584 -3124 0
-32 -463 0
-884 -1315 0
-1736 -2167 0
-2588 -3019 0
-33 -73 0
-885 -925 0
-1737 -1777 0
-2589 -2629 0
-34 -35 0
-886 -887 0
-1738 -1739 0
-2590 -2591 0
-39 -272 0
-891 -1124 0
-1743 -1976 0
-2595 -2828 0
-43 -367 0
-895 -1219 0
-1747 -2071 0
-2599 -2923 0
-57 -246 0
-909 -1098 0
-1761 -1950 0
-2613 -2802 0
-58 -128 0
-910 -980 0
-1762 -1832 0
-2614 -2684 0
-63 -118 0
-915 -970 0
-1767 -1822 0
-2619 -2674 0
-64 -443 0
-916 -1295 0
-1768 -2147 0
-2620 -2999 0
-65 -521 0
-917 -1373 0
-1769 -2225 0
-2621 -3077 0
-80 -219 0
-932 -1071 0
-1784 -1923 0
-2636 -2775 0
-81 -530 0
-933 -1382 0
-1785 -2234 0
-2637 -3086 0
-82 -106 0
-934 -958 0
-1786 -1810 0
-2638 -2662 0
-87 -291 0
-939 -1143 0
-1791 -1995 0
-2643 -2847 0
-101 -791 0
-953 -1643 0
-1805 -2495 0
-2657 -3347 0
-102 -122 0
-954 -974 0
-1806 -1826 0
-2658 -2678 0
-109 -207 0
-961 -1059 0
-1813 -1911 0
-2665 -2763 0
-123 -487 0
-975 -1339 0
-1827 -2191 0
-2679 -3043 0
-126 -252 0
-978 -1104 0
-1830 -1956 0
-2682 -2808 0
-133 -315 0
-985 -1167 0
-1837 -2019 0
-2689 -2871 0
-147 -148 0
-999 -1000 0
-1851 -1852 0
-2703 -2704 0
-149 -164 0
-1001 -1016 0
-1853 -1868 0
-2705 -2720 0
-153 -188 0
-1005 -1040 0
-1857 -1892 0
-2709 -2744 0
-155 -577 0
-1007 -1429 0
-1859 -2281 0
-2711 -3133 0
-160 -374 0
-1012 -1226 0
-1864 -2078 0
-2716 -2930 0
-162 -262 0
-1014 -1114 0
-1866 -1966 0
-2718 -2818 0
-168 -840 0
-1020 -1692 0
-1872 -2544 0
-2724 -3396 0
-184 -256 0
-1036 -1108 0
-1888 -1960 0
-2740 -2812 0
-197 -302 0
-1049 -1154 0
-1901 -2006 0
-2753 -2858 0
-200 -267 0
-1052 -1119 0
-1904 -1971 0
-2756 -2823 0
-238 -305 0
-1090 -1157 0
-1942 -2009 0
-2794 -2861 0
-239 -761 0
-1091 -1613 0
-1943 -2465 0
-2795 -3317 0
-248 -397 0
-1100 -1249 0
-1952 -2101 0
-2804 -2953 0
-255 -330 0
-1107 -1182 0
-1959 -2034 0
-2811 -2886 0
-268 -564 0
-1120 -1416 0
-1972 -2268 0
-2824 -3120 0
-269 -578 0
-1121 -1430 0
-1973 -2282 0
-2825 -3134 0
-273 -437 0
-1125 -1289 0
-1977 -2141 0
-2829 -2993 0
-274 -352 0
-1126 -1204 0
-1978 -2056 0
-2830 -2908 0
-275 -292 0
-1127 -1144 0
-1979 -1996 0
-2831 -2848 0
-286 -328 0
-1138 -1180 0
-1990 -2032 0
-2842 -2884 0
-317 -380 0
-1169 -1232 0
-2021 -2084 0
-2873 -2936 0
-320 -333 0
-1172 -1185 0
-2024 -2037 0
-2876 -2889 0
-324 -654 0
-1176 -1506 0
-2028 -2358 0
-2880 -3210 0
-354 -777 0
-1206 -1629 0
-2058 -2481 0
-2910 -3333 0
-368 -555 0
-1220 -1407 0
-2072 -2259 0
-2924 -3111 0
-369 -708 0
-1221 -1560 0
-2073 -2412 0
-2925 -3264 0
-370 -728 0
-1222 -1580 0
-2074 -2432 0
-2926 -3284 0
-393 -665 0
-1245 -1517 0
-2097 -2369 0
-2949 -3221 0
-400 -444 0
-1252 -1296 0
-2104 -2148 0
-2956 -3000 0
-408 -788 0
-1260 -1640 0
-2112 -2492 0
-2964 -3344 0
-417 -452 0
-1269 -1304 0
-2121 -2156 0
-2973 -3008 0
-430 -755 0
-1282 -1607 0
-2134 -2459 0
-2986 -3311 0
-439 -515 0
-1291 -1367 0
-2143 -2219 0
-2995 -3071 0
-458 -534 0
-1310 -1386 0
-2162 -2238 0
-3014 -3090 0
-460 -503 0
-1312 -1355 0
-2164 -2207 0
-3016 -3059 0
-476 -486 0
-1328 -1338 0
-2180 -2190 0
-3032 -3042 0
-499 -672 0
-1351 -1524 0
-2203 -2376 0
-3055 -3228 0
-508 -736 0
-1360 -1588 0
-2212 -2440 0
-3064 -3292 0
-581 -772 0
-1433 -1624 0
-2285 -2476 0
-3137 -3328 0
-590 -760 0
-1442 -1612 0
-2294 -2464 0
-3146 -3316 0
-652 -658 0
-1504 -1510 0
-2356 -2362 0
-3208 -3214 0
-662 -697 0
-1514 -1549 0
-2366 -2401 0
-3218 -3253 0
-730 -753 0
-1582 -1605 0
-2434 -2457 0
-3286 -3309 0
-4 -479 0
-856 -1331 0
-1708 -2183 0
-2560 -3035 0
-24 -433 0
-876 -1285 0
-1728 -2137 0
-2580 -2989 0
-25 -781 0
-877 -1633 0
-1729 -2485 0
-2581 -3337 0
-26 -434 0
-878 -1286 0
-1730 -2138 0
-2582 -2990 0
-32 -770 0
-884 -1622 0
-1736 -2474 0
-2588 -3326 0
-34 -248 0
-886 -1100 0
-1738 -1952 0
-2590 -2804 0
-35 -397 0
-887 -1249 0
-1739 -2101 0
-2591 -2953 0
-43 -103 0
-895 -955 0
-1747 -1807 0
-2599 -2659 0
-53 -89 0
-905 -941 0
-1757 -1793 0
-2609 -2645 0
-65 -545 0
-917 -1397 0
-1769 -2249 0
-2621 -3101 0
-67 -218 0
-919 -1070 0
-1771 -1922 0
-2623 -2774 0
-82 -285 0
-934 -1137 0
-1786 -1989 0
-2638 -2841 0
-93 -655 0
-945 -1507 0
-1797 -2359 0
-2649 -3211 0
-116 -215 0
-968 -1067 0
-1820 -1919 0
-2672 -2771 0
-137 -258 0
-989 -1110 0
-1841 -1962 0
-2693 -2814 0
-139 -795 0
-991 -1647 0
-1843 -2499 0
-2695 -3351 0
-161 -346 0
-1013 -1198 0
-1865 -2050 0
-2717 -2902 0
-167 -738 0
-1019 -1590 0
-1871 -2442 0
-2723 -3294 0
-226 -265 0
-1078 -1117 0
-1930 -1969 0
-2782 -2821 0
-231 -830 0
-1083 -1682 0
-1935 -2534 0
-2787 -3386 0
-279 -391 0
-1131 -1243 0
-1983 -2095 0
-2835 -2947 0
-303 -809 0
-1155 -1661 0
-2007 -2513 0
-2859 -3365 0
-358 -539 0
-1210 -1391 0
-2062 -2243 0
-2914 -3095 0
-365 -510 0
-1217 -1362 0
-2069 -2214 0
-2921 -3066 0
-403 -642 0
-1255 -1494 0
-2107 -2346 0
-2959 -3198 0
-460 -739 0
-1312 -1591 0
-2164 -2443 0
-3016 -3295 0
-462 -602 0
-1314 -1454 0
-2166 -2306 0
-3018 -3158 0
-503 -714 0
-1355 -1566 0
-2207 -2418 0
-3059 -3270 0
-511 -609 0
-1363 -1461 0
-2215 -2313 0
-3067 -3165 0
-518 -630 0
-1370 -1482 0
-2222 -2334 0
-3074 -3186 0
-531 -549 0
-1383 -1401 0
-2235 -2253 0
-3087 -3105 0
-612 -752 0
-1464 -1604 0
-2316 -2456 0
-3168 -3308 0
-697 -787 0
-1549 -1639 0
-2401 -2491 0
-3253 -3343 0
-10 -684 0
-862 -1536 0
-1714 -2388 0
-2566 -3240 0
-16 -490 0
-868 -1342 0
-1720 -2194 0
-2572 -3046 0
-17 -801 0
-869 -1653 0
-1721 -2505 0
-2573 -3357 0
-26 -464 0
-878 -1316 0
-1730 -2168 0
-2582 -3020 0
-27 -79 0
-879 -931 0
-1731 -1783 0
-2583 -2635 0
-29 -308 0
-881 -1160 0
-1733 -2012 0
-2585 -2864 0
-33 -273 0
-885 -1125 0
-1737 -1977 0
-2589 -2829 0
-38 -61 0
-890 -913 0
-1742 -1765 0
-2594 -2617 0
-39 -551 0
-891 -1403 0
-1743 -2255 0
-2595 -3107 0
-51 -143 0
-903 -995 0
-1755 -1847 0
-2607 -2699 0
-63 -102 0
-915 -954 0
-1767 -1806 0
-2619 -2658 0
-73 -437 0
-925 -1289 0
-1777 -2141 0
-2629 -2993 0
-76 -336 0
-928 -1188 0
-1780 -2040 0
-2632 -2892 0
-86 -849 0
-938 -1701 0
-1790 -2553 0
-2642 -3405 0
-92 -120 0
-944 -972 0
-1796 -1824 0
-2648 -2676 0
-98 -570 0
-950 -1422 0
-1802 -2274 0
-2654 -3126 0
-99 -150 0
-951 -1002 0
-1803 -1854 0
-2655 -2706 0
-109 -133 0
-961 -985 0
-1813 -1837 0
-2665 -2689 0
-111 -668 0
-963 -1520 0
-1815 -2372 0
-2667 -3224 0
-115 -192 0
-967 -1044 0
-1819 -1896 0
-2671 -2748 0
-118 -122 0
-970 -974 0
-1822 -1826 0
-2674 -2678 0
-127 -455 0
-979 -1307 0
-1831 -2159 0
-2683 -3011 0
-132 -474 0
-984 -1326 0
-1836 -2178 0
-2688 -3030 0
-134 -535 0
-986 -1387 0
-1838 -2239 0
-2690 -3091 0
-142 -550 0
-994 -1402 0
-1846 -2254 0
-2698 -3106 0
-149 -184 0
-1001 -1036 0
-1853 -1888 0
-2705 -2740 0
-155 -342 0
-1007 -1194 0
-1859 -2046 0
-2711 -2898 0
-156 -227 0
-1008 -1079 0
-1860 -1931 0
-2712 -2783 0
-159 -385 0
-1011 -1237 0
-1863 -2089 0
-2715 -2941 0
-163 -290 0
-1015 -1142 0
-1867 -1994 0
-2719 -2846 0
-164 -256 0
-1016 -1108 0
-1868 -1960 0
-2720 -2812 0
-171 -202 0
-1023 -1054 0
-1875 -1906 0
-2727 -2758 0
-173 -318 0
-1025 -1170 0
-1877 -2022 0
-2729 -2874 0
-185 -229 0
-1037 -1081 0
-1889 -1933 0
-2741 -2785 0
-186 -316 0
-1038 -1168 0
-1890 -2020 0
-2742 -2872 0
-193 -627 0
-1045 -1479 0
-1897 -2331 0
-2749 -3183 0
-196 -297 0
-1048 -1149 0
-1900 -2001 0
-2752 -2853 0
-198 -610 0
-1050 -1462 0
-1902 -2314 0
-2754 -3166 0
-206 -532 0
-1058 -1384 0
-1910 -2236 0
-2762 -3088 0
-207 -315 0
-1059 -1167 0
-1911 -2019 0
-2763 -2871 0
-230 -331 0
-1082 -1183 0
-1934 -2035 0
-2786 -2887 0
-235 -831 0
-1087 -1683 0
-1939 -2535 0
-2791 -3387 0
-247 -263 0
-1099 -1115 0
-1951 -1967 0
-2803 -2819 0
-257 -395 0
-1109 -1247 0
-1961 -2099 0
-2813 -2951 0
-259 -658 0
-1111 -1510 0
-1963 -2362 0
-2815 -3214 0
-276 -481 0
-1128 -1333 0
-1980 -2185 0
-2832 -3037 0
-283 -478 0
-1135 -1330 0
-1987 -2182 0
-2839 -3034 0
-285 -387 0
-1137 -1239 0
-1989 -2091 0
-2841 -2943 0
-288 -569 0
-1140 -1421 0
-1992 -2273 0
-2844 -3125 0
-304 -670 0
-1156 -1522 0
-2008 -2374 0
-2860 -3226 0
-309 -821 0
-1161 -1673 0
-2013 -2525 0
-2865 -3377 0
-350 -812 0
-1202 -1664 0
-2054 -2516 0
-2906 -3368 0
-359 -846 0
-1211 -1698 0
-2063 -2550 0
-2915 -3402 0
-381 -742 0
-1233 -1594 0
-2085 -2446 0
-2937 -3298 0
-426 -652 0
-1278 -1504 0
-2130 -2356 0
-2982 -3208 0
-439 -771 0
-1291 -1623 0
-2143 -2475 0
-2995 -3327 0
-441 -651 0
-1293 -1503 0
-2145 -2355 0
-2997 -3207 0
-462 -511 0
-1314 -1363 0
-2166 -2215 0
-3018 -3067 0
-494 -571 0
-1346 -1423 0
-2198 -2275 0
-3050 -3127 0
-527 -744 0
-1379 -1596 0
-2231 -2448 0
-3083 -3300 0
-531 -646 0
-1383 -1498 0
-2235 -2350 0
-3087 -3202 0
-562 -591 0
-1414 -1443 0
-2266 -2295 0
-3118 -3147 0
-602 -609 0
-1454 -1461 0
-2306 -2313 0
-3158 -3165 0
-611 -680 0
-1463 -1532 0
-2315 -2384 0
-3167 -3236 0
-650 -688 0
-1502 -1540 0
-2354 -2392 0
-3206 -3244 0
-765 -827 0
-1617 -1679 0
-2469 -2531 0
-3321 -3383 0
-23 -96 0
-875 -948 0
-1727 -1800 0
-2579 -2652 0
-26 -309 0
-878 -1161 0
-1730 -2013 0
-2582 -2865 0
-33 -659 0
-885 -1511 0
-1737 -2363 0
-2589 -3215 0
-34 -618 0
-886 -1470 0
-1738 -2322 0
-2590 -3174 0
-39 -213 0
-891 -1065 0
-1743 -1917 0
-2595 -2769 0
-56 -367 0
-908 -1219 0
-1760 -2071 0
-2612 -2923 0
-63 -562 0
-915 -1414 0
-1767 -2266 0
-2619 -3118 0
-71 -338 0
-923 -1190 0
-1775 -2042 0
-2627 -2894 0
-87 -233 0
-939 -1085 0
-1791 -1937 0
-2643 -2789 0
-90 -383 0
-942 -1235 0
-1794 -2087 0
-2646 -2939 0
-102 -591 0
-954 -1443 0
-1806 -2295 0
-2658 -3147 0
-117 -807 0
-969 -1659 0
-1821 -2511 0
-2673 -3363 0
-134 -791 0
-986 -1643 0
-1838 -2495 0
-2690 -3347 0
-135 -615 0
-987 -1467 0
-1839 -2319 0
-2691 -3171 0
-146 -349 0
-998 -1201 0
-1850 -2053 0
-2702 -2905 0
-160 -724 0
-1012 -1576 0
-1864 -2428 0
-2716 -3280 0
-162 -209 0
-1014 -1061 0
-1866 -1913 0
-2718 -2765 0
-170 -300 0
-1022 -1152 0
-1874 -2004 0
-2726 -2856 0
-199 -838 0
-1051 -1690 0
-1903 -2542 0
-2755 -3394 0
-208 -736 0
-1060 -1588 0
-1912 -2440 0
-2764 -3292 0
-219 -521 0
-1071 -1373 0
-1923 -2225 0
-2775 -3077 0
-324 -339 0
-1176 -1191 0
-2028 -2043 0
-2880 -2895 0
-342 -550 0
-1194 -1402 0
-2046 -2254 0
-2898 -3106 0
-375 -673 0
-1227 -1525 0
-2079 -2377 0
-2931 -3229 0
-432 -779 0
-1284 -1631 0
-2136 -2483 0
-2988 -3335 0
-464 -821 0
-1316 -1673 0
-2168 -2525 0
-3020 -3377 0
-477 -813 0
-1329 -1665 0
-2181 -2517 0
-3033 -3369 0
-523 -525 0
-1375 -1377 0
-2227 -2229 0
-3079 -3081 0
-537 -643 0
-1389 -1495 0
-2241 -2347 0
-3093 -3199 0
-564 -761 0
-1416 -1613 0
-2268 -2465 0
-3120 -3317 0
-590 -657 0
-1442 -1509 0
-2294 -2361 0
-3146 -3213 0
-674 -773 0
-1526 -1625 0
-2378 -2477 0
-3230 -3329 0
-710 -800 0
-1562 -1652 0
-2414 -2504 0
-3266 -3356 0
-725 -802 0
-1577 -1654 0
-2429 -2506 0
-3281 -3358 0
-747 -767 0
-1599 -1619 0
-2451 -2471 0
-3303 -3323 0
-5 -6 0
-857 -858 0
-1709 -1710 0
-2561 -2562 0
-8 -357 0
-860 -1209 0
-1712 -2061 0
-2564 -2913 0
-9 -505 0
-861 -1357 0
-1713 -2209 0
-2565 -3061 0
-15 -401 0
-867 -1253 0
-1719 -2105 0
-2571 -2957 0
-23 -500 0
-875 -1352 0
-1727 -2204 0
-2579 -3056 0
-24 -25 0
-876 -877 0
-1728 -1729 0
-2580 -2581 0
-33 -698 0
-885 -1550 0
-1737 -2402 0
-2589 -3254 0
-34 -442 0
-886 -1294 0
-1738 -2146 0
-2590 -2998 0
-41 -243 0
-893 -1095 0
-1745 -1947 0
-2597 -2799 0
-48 -782 0
-900 -1634 0
-1752 -2486 0
-2604 -3338 0
-59 -278 0
-911 -1130 0
-1763 -1982 0
-2615 -2834 0
-63 -242 0
-915 -1094 0
-1767 -1946 0
-2619 -2798 0
-67 -302 0
-919 -1154 0
-1771 -2006 0
-2623 -2858 0
-96 -330 0
-948 -1182 0
-1800 -2034 0
-2652 -2886 0
-98 -127 0
-950 -979 0
-1802 -1831 0
-2654 -2683 0
-102 -160 0
-954 -1012 0
-1806 -1864 0
-2658 -2716 0
-108 -321 0
-960 -1173 0
-1812 -2025 0
-2664 -2877 0
-109 -539 0
-961 -1391 0
-1813 -2243 0
-2665 -3095 0
-110 -197 0
-962 -1049 0
-1814 -1901 0
-2666 -2753 0
-122 -374 0
-974 -1226 0
-1826 -2078 0
-2678 -2930 0
-143 -509 0
-995 -1361 0
-1847 -2213 0
-2699 -3065 0
-147 -825 0
-999 -1677 0
-1851 -2529 0
-2703 -3381 0
-149 -671 0
-1001 -1523 0
-1853 -2375 0
-2705 -3227 0
-152 -459 0
-1004 -1311 0
-1856 -2163 0
-2708 -3015 0
-157 -438 0
-1009 -1290 0
-1861 -2142 0
-2713 -2994 0
-173 -247 0
-1025 -1099 0
-1877 -1951 0
-2729 -2803 0
-184 -200 0
-1036 -1052 0
-1888 -1904 0
-2740 -2756 0
-186 -786 0
-1038 -1638 0
-1890 -2490 0
-2742 -3342 0
-187 -377 0
-1039 -1229 0
-1891 -2081 0
-2743 -2933 0
-199 -748 0
-1051 -1600 0
-1903 -2452 0
-2755 -3304 0
-202 -254 0
-1054 -1106 0
-1906 -1958 0
-2758 -2810 0
-209 -495 0
-1061 -1347 0
-1913 -2199 0
-2765 -3051 0
-223 -704 0
-1075 -1556 0
-1927 -2408 0
-2779 -3260 0
-231 -312 0
-1083 -1164 0
-1935 -2016 0
-2787 -2868 0
-249 -255 0
-1101 -1107 0
-1953 -1959 0
-2805 -2811 0
-253 -258 0
-1105 -1110 0
-1957 -1962 0
-2809 -2814 0
-256 -267 0
-1108 -1119 0
-1960 -1971 0
-2812 -2823 0
-269 -410 0
-1121 -1262 0
-1973 -2114 0
-2825 -2966 0
-276 -816 0
-1128 -1668 0
-1980 -2520 0
-2832 -3372 0
-289 -358 0
-1141 -1210 0
-1993 -2062 0
-2845 -2914 0
-293 -729 0
-1145 -1581 0
-1997 -2433 0
-2849 -3285 0
-297 -427 0
-1149 -1279 0
-2001 -2131 0
-2853 -2983 0
-310 -701 0
-1162 -1553 0
-2014 -2405 0
-2866 -3257 0
-315 -487 0
-1167 -1339 0
-2019 -2191 0
-2871 -3043 0
-322 -504 0
-1174 -1356 0
-2026 -2208 0
-2878 -3060 0
-331 -586 0
-1183 -1438 0
-2035 -2290 0
-2887 -3142 0
-342 -517 0
-1194 -1369 0
-2046 -2221 0
-2898 -3073 0
-370 -785 0
-1222 -1637 0
-2074 -2489 0
-2926 -3341 0
-384 -644 0
-1236 -1496 0
-2088 -2348 0
-2940 -3200 0
-433 -781 0
-1285 -1633 0
-2137 -2485 0
-2989 -3337 0
-436 -753 0
-1288 -1605 0
-2140 -2457 0
-2992 -3309 0
-441 -703 0
-1293 -1555 0
-2145 -2407 0
-2997 -3259 0
-467 -491 0
-1319 -1343 0
-2171 -2195 0
-3023 -3047 0
-507 -819 0
-1359 -1671 0
-2211 -2523 0
-3063 -3375 0
-538 -579 0
-1390 -1431 0
-2242 -2283 0
-3094 -3135 0
-563 -763 0
-1415 -1615 0
-2267 -2467 0
-3119 -3319 0
-591 -724 0
-1443 -1576 0
-2295 -2428 0
-3147 -3280 0
-734 -755 0
-1586 -1607 0
-2438 -2459 0
-3290 -3311 0
-11 -621 0
-863 -1473 0
-1715 -2325 0
-2567 -3177 0
-22 -512 0
-874 -1364 0
-1726 -2216 0
-2578 -3068 0
-23 -835 0
-875 -1687 0
-1727 -2539 0
-2579 -3391 0
-26 -334 0
-878 -1186 0
-1730 -2038 0
-2582 -2890 0
-33 -537 0
-885 -1389 0
-1737 -2241 0
-2589 -3093 0
-34 -342 0
-886 -1194 0
-1738 -2046 0
-2590 -2898 0
-37 -251 0
-889 -1103 0
-1741 -1955 0
-2593 -2807 0
-44 -486 0
-896 -1338 0
-1748 -2190 0
-2600 -3042 0
-53 -161 0
-905 -1013 0
-1757 -1865 0
-2609 -2717 0
-59 -628 0
-911 -1480 0
-1763 -2332 0
-2615 -3184 0
-69 -483 0
-921 -1335 0
-1773 -2187 0
-2625 -3039 0
-76 -264 0
-928 -1116 0
-1780 -1968 0
-2632 -2820 0
-81 -227 0
-933 -1079 0
-1785 -1931 0
-2637 -2783 0
-82 -137 0
-934 -989 0
-1786 -1841 0
-2638 -2693 0
-86 -839 0
-938 -1691 0
-1790 -2543 0
-2642 -3395 0
-89 -346 0
-941 -1198 0
-1793 -2050 0
-2645 -2902 0
-100 -809 0
-952 -1661 0
-1804 -2513 0
-2656 -3365 0
-107 -303 0
-959 -1155 0
-1811 -2007 0
-2663 -2859 0
-109 -830 0
-961 -1682 0
-1813 -2534 0
-2665 -3386 0
-116 -229 0
-968 -1081 0
-1820 -1933 0
-2672 -2785 0
-132 -728 0
-984 -1580 0
-1836 -2432 0
-2688 -3284 0
-134 -219 0
-986 -1071 0
-1838 -1923 0
-2690 -2775 0
-147 -806 0
-999 -1658 0
-1851 -2510 0
-2703 -3362 0
-158 -553 0
-1010 -1405 0
-1862 -2257 0
-2714 -3109 0
-159 -325 0
-1011 -1177 0
-1863 -2029 0
-2715 -2881 0
-186 -322 0
-1038 -1174 0
-1890 -2026 0
-2742 -2878 0
-190 -631 0
-1042 -1483 0
-1894 -2335 0
-2746 -3187 0
-204 -566 0
-1056 -1418 0
-1908 -2270 0
-2760 -3122 0
-212 -433 0
-1064 -1285 0
-1916 -2137 0
-2768 -2989 0
-232 -680 0
-1084 -1532 0
-1936 -2384 0
-2788 -3236 0
-249 -827 0
-1101 -1679 0
-1953 -2531 0
-2805 -3383 0
-269 -676 0
-1121 -1528 0
-1973 -2380 0
-2825 -3232 0
-275 -752 0
-1127 -1604 0
-1979 -2456 0
-2831 -3308 0
-324 -523 0
-1176 -1375 0
-2028 -2227 0
-2880 -3079 0
-339 -525 0
-1191 -1377 0
-2043 -2229 0
-2895 -3081 0
-343 -707 0
-1195 -1559 0
-2047 -2411 0
-2899 -3263 0
-344 -370 0
-1196 -1222 0
-2048 -2074 0
-2900 -2926 0
-373 -577 0
-1225 -1429 0
-2077 -2281 0
-2929 -3133 0
-376 -552 0
-1228 -1404 0
-2080 -2256 0
-2932 -3108 0
-378 -667 0
-1230 -1519 0
-2082 -2371 0
-2934 -3223 0
-379 -611 0
-1231 -1463 0
-2083 -2315 0
-2935 -3167 0
-405 -750 0
-1257 -1602 0
-2109 -2454 0
-2961 -3306 0
-435 -453 0
-1287 -1305 0
-2139 -2157 0
-2991 -3009 0
-442 -517 0
-1294 -1369 0
-2146 -2221 0
-2998 -3073 0
-462 -639 0
-1314 -1491 0
-2166 -2343 0
-3018 -3195 0
-499 -765 0
-1351 -1617 0
-2203 -2469 0
-3055 -3321 0
-502 -569 0
-1354 -1421 0
-2206 -2273 0
-3058 -3125 0
-524 -850 0
-1376 -1702 0
-2228 -2554 0
-3080 -3406 0
-528 -756 0
-1380 -1608 0
-2232 -2460 0
-3084 -3312 0
-540 -665 0
-1392 -1517 0
-2244 -2369 0
-3096 -3221 0
-547 -735 0
-1399 -1587 0
-2251 -2439 0
-3103 -3291 0
-549 -714 0
-1401 -1566 0
-2253 -2418 0
-3105 -3270 0
-596 -811 0
-1448 -1663 0
-2300 -2515 0
-3152 -3367 0
-625 -630 0
-1477 -1482 0
-2329 -2334 0
-3181 -3186 0
-641 -656 0
-1493 -1508 0
-2345 -2360 0
-3197 -3212 0
-662 -710 0
-1514 -1562 0
-2366 -2414 0
-3218 -3266 0
-703 -753 0
-1555 -1605 0
-2407 -2457 0
-3259 -3309 0
-716 -768 0
-1568 -1620 0
-2420 -2472 0
-3272 -3324 0
-11 -405 0
-863 -1257 0
-1715 -2109 0
-2567 -2961 0
-22 -607 0
-874 -1459 0
-1726 -2311 0
-2578 -3163 0
-26 -90 0
-878 -942 0
-1730 -1794 0
-2582 -2646 0
-33 -59 0
-885 -911 0
-1737 -1763 0
-2589 -2615 0
-34 -158 0
-886 -1010 0
-1738 -1862 0
-2590 -2714 0
-39 -86 0
-891 -938 0
-1743 -1790 0
-2595 -2642 0
-42 -295 0
-894 -1147 0
-1746 -1999 0
-2598 -2851 0
-43 -139 0
-895 -991 0
-1747 -1843 0
-2599 -2695 0
-44 -69 0
-896 -921 0
-1748 -1773 0
-2600 -2625 0
-45 -314 0
-897 -1166 0
-1749 -2018 0
-2601 -2870 0
-62 -333 0
-914 -1185 0
-1766 -2037 0
-2618 -2889 0
-67 -297 0
-919 -1149 0
-1771 -2001 0
-2623 -2853 0
-68 -793 0
-920 -1645 0
-1772 -2497 0
-2624 -3349 0
-72 -340 0
-924 -1192 0
-1776 -2044 0
-2628 -2896 0
-87 -445 0
-939 -1297 0
-1791 -2149 0
-2643 -3001 0
-92 -452 0
-944 -1304 0
-1796 -2156 0
-2648 -3008 0
-97 -339 0
-949 -1191 0
-1801 -2043 0
-2653 -2895 0
-100 -378 0
-952 -1230 0
-1804 -2082 0
-2656 -2934 0
-101 -114 0
-953 -966 0
-1805 -1818 0
-2657 -2670 0
-103 -795 0
-955 -1647 0
-1807 -2499 0
-2659 -3351 0
-104 -705 0
-956 -1557 0
-1808 -2409 0
-2660 -3261 0
-107 -417 0
-959 -1269 0
-1811 -2121 0
-2663 -2973 0
-108 -331 0
-960 -1183 0
-1812 -2035 0
-2664 -2887 0
-110 -301 0
-962 -1153 0
-1814 -2005 0
-2666 -2857 0
-121 -230 0
-973 -1082 0
-1825 -1934 0
-2677 -2786 0
-123 -130 0
-975 -982 0
-1827 -1834 0
-2679 -2686 0
-125 -424 0
-977 -1276 0
-1829 -2128 0
-2681 -2980 0
-127 -587 0
-979 -1439 0
-1831 -2291 0
-2683 -3143 0
-138 -236 0
-990 -1088 0
-1842 -1940 0
-2694 -2792 0
-144 -196 0
-996 -1048 0
-1848 -1900 0
-2700 -2752 0
-151 -647 0
-1003 -1499 0
-1855 -2351 0
-2707 -3203 0
-165 -232 0
-1017 -1084 0
-1869 -1936 0
-2721 -2788 0
-168 -187 0
-1020 -1039 0
-1872 -1891 0
-2724 -2743 0
-175 -534 0
-1027 -1386 0
-1879 -2238 0
-2731 -3090 0
-179 -320 0
-1031 -1172 0
-1883 -2024 0
-2735 -2876 0
-182 -416 0
-1034 -1268 0
-1886 -2120 0
-2738 -2972 0
-188 -252 0
-1040 -1104 0
-1892 -1956 0
-2744 -2808 0
-189 -451 0
-1041 -1303 0
-1893 -2155 0
-2745 -3007 0
-191 -458 0
-1043 -1310 0
-1895 -2162 0
-2747 -3014 0
-205 -428 0
-1057 -1280 0
-1909 -2132 0
-2761 -2984 0
-206 -259 0
-1058 -1111 0
-1910 -1963 0
-2762 -2815 0
-214 -332 0
-1066 -1184 0
-1918 -2036 0
-2770 -2888 0
-216 -402 0
-1068 -1254 0
-1920 -2106 0
-2772 -2958 0
-219 -329 0
-1071 -1181 0
-1923 -2033 0
-2775 -2885 0
-227 -804 0
-1079 -1656 0
-1931 -2508 0
-2783 -3360 0
-239 -261 0
-1091 -1113 0
-1943 -1965 0
-2795 -2817 0
-243 -401 0
-1095 -1253 0
-1947 -2105 0
-2799 -2957 0
-254 -509 0
-1106 -1361 0
-1958 -2213 0
-2810 -3065 0
-266 -542 0
-1118 -1394 0
-1970 -2246 0
-2822 -3098 0
-267 -374 0
-1119 -1226 0
-1971 -2078 0
-2823 -2930 0
-268 -317 0
-1120 -1169 0
-1972 -2021 0
-2824 -2873 0
-302 -427 0
-1154 -1279 0
-2006 -2131 0
-2858 -2983 0
-304 -588 0
-1156 -1440 0
-2008 -2292 0
-2860 -3144 0
-309 -383 0
-1161 -1235 0
-2013 -2087 0
-2865 -2939 0
-312 -611 0
-1164 -1463 0
-2016 -2315 0
-2868 -3167 0
-321 -586 0
-1173 -1438 0
-2025 -2290 0
-2877 -3142 0
-342 -553 0
-1194 -1405 0
-2046 -2257 0
-2898 -3109 0
-358 -379 0
-1210 -1231 0
-2062 -2083 0
-2914 -2935 0
-430 -524 0
-1282 -1376 0
-2134 -2228 0
-2986 -3080 0
-432 -450 0
-1284 -1302 0
-2136 -2154 0
-2988 -3006 0
-470 -563 0
-1322 -1415 0
-2174 -2267 0
-3026 -3119 0
-476 -609 0
-1328 -1461 0
-2180 -2313 0
-3032 -3165 0
-502 -699 0
-1354 -1551 0
-2206 -2403 0
-3058 -3255 0
-532 -658 0
-1384 -1510 0
-2236 -2362 0
-3088 -3214 0
-537 -628 0
-1389 -1480 0
-2241 -2332 0
-3093 -3184 0
-543 -593 0
-1395 -1445 0
-2247 -2297 0
-3099 -3149 0
-548 -571 0
-1400 -1423 0
-2252 -2275 0
-3104 -3127 0
-551 -849 0
-1403 -1701 0
-2255 -2553 0
-3107 -3405 0
-569 -627 0
-1421 -1479 0
-2273 -2331 0
-3125 -3183 0
-572 -619 0
-1424 -1471 0
-2276 -2323 0
-3128 -3175 0
-579 -654 0
-1431 -1506 0
-2283 -2358 0
-3135 -3210 0
-621 -750 0
-1473 -1602 0
-2325 -2454 0
-3177 -3306 0
-633 -653 0
-1485 -1505 0
-2337 -2357 0
-3189 -3209 0
-730 -848 0
-1582 -1700 0
-2434 -2552 0
-3286 -3404 0
-4 -724 0
-856 -1576 0
-1708 -2428 0
-2560 -3280 0
-8 -688 0
-860 -1540 0
-1712 -2392 0
-2564 -3244 0
-10 -160 0
-862 -1012 0
-1714 -1864 0
-2566 -2716 0
-23 -244 0
-875 -1096 0
-1727 -1948 0
-2579 -2800 0
-25 -505 0
-877 -1357 0
-1729 -2209 0
-2581 -3061 0
-33 -559 0
-885 -1411 0
-1737 -2263 0
-2589 -3115 0
-39 -123 0
-891 -975 0
-1743 -1827 0
-2595 -2679 0
-51 -176 0
-903 -1028 0
-1755 -1880 0
-2607 -2732 0
-53 -650 0
-905 -1502 0
-1757 -2354 0
-2609 -3206 0
-56 -729 0
-908 -1581 0
-1760 -2433 0
-2612 -3285 0
-72 -165 0
-924 -1017 0
-1776 -1869 0
-2628 -2721 0
-80 -200 0
-932 -1052 0
-1784 -1904 0
-2636 -2756 0
-86 -130 0
-938 -982 0
-1790 -1834 0
-2642 -2686 0
-93 -357 0
-945 -1209 0
-1797 -2061 0
-2649 -2913 0
-141 -290 0
-993 -1142 0
-1845 -1994 0
-2697 -2846 0
-142 -233 0
-994 -1085 0
-1846 -1937 0
-2698 -2789 0
-144 -717 0
-996 -1569 0
-1848 -2421 0
-2700 -3273 0
-161 -355 0
-1013 -1207 0
-1865 -2059 0
-2717 -2911 0
-168 -239 0
-1020 -1091 0
-1872 -1943 0
-2724 -2795 0
-171 -194 0
-1023 -1046 0
-1875 -1898 0
-2727 -2750 0
-187 -261 0
-1039 -1113 0
-1891 -1965 0
-2743 -2817 0
-193 -624 0
-1045 -1476 0
-1897 -2328 0
-2749 -3180 0
-198 -224 0
-1050 -1076 0
-1902 -1928 0
-2754 -2780 0
-199 -225 0
-1051 -1077 0
-1903 -1929 0
-2755 -2781 0
-210 -316 0
-1062 -1168 0
-1914 -2020 0
-2766 -2872 0
-219 -267 0
-1071 -1119 0
-1923 -1971 0
-2775 -2823 0
-222 -510 0
-1074 -1362 0
-1926 -2214 0
-2778 -3066 0
-231 -319 0
-1083 -1171 0
-1935 -2023 0
-2787 -2875 0
-272 -487 0
-1124 -1339 0
-1976 -2191 0
-2828 -3043 0
-313 -365 0
-1165 -1217 0
-2017 -2069 0
-2869 -2921 0
-328 -352 0
-1180 -1204 0
-2032 -2056 0
-2884 -2908 0
-329 -374 0
-1181 -1226 0
-2033 -2078 0
-2885 -2930 0
-345 -565 0
-1197 -1417 0
-2049 -2269 0
-2901 -3121 0
-363 -533 0
-1215 -1385 0
-2067 -2237 0
-2919 -3089 0
-390 -442 0
-1242 -1294 0
-2094 -2146 0
-2946 -2998 0
-447 -656 0
-1299 -1508 0
-2151 -2360 0
-3003 -3212 0
-448 -491 0
-1300 -1343 0
-2152 -2195 0
-3004 -3047 0
-461 -641 0
-1313 -1493 0
-2165 -2345 0
-3017 -3197 0
-519 -520 0
-1371 -1372 0
-2223 -2224 0
-3075 -3076 0
-567 -666 0
-1419 -1518 0
-2271 -2370 0
-3123 -3222 0
-602 -642 0
-1454 -1494 0
-2306 -2346 0
-3158 -3198 0
-636 -638 0
-1488 -1490 0
-2340 -2342 0
-3192 -3194 0
-718 -767 0
-1570 -1619 0
-2422 -2471 0
-3274 -3323 0
-3 -402 0
-855 -1254 0
-1707 -2106 0
-2559 -2958 0
-9 -61 0
-861 -913 0
-1713 -1765 0
-2565 -2617 0
-18 -19 0
-870 -871 0
-1722 -1723 0
-2574 -2575 0
-21 -341 0
-873 -1193 0
-1725 -2045 0
-2577 -2897 0
-24 -157 0
-876 -1009 0
-1728 -1861 0
-2580 -2713 0
-25 -438 0
-877 -1290 0
-1729 -2142 0
-2581 -2994 0
-29 -228 0
-881 -1080 0
-1733 -1932 0
-2585 -2784 0
-32 -216 0
-884 -1068 0
-1736 -1920 0
-2588 -2772 0
-37 -38 0
-889 -890 0
-1741 -1742 0
-2593 -2594 0
-45 -266 0
-897 -1118 0
-1749 -1970 0
-2601 -2822 0
-51 -629 0
-903 -1481 0
-1755 -2333 0
-2607 -3185 0
-53 -461 0
-905 -1313 0
-1757 -2165 0
-2609 -3017 0
-58 -682 0
-910 -1534 0
-1762 -2386 0
-2614 -3238 0
-78 -263 0
-930 -1115 0
-1782 -1967 0
-2634 -2819 0
-119 -318 0
-971 -1170 0
-1823 -2022 0
-2675 -2874 0
-132 -292 0
-984 -1144 0
-1836 -1996 0
-2688 -2848 0
-135 -669 0
-987 -1521 0
-1839 -2373 0
-2691 -3225 0
-161 -447 0
-1013 -1299 0
-1865 -2151 0
-2717 -3003 0
-169 -740 0
-1021 -1592 0
-1873 -2444 0
-2725 -3296 0
-176 -582 0
-1028 -1434 0
-1880 -2286 0
-2732 -3138 0
-180 -395 0
-1032 -1247 0
-1884 -2099 0
-2736 -2951 0
-186 -754 0
-1038 -1606 0
-1890 -2458 0
-2742 -3310 0
-193 -222 0
-1045 -1074 0
-1897 -1926 0
-2749 -2778 0
-195 -240 0
-1047 -1092 0
-1899 -1944 0
-2751 -2796 0
-226 -469 0
-1078 -1321 0
-1930 -2173 0
-2782 -3025 0
-269 -829 0
-1121 -1681 0
-1973 -2533 0
-2825 -3385 0
-298 -473 0
-1150 -1325 0
-2002 -2177 0
-2854 -3029 0
-314 -542 0
-1166 -1394 0
-2018 -2246 0
-2870 -3098 0
-322 -732 0
-1174 -1584 0
-2026 -2436 0
-2878 -3288 0
-350 -556 0
-1202 -1408 0
-2054 -2260 0
-2906 -3112 0
-351 -845 0
-1203 -1697 0
-2055 -2549 0
-2907 -3401 0
-355 -656 0
-1207 -1508 0
-2059 -2360 0
-2911 -3212 0
-359 -479 0
-1211 -1331 0
-2063 -2183 0
-2915 -3035 0
-369 -398 0
-1221 -1250 0
-2073 -2102 0
-2925 -2954 0
-370 -752 0
-1222 -1604 0
-2074 -2456 0
-2926 -3308 0
-392 -777 0
-1244 -1629 0
-2096 -2481 0
-2948 -3333 0
-407 -683 0
-1259 -1535 0
-2111 -2387 0
-2963 -3239 0
-419 -485 0
-1271 -1337 0
-2123 -2189 0
-2975 -3041 0
-423 -475 0
-1275 -1327 0
-2127 -2179 0
-2979 -3031 0
-426 -774 0
-1278 -1626 0
-2130 -2478 0
-2982 -3330 0
-439 -709 0
-1291 -1561 0
-2143 -2413 0
-2995 -3265 0
-440 -530 0
-1292 -1382 0
-2144 -2234 0
-2996 -3086 0
-460 -706 0
-1312 -1558 0
-2164 -2410 0
-3016 -3262 0
-467 -778 0
-1319 -1630 0
-2171 -2482 0
-3023 -3334 0
-498 -597 0
-1350 -1449 0
-2202 -2301 0
-3054 -3153 0
-561 -623 0
-1413 -1475 0
-2265 -2327 0
-3117 -3179 0
-626 -712 0
-1478 -1564 0
-2330 -2416 0
-3182 -3268 0
-677 -763 0
-1529 -1615 0
-2381 -2467 0
-3233 -3319 0
-39 -655 0
-891 -1507 0
-1743 -2359 0
-2595 -3211 0
-58 -351 0
-910 -1203 0
-1762 -2055 0
-2614 -2907 0
-63 -99 0
-915 -951 0
-1767 -1803 0
-2619 -2655 0
-72 -93 0
-924 -945 0
-1776 -1797 0
-2628 -2649 0
-74 -113 0
-926 -965 0
-1778 -1817 0
-2630 -2669 0
-87 -504 0
-939 -1356 0
-1791 -2208 0
-2643 -3060 0
-92 -106 0
-944 -958 0
-1796 -1810 0
-2648 -2662 0
-100 -285 0
-952 -1137 0
-1804 -1989 0
-2656 -2841 0
-102 -150 0
-954 -1002 0
-1806 -1854 0
-2658 -2706 0
-116 -482 0
-968 -1334 0
-1820 -2186 0
-2672 -3038 0
-147 -727 0
-999 -1579 0
-1851 -2431 0
-2703 -3283 0
-151 -785 0
-1003 -1637 0
-1855 -2489 0
-2707 -3341 0
-158 -405 0
-1010 -1257 0
-1862 -2109 0
-2714 -2961 0
-165 -357 0
-1017 -1209 0
-1869 -2061 0
-2721 -2913 0
-183 -414 0
-1035 -1266 0
-1887 -2118 0
-2739 -2970 0
-184 -192 0
-1036 -1044 0
-1888 -1896 0
-2740 -2748 0
-188 -201 0
-1040 -1053 0
-1892 -1905 0
-2744 -2757 0
-226 -392 0
-1078 -1244 0
-1930 -2096 0
-2782 -2948 0
-239 -644 0
-1091 -1496 0
-1943 -2348 0
-2795 -3200 0
-262 -329 0
-1114 -1181 0
-1966 -2033 0
-2818 -2885 0
-284 -333 0
-1136 -1185 0
-1988 -2037 0
-2840 -2889 0
-319 -355 0
-1171 -1207 0
-2023 -2059 0
-2875 -2911 0
-342 -621 0
-1194 -1473 0
-2046 -2325 0
-2898 -3177 0
-365 -427 0
-1217 -1279 0
-2069 -2131 0
-2921 -2983 0
-412 -496 0
-1264 -1348 0
-2116 -2200 0
-2968 -3052 0
-422 -600 0
-1274 -1452 0
-2126 -2304 0
-2978 -3156 0
-436 -555 0
-1288 -1407 0
-2140 -2259 0
-2992 -3111 0
-458 -607 0
-1310 -1459 0
-2162 -2311 0
-3014 -3163 0
-469 -777 0
-1321 -1629 0
-2173 -2481 0
-3025 -3333 0
-508 -816 0
-1360 -1668 0
-2212 -2520 0
-3064 -3372 0
-543 -565 0
-1395 -1417 0
-2247 -2269 0
-3099 -3121 0
-553 -750 0
-1405 -1602 0
-2257 -2454 0
-3109 -3306 0
-580 -586 0
-1432 -1438 0
-2284 -2290 0
-3136 -3142 0
-603 -698 0
-1455 -1550 0
-2307 -2402 0
-3159 -3254 0
-682 -845 0
-1534 -1697 0
-2386 -2549 0
-3238 -3401 0
-7 -525 0
-859 -1377 0
-1711 -2229 0
-2563 -3081 0
-8 -311 0
-860 -1163 0
-1712 -2015 0
-2564 -2867 0
-11 -250 0
-863 -1102 0
-1715 -1954 0
-2567 -2806 0
-27 -339 0
-879 -1191 0
-1731 -2043 0
-2583 -2895 0
-34 -420 0
-886 -1272 0
-1738 -2124 0
-2590 -2976 0
-35 -399 0
-887 -1251 0
-1739 -2103 0
-2591 -2955 0
-43 -615 0
-895 -1467 0
-1747 -2319 0
-2599 -3171 0
-51 -193 0
-903 -1045 0
-1755 -1897 0
-2607 -2749 0
-53 -716 0
-905 -1568 0
-1757 -2420 0
-2609 -3272 0
-63 -426 0
-915 -1278 0
-1767 -2130 0
-2619 -2982 0
-74 -648 0
-926 -1500 0
-1778 -2352 0
-2630 -3204 0
-76 -97 0
-928 -949 0
-1780 -1801 0
-2632 -2653 0
-81 -255 0
-933 -1107 0
-1785 -1959 0
-2637 -2811 0
-90 -607 0
-942 -1459 0
-1794 -2311 0
-2646 -3163 0
-94 -124 0
-946 -976 0
-1798 -1828 0
-2650 -2680 0
-102 -652 0
-954 -1504 0
-1806 -2356 0
-2658 -3208 0
-104 -135 0
-956 -987 0
-1808 -1839 0
-2660 -2691 0
-117 -632 0
-969 -1484 0
-1821 -2336 0
-2673 -3188 0
-118 -259 0
-970 -1111 0
-1822 -1963 0
-2674 -2815 0
-122 -658 0
-974 -1510 0
-1826 -2362 0
-2678 -3214 0
-126 -458 0
-978 -1310 0
-1830 -2162 0
-2682 -3014 0
-143 -627 0
-995 -1479 0
-1847 -2331 0
-2699 -3183 0
-145 -353 0
-997 -1205 0
-1849 -2057 0
-2701 -2909 0
-153 -191 0
-1005 -1043 0
-1857 -1895 0
-2709 -2747 0
-159 -657 0
-1011 -1509 0
-1863 -2361 0
-2715 -3213 0
-161 -768 0
-1013 -1620 0
-1865 -2472 0
-2717 -3324 0
-164 -206 0
-1016 -1058 0
-1868 -1910 0
-2720 -2762 0
-171 -288 0
-1023 -1140 0
-1875 -1992 0
-2727 -2844 0
-174 -359 0
-1026 -1211 0
-1878 -2063 0
-2730 -2915 0
-176 -624 0
-1028 -1476 0
-1880 -2328 0
-2732 -3180 0
-186 -498 0
-1038 -1350 0
-1890 -2202 0
-2742 -3054 0
-195 -492 0
-1047 -1344 0
-1899 -2196 0
-2751 -3048 0
-202 -569 0
-1054 -1421 0
-1906 -2273 0
-2758 -3125 0
-210 -425 0
-1062 -1277 0
-1914 -2129 0
-2766 -2981 0
-236 -314 0
-1088 -1166 0
-1940 -2018 0
-2792 -2870 0
-252 -534 0
-1104 -1386 0
-1956 -2238 0
-2808 -3090 0
-256 -532 0
-1108 -1384 0
-1960 -2236 0
-2812 -3088 0
-277 -792 0
-1129 -1644 0
-1981 -2496 0
-2833 -3348 0
-286 -394 0
-1138 -1246 0
-1990 -2098 0
-2842 -2950 0
-294 -721 0
-1146 -1573 0
-1998 -2425 0
-2850 -3277 0
-328 -349 0
-1180 -1201 0
-2032 -2053 0
-2884 -2905 0
-334 -512 0
-1186 -1364 0
-2038 -2216 0
-2890 -3068 0
-344 -389 0
-1196 -1241 0
-2048 -2093 0
-2900 -2945 0
-366 -661 0
-1218 -1513 0
-2070 -2365 0
-2922 -3217 0
-391 -738 0
-1243 -1590 0
-2095 -2442 0
-2947 -3294 0
-416 -424 0
-1268 -1276 0
-2120 -2128 0
-2972 -2980 0
-429 -759 0
-1281 -1611 0
-2133 -2463 0
-2985 -3315 0
-432 -502 0
-1284 -1354 0
-2136 -2206 0
-2988 -3058 0
-450 -699 0
-1302 -1551 0
-2154 -2403 0
-3006 -3255 0
-467 -626 0
-1319 -1478 0
-2171 -2330 0
-3023 -3182 0
-474 -668 0
-1326 -1520 0
-2178 -2372 0
-3030 -3224 0
-488 -711 0
-1340 -1563 0
-2192 -2415 0
-3044 -3267 0
-513 -775 0
-1365 -1627 0
-2217 -2479 0
-3069 -3331 0
-515 -788 0
-1367 -1640 0
-2219 -2492 0
-3071 -3344 0
-518 -583 0
-1370 -1435 0
-2222 -2287 0
-3074 -3139 0
-526 -834 0
-1378 -1686 0
-2230 -2538 0
-3082 -3390 0
-563 -614 0
-1415 -1466 0
-2267 -2318 0
-3119 -3170 0
-641 -794 0
-1493 -1646 0
-2345 -2498 0
-3197 -3350 0
-733 -820 0
-1585 -1672 0
-2437 -2524 0
-3289 -3376 0
-22 -365 0
-874 -1217 0
-1726 -2069 0
-2578 -2921 0
-37 -578 0
-889 -1430 0
-1741 -2282 0
-2593 -3134 0
-58 -506 0
-910 -1358 0
-1762 -2210 0
-2614 -3062 0
-64 -766 0
-916 -1618 0
-1768 -2470 0
-2620 -3322 0
-78 -680 0
-930 -1532 0
-1782 -2384 0
-2634 -3236 0
-80 -552 0
-932 -1404 0
-1784 -2256 0
-2636 -3108 0
-84 -708 0
-936 -1560 0
-1788 -2412 0
-2640 -3264 0
-100 -829 0
-952 -1681 0
-1804 -2533 0
-2656 -3385 0
-104 -594 0
-956 -1446 0
-1808 -2298 0
-2660 -3150 0
-113 -804 0
-965 -1656 0
-1817 -2508 0
-2669 -3360 0
-115 -145 0
-967 -997 0
-1819 -1849 0
-2671 -2701 0
-135 -580 0
-987 -1432 0
-1839 -2284 0
-2691 -3136 0
-146 -663 0
-998 -1515 0
-1850 -2367 0
-2702 -3219 0
-149 -177 0
-1001 -1029 0
-1853 -1881 0
-2705 -2733 0
-154 -706 0
-1006 -1558 0
-1858 -2410 0
-2710 -3262 0
-155 -262 0
-1007 -1114 0
-1859 -1966 0
-2711 -2818 0
-179 -398 0
-1031 -1250 0
-1883 -2102 0
-2735 -2954 0
-183 -284 0
-1035 -1136 0
-1887 -1988 0
-2739 -2840 0
-185 -313 0
-1037 -1165 0
-1889 -2017 0
-2741 -2869 0
-268 -475 0
-1120 -1327 0
-1972 -2179 0
-2824 -3031 0
-285 -402 0
-1137 -1254 0
-1989 -2106 0
-2841 -2958 0
-286 -563 0
-1138 -1415 0
-1990 -2267 0
-2842 -3119 0
-344 -450 0
-1196 -1302 0
-2048 -2154 0
-2900 -3006 0
-360 -566 0
-1212 -1418 0
-2064 -2270 0
-2916 -3122 0
-389 -699 0
-1241 -1551 0
-2093 -2403 0
-2945 -3255 0
-394 -614 0
-1246 -1466 0
-2098 -2318 0
-2950 -3170 0
-400 -593 0
-1252 -1445 0
-2104 -2297 0
-2956 -3149 0
-408 -424 0
-1260 -1276 0
-2112 -2128 0
-2964 -2980 0
-434 -582 0
-1286 -1434 0
-2138 -2286 0
-2990 -3138 0
-457 -553 0
-1309 -1405 0
-2161 -2257 0
-3013 -3109 0
-476 -551 0
-1328 -1403 0
-2180 -2255 0
-3032 -3107 0
-484 -567 0
-1336 -1419 0
-2188 -2271 0
-3040 -3123 0
-537 -835 0
-1389 -1687 0
-2241 -2539 0
-3093 -3391 0
-603 -719 0
-1455 -1571 0
-2307 -2423 0
-3159 -3275 0
-609 -849 0
-1461 -1701 0
-2313 -2553 0
-3165 -3405 0
-8 -592 0
-860 -1444 0
-1712 -2296 0
-2564 -3148 0
-11 -113 0
-863 -965 0
-1715 -1817 0
-2567 -2669 0
-23 -674 0
-875 -1526 0
-1727 -2378 0
-2579 -3230 0
-30 -241 0
-882 -1093 0
-1734 -1945 0
-2586 -2797 0
-34 -74 0
-886 -926 0
-1738 -1778 0
-2590 -2630 0
-40 -166 0
-892 -1018 0
-1744 -1870 0
-2596 -2722 0
-44 -103 0
-896 -955 0
-1748 -1807 0
-2600 -2659 0
-50 -479 0
-902 -1331 0
-1754 -2183 0
-2606 -3035 0
-62 -258 0
-914 -1110 0
-1766 -1962 0
-2618 -2814 0
-67 -453 0
-919 -1305 0
-1771 -2157 0
-2623 -3009 0
-69 -795 0
-921 -1647 0
-1773 -2499 0
-2625 -3351 0
-72 -640 0
-924 -1492 0
-1776 -2344 0
-2628 -3196 0
-73 -346 0
-925 -1198 0
-1777 -2050 0
-2629 -2902 0
-84 -759 0
-936 -1611 0
-1788 -2463 0
-2640 -3315 0
-91 -105 0
-943 -957 0
-1795 -1809 0
-2647 -2661 0
-92 -257 0
-944 -1109 0
-1796 -1961 0
-2648 -2813 0
-96 -773 0
-948 -1625 0
-1800 -2477 0
-2652 -3329 0
-98 -173 0
-950 -1025 0
-1802 -1877 0
-2654 -2729 0
-111 -359 0
-963 -1211 0
-1815 -2063 0
-2667 -2915 0
-116 -300 0
-968 -1152 0
-1820 -2004 0
-2672 -2856 0
-120 -395 0
-972 -1247 0
-1824 -2099 0
-2676 -2951 0
-127 -247 0
-979 -1099 0
-1831 -1951 0
-2683 -2803 0
-132 -174 0
-984 -1026 0
-1836 -1878 0
-2688 -2730 0
-134 -156 0
-986 -1008 0
-1838 -1860 0
-2690 -2712 0
-141 -253 0
-993 -1105 0
-1845 -1957 0
-2697 -2809 0
-159 -686 0
-1011 -1538 0
-1863 -2390 0
-2715 -3242 0
-169 -429 0
-1021 -1281 0
-1873 -2133 0
-2725 -2985 0
-182 -798 0
-1034 -1650 0
-1886 -2502 0
-2738 -3354 0
-188 -306 0
-1040 -1158 0
-1892 -2010 0
-2744 -2862 0
-214 -735 0
-1066 -1587 0
-1918 -2439 0
-2770 -3291 0
-221 -527 0
-1073 -1379 0
-1925 -2231 0
-2777 -3083 0
-235 -514 0
-1087 -1366 0
-1939 -2218 0
-2791 -3070 0
-284 -667 0
-1136 -1519 0
-1988 -2371 0
-2840 -3223 0
-310 -807 0
-1162 -1659 0
-2014 -2511 0
-2866 -3363 0
-356 -809 0
-1208 -1661 0
-2060 -2513 0
-2912 -3365 0
-366 -391 0
-1218 -1243 0
-2070 -2095 0
-2922 -2947 0
-373 -421 0
-1225 -1273 0
-2077 -2125 0
-2929 -2977 0
-399 -525 0
-1251 -1377 0
-2103 -2229 0
-2955 -3081 0
-420 -648 0
-1272 -1500 0
-2124 -2352 0
-2976 -3204 0
-538 -830 0
-1390 -1682 0
-2242 -2534 0
-3094 -3386 0
-567 -588 0
-1419 -1440 0
-2271 -2292 0
-3123 -3144 0
-584 -718 0
-1436 -1570 0
-2288 -2422 0
-3140 -3274 0
-661 -738 0
-1513 -1590 0
-2365 -2442 0
-3217 -3294 0
-663 -839 0
-1515 -1691 0
-2367 -2543 0
-3219 -3395 0
-668 -846 0
-1520 -1698 0
-2372 -2550 0
-3224 -3402 0
-721 -792 0
-1573 -1644 0
-2425 -2496 0
-3277 -3348 0
-726 -765 0
-1578 -1617 0
-2430 -2469 0
-3282 -3321 0
-1 -387 0
-853 -1239 0
-1705 -2091 0
-2557 -2943 0
-7 -263 0
-859 -1115 0
-1711 -1967 0
-2563 -2819 0
-23 -398 0
-875 -1250 0
-1727 -2102 0
-2579 -2954 0
-24 -229 0
-876 -1081 0
-1728 -1933 0
-2580 -2785 0
-27 -354 0
-879 -1206 0
-1731 -2058 0
-2583 -2910 0
-32 -197 0
-884 -1049 0
-1736 -1901 0
-2588 -2753 0
-33 -179 0
-885 -1031 0
-1737 -1883 0
-2589 -2735 0
-35 -455 0
-887 -1307 0
-1739 -2159 0
-2591 -3011 0
-39 -669 0
-891 -1521 0
-1743 -2373 0
-2595 -3225 0
-53 -82 0
-905 -934 0
-1757 -1786 0
-2609 -2638 0
-59 -320 0
-911 -1172 0
-1763 -2024 0
-2615 -2876 0
-63 -71 0
-915 -923 0
-1767 -1775 0
-2619 -2627 0
-64 -135 0
-916 -987 0
-1768 -1839 0
-2620 -2691 0
-83 -110 0
-935 -962 0
-1787 -1814 0
-2639 -2666 0
-89 -285 0
-941 -1137 0
-1793 -1989 0
-2645 -2841 0
-111 -250 0
-963 -1102 0
-1815 -1954 0
-2667 -2806 0
-117 -170 0
-969 -1022 0
-1821 -1874 0
-2673 -2726 0
-136 -517 0
-988 -1369 0
-1840 -2221 0
-2692 -3073 0
-143 -684 0
-995 -1536 0
-1847 -2388 0
-2699 -3240 0
-145 -485 0
-997 -1337 0
-1849 -2189 0
-2701 -3041 0
-149 -154 0
-1001 -1006 0
-1853 -1858 0
-2705 -2710 0
-177 -706 0
-1029 -1558 0
-1881 -2410 0
-2733 -3262 0
-194 -200 0
-1046 -1052 0
-1898 -1904 0
-2750 -2756 0
-212 -215 0
-1064 -1067 0
-1916 -1919 0
-2768 -2771 0
-221 -815 0
-1073 -1667 0
-1925 -2519 0
-2777 -3371 0
-231 -303 0
-1083 -1155 0
-1935 -2007 0
-2787 -2859 0
-235 -482 0
-1087 -1334 0
-1939 -2186 0
-2791 -3038 0
-251 -512 0
-1103 -1364 0
-1955 -2216 0
-2807 -3068 0
-264 -598 0
-1116 -1450 0
-1968 -2302 0
-2820 -3154 0
-272 -438 0
-1124 -1290 0
-1976 -2142 0
-2828 -2994 0
-277 -749 0
-1129 -1601 0
-1981 -2453 0
-2833 -3305 0
-287 -524 0
-1139 -1376 0
-1991 -2228 0
-2843 -3080 0
-293 -464 0
-1145 -1316 0
-1997 -2168 0
-2849 -3020 0
-322 -731 0
-1174 -1583 0
-2026 -2435 0
-2878 -3287 0
-337 -430 0
-1189 -1282 0
-2041 -2134 0
-2893 -2986 0
-515 -811 0
-1367 -1663 0
-2219 -2515 0
-3071 -3367 0
-549 -825 0
-1401 -1677 0
-2253 -2529 0
-3105 -3381 0
-10 -55 0
-862 -907 0
-1714 -1759 0
-2566 -2611 0
-12 -327 0
-864 -1179 0
-1716 -2031 0
-2568 -2883 0
-18 -48 0
-870 -900 0
-1722 -1752 0
-2574 -2604 0
-23 -148 0
-875 -1000 0
-1727 -1852 0
-2579 -2704 0
-24 -128 0
-876 -980 0
-1728 -1832 0
-2580 -2684 0
-25 -112 0
-877 -964 0
-1729 -1816 0
-2581 -2668 0
-30 -246 0
-882 -1098 0
-1734 -1950 0
-2586 -2802 0
-31 -568 0
-883 -1420 0
-1735 -2272 0
-2587 -3124 0
-32 -717 0
-884 -1569 0
-1736 -2421 0
-2588 -3273 0
-33 -163 0
-885 -1015 0
-1737 -1867 0
-2589 -2719 0
-34 -91 0
-886 -943 0
-1738 -1795 0
-2590 -2647 0
-43 -309 0
-895 -1161 0
-1747 -2013 0
-2599 -2865 0
-44 -802 0
-896 -1654 0
-1748 -2506 0
-2600 -3358 0
-45 -233 0
-897 -1085 0
-1749 -1937 0
-2601 -2789 0
-51 -118 0
-903 -970 0
-1755 -1822 0
-2607 -2674 0
-56 -201 0
-908 -1053 0
-1760 -1905 0
-2612 -2757 0
-68 -142 0
-920 -994 0
-1772 -1846 0
-2624 -2698 0
-72 -92 0
-924 -944 0
-1776 -1796 0
-2628 -2648 0
-74 -105 0
-926 -957 0
-1778 -1809 0
-2630 -2661 0
-77 -296 0
-929 -1148 0
-1781 -2000 0
-2633 -2852 0
-81 -641 0
-933 -1493 0
-1785 -2345 0
-2637 -3197 0
-93 -106 0
-945 -958 0
-1797 -1810 0
-2649 -2662 0
-121 -144 0
-973 -996 0
-1825 -1848 0
-2677 -2700 0
-125 -175 0
-977 -1027 0
-1829 -1879 0
-2681 -2731 0
-136 -291 0
-988 -1143 0
-1840 -1995 0
-2692 -2847 0
-138 -280 0
-990 -1132 0
-1842 -1984 0
-2694 -2836 0
-139 -383 0
-991 -1235 0
-1843 -2087 0
-2695 -2939 0
-155 -305 0
-1007 -1157 0
-1859 -2009 0
-2711 -2861 0
-182 -188 0
-1034 -1040 0
-1886 -1892 0
-2738 -2744 0
-193 -259 0
-1045 -1111 0
-1897 -1963 0
-2749 -2815 0
-198 -207 0
-1050 -1059 0
-1902 -1911 0
-2754 -2763 0
-202 -256 0
-1054 -1108 0
-1906 -1960 0
-2758 -2812 0
-215 -597 0
-1067 -1449 0
-1919 -2301 0
-2771 -3153 0
-227 -656 0
-1079 -1508 0
-1931 -2360 0
-2783 -3212 0
-254 -267 0
-1106 -1119 0
-1958 -1971 0
-2810 -2823 0
-255 -794 0
-1107 -1646 0
-1959 -2498 0
-2811 -3350 0
-273 -290 0
-1125 -1142 0
-1977 -1994 0
-2829 -2846 0
-275 -754 0
-1127 -1606 0
-1979 -2458 0
-2831 -3310 0
-300 -338 0
-1152 -1190 0
-2004 -2042 0
-2856 -2894 0
-312 -558 0
-1164 -1410 0
-2016 -2262 0
-2868 -3114 0
-340 -452 0
-1192 -1304 0
-2044 -2156 0
-2896 -3008 0
-363 -522 0
-1215 -1374 0
-2067 -2226 0
-2919 -3078 0
-389 -498 0
-1241 -1350 0
-2093 -2202 0
-2945 -3054 0
-400 -576 0
-1252 -1428 0
-2104 -2280 0
-2956 -3132 0
-424 -534 0
-1276 -1386 0
-2128 -2238 0
-2980 -3090 0
-462 -826 0
-1314 -1678 0
-2166 -2530 0
-3018 -3382 0
-486 -761 0
-1338 -1613 0
-2190 -2465 0
-3042 -3317 0
-502 -661 0
-1354 -1513 0
-2206 -2365 0
-3058 -3217 0
-511 -813 0
-1363 -1665 0
-2215 -2517 0
-3067 -3369 0
-529 -623 0
-1381 -1475 0
-2233 -2327 0
-3085 -3179 0
-627 -658 0
-1479 -1510 0
-2331 -2362 0
-3183 -3214 0
-660 -736 0
-1512 -1588 0
-2364 -2440 0
-3216 -3292 0
-675 -814 0
-1527 -1666 0
-2379 -2518 0
-3231 -3370 0
-696 -825 0
-1548 -1677 0
-2400 -2529 0
-3252 -3381 0
-715 -772 0
-1567 -1624 0
-2419 -2476 0
-3271 -3328 0
-720 -851 0
-1572 -1703 0
-2424 -2555 0
-3276 -3407 0
-763 -777 0
-1615 -1629 0
-2467 -2481 0
-3319 -3333 0
-771 -812 0
-1623 -1664 0
-2475 -2516 0
-3327 -3368 0
-9 -624 0
-861 -1476 0
-1713 -2328 0
-2565 -3180 0
-11 -278 0
-863 -1130 0
-1715 -1982 0
-2567 -2834 0
-24 -193 0
-876 -1045 0
-1728 -1897 0
-2580 -2749 0
-26 -242 0
-878 -1094 0
-1730 -1946 0
-2582 -2798 0
-34 -324 0
-886 -1176 0
-1738 -2028 0
-2590 -2880 0
-35 -654 0
-887 -1506 0
-1739 -2358 0
-2591 -3210 0
-58 -426 0
-910 -1278 0
-1762 -2130 0
-2614 -2982 0
-61 -510 0
-913 -1362 0
-1765 -2214 0
-2617 -3066 0
-67 -353 0
-919 -1205 0
-1771 -2057 0
-2623 -2909 0
-76 -539 0
-928 -1391 0
-1780 -2243 0
-2632 -3095 0
-79 -130 0
-931 -982 0
-1783 -1834 0
-2635 -2686 0
-120 -365 0
-972 -1217 0
-1824 -2069 0
-2676 -2921 0
-128 -259 0
-980 -1111 0
-1832 -1963 0
-2684 -2815 0
-141 -472 0
-993 -1324 0
-1845 -2176 0
-2697 -3028 0
-157 -222 0
-1009 -1074 0
-1861 -1926 0
-2713 -2778 0
-159 -379 0
-1011 -1231 0
-1863 -2083 0
-2715 -2935 0
-165 -410 0
-1017 -1262 0
-1869 -2114 0
-2721 -2966 0
-172 -269 0
-1024 -1121 0
-1876 -1973 0
-2728 -2825 0
-184 -739 0
-1036 -1591 0
-1888 -2443 0
-2740 -3295 0
-192 -299 0
-1044 -1151 0
-1896 -2003 0
-2748 -2855 0
-217 -770 0
-1069 -1622 0
-1921 -2474 0
-2773 -3326 0
-256 -714 0
-1108 -1566 0
-1960 -2418 0
-2812 -3270 0
-274 -642 0
-1126 -1494 0
-1978 -2346 0
-2830 -3198 0
-279 -283 0
-1131 -1135 0
-1983 -1987 0
-2835 -2839 0
-286 -602 0
-1138 -1454 0
-1990 -2306 0
-2842 -3158 0
-318 -667 0
-1170 -1519 0
-2022 -2371 0
-2874 -3223 0
-325 -611 0
-1177 -1463 0
-2029 -2315 0
-2881 -3167 0
-328 -589 0
-1180 -1441 0
-2032 -2293 0
-2884 -3145 0
-342 -523 0
-1194 -1375 0
-2046 -2227 0
-2898 -3079 0
-366 -549 0
-1218 -1401 0
-2070 -2253 0
-2922 -3105 0
-381 -421 0
-1233 -1273 0
-2085 -2125 0
-2937 -2977 0
-477 -848 0
-1329 -1700 0
-2181 -2552 0
-3033 -3404 0
-486 -781 0
-1338 -1633 0
-2190 -2485 0
-3042 -3337 0
-634 -809 0
-1486 -1661 0
-2338 -2513 0
-3190 -3365 0
-682 -774 0
-1534 -1626 0
-2386 -2478 0
-3238 -3330 0
-26 -192 0
-878 -1044 0
-1730 -1896 0
-2582 -2748 0
-34 -273 0
-886 -1125 0
-1738 -1977 0
-2590 -2829 0
-35 -437 0
-887 -1289 0
-1739 -2141 0
-2591 -2993 0
-38 -218 0
-890 -1070 0
-1742 -1922 0
-2594 -2774 0
-72 -108 0
-924 -960 0
-1776 -1812 0
-2628 -2664 0
-76 -217 0
-928 -1069 0
-1780 -1921 0
-2632 -2773 0
-90 -150 0
-942 -1002 0
-1794 -1854 0
-2646 -2706 0
-91 -290 0
-943 -1142 0
-1795 -1994 0
-2647 -2846 0
-98 -141 0
-950 -993 0
-1802 -1845 0
-2654 -2697 0
-107 -110 0
-959 -962 0
-1811 -1814 0
-2663 -2666 0
-125 -569 0
-977 -1421 0
-1829 -2273 0
-2681 -3125 0
-129 -806 0
-981 -1658 0
-1833 -2510 0
-2685 -3362 0
-138 -744 0
-990 -1596 0
-1842 -2448 0
-2694 -3300 0
-142 -643 0
-994 -1495 0
-1846 -2347 0
-2698 -3199 0
-153 -184 0
-1005 -1036 0
-1857 -1888 0
-2709 -2740 0
-155 -537 0
-1007 -1389 0
-1859 -2241 0
-2711 -3093 0
-173 -253 0
-1025 -1105 0
-1877 -1957 0
-2729 -2809 0
-175 -532 0
-1027 -1384 0
-1879 -2236 0
-2731 -3088 0
-182 -202 0
-1034 -1054 0
-1886 -1906 0
-2738 -2758 0
-188 -256 0
-1040 -1108 0
-1892 -1960 0
-2744 -2812 0
-208 -564 0
-1060 -1416 0
-1912 -2268 0
-2764 -3120 0
-209 -827 0
-1061 -1679 0
-1913 -2531 0
-2765 -3383 0
-237 -249 0
-1089 -1101 0
-1941 -1953 0
-2793 -2805 0
-242 -299 0
-1094 -1151 0
-1946 -2003 0
-2798 -2855 0
-247 -258 0
-1099 -1110 0
-1951 -1962 0
-2803 -2814 0
-257 -453 0
-1109 -1305 0
-1961 -2157 0
-2813 -3009 0
-262 -835 0
-1114 -1687 0
-1966 -2539 0
-2818 -3391 0
-276 -384 0
-1128 -1236 0
-1980 -2088 0
-2832 -2940 0
-314 -846 0
-1166 -1698 0
-2018 -2550 0
-2870 -3402 0
-347 -668 0
-1199 -1520 0
-2051 -2372 0
-2903 -3224 0
-348 -735 0
-1200 -1587 0
-2052 -2439 0
-2904 -3291 0
-354 -387 0
-1206 -1239 0
-2058 -2091 0
-2910 -2943 0
-424 -627 0
-1276 -1479 0
-2128 -2331 0
-2980 -3183 0
-458 -652 0
-1310 -1504 0
-2162 -2356 0
-3014 -3208 0
-462 -620 0
-1314 -1472 0
-2166 -2324 0
-3018 -3176 0
-491 -565 0
-1343 -1417 0
-2195 -2269 0
-3047 -3121 0
-515 -728 0
-1367 -1580 0
-2219 -2432 0
-3071 -3284 0
-531 -679 0
-1383 -1531 0
-2235 -2383 0
-3087 -3235 0
-534 -658 0
-1386 -1510 0
-2238 -2362 0
-3090 -3214 0
-539 -770 0
-1391 -1622 0
-2243 -2474 0
-3095 -3326 0
-556 -732 0
-1408 -1584 0
-2260 -2436 0
-3112 -3288 0
-557 -734 0
-1409 -1586 0
-2261 -2438 0
-3113 -3290 0
-561 -799 0
-1413 -1651 0
-2265 -2503 0
-3117 -3355 0
-575 -610 0
-1427 -1462 0
-2279 -2314 0
-3131 -3166 0
-588 -674 0
-1440 -1526 0
-2292 -2378 0
-3144 -3230 0
-704 -759 0
-1556 -1611 0
-2408 -2463 0
-3260 -3315 0
-709 -752 0
-1561 -1604 0
-2413 -2456 0
-3265 -3308 0
-736 -761 0
-1588 -1613 0
-2440 -2465 0
-3292 -3317 0
-762 -831 0
-1614 -1683 0
-2466 -2535 0
-3318 -3387 0
-9 -591 0
-861 -1443 0
-1713 -2295 0
-2565 -3147 0
-22 -338 0
-874 -1190 0
-1726 -2042 0
-2578 -2894 0
-26 -382 0
-878 -1234 0
-1730 -2086 0
-2582 -2938 0
-32 -435 0
-884 -1287 0
-1736 -2139 0
-2588 -2991 0
-34 -700 0
-886 -1552 0
-1738 -2404 0
-2590 -3256 0
-37 -562 0
-889 -1414 0
-1741 -2266 0
-2593 -3118 0
-49 -261 0
-901 -1113 0
-1753 -1965 0
-2605 -2817 0
-56 -240 0
-908 -1092 0
-1760 -1944 0
-2612 -2796 0
-62 -845 0
-914 -1697 0
-1766 -2549 0
-2618 -3401 0
-64 -807 0
-916 -1659 0
-1768 -2511 0
-2620 -3363 0
-84 -351 0
-936 -1203 0
-1788 -2055 0
-2640 -2907 0
-87 -105 0
-939 -957 0
-1791 -1809 0
-2643 -2661 0
-125 -209 0
-977 -1061 0
-1829 -1913 0
-2681 -2765 0
-134 -461 0
-986 -1313 0
-1838 -2165 0
-2690 -3017 0
-135 -300 0
-987 -1152 0
-1839 -2004 0
-2691 -2856 0
-146 -187 0
-998 -1039 0
-1850 -1891 0
-2702 -2743 0
-155 -173 0
-1007 -1025 0
-1859 -1877 0
-2711 -2729 0
-169 -362 0
-1021 -1214 0
-1873 -2066 0
-2725 -2918 0
-194 -391 0
-1046 -1243 0
-1898 -2095 0
-2750 -2947 0
-199 -687 0
-1051 -1539 0
-1903 -2391 0
-2755 -3243 0
-208 -556 0
-1060 -1408 0
-1912 -2260 0
-2764 -3112 0
-219 -447 0
-1071 -1299 0
-1923 -2151 0
-2775 -3003 0
-267 -656 0
-1119 -1508 0
-1971 -2360 0
-2823 -3212 0
-288 -765 0
-1140 -1617 0
-1992 -2469 0
-2844 -3321 0
-294 -563 0
-1146 -1415 0
-1998 -2267 0
-2850 -3119 0
-324 -378 0
-1176 -1230 0
-2028 -2082 0
-2880 -2934 0
-345 -702 0
-1197 -1554 0
-2049 -2406 0
-2901 -3258 0
-356 -682 0
-1208 -1534 0
-2060 -2386 0
-2912 -3238 0
-358 -480 0
-1210 -1332 0
-2062 -2184 0
-2914 -3036 0
-403 -599 0
-1255 -1451 0
-2107 -2303 0
-2959 -3155 0
-432 -769 0
-1284 -1621 0
-2136 -2473 0
-2988 -3325 0
-486 -496 0
-1338 -1348 0
-2190 -2200 0
-3042 -3052 0
-505 -724 0
-1357 -1576 0
-2209 -2428 0
-3061 -3280 0
-507 -622 0
-1359 -1474 0
-2211 -2326 0
-3063 -3178 0
-509 -804 0
-1361 -1656 0
-2213 -2508 0
-3065 -3360 0
-523 -667 0
-1375 -1519 0
-2227 -2371 0
-3079 -3223 0
-564 -732 0
-1416 -1584 0
-2268 -2436 0
-3120 -3288 0
-569 -827 0
-1421 -1679 0
-2273 -2531 0
-3125 -3383 0
-633 -752 0
-1485 -1604 0
-2337 -2456 0
-3189 -3308 0
-637 -727 0
-1489 -1579 0
-2341 -2431 0
-3193 -3283 0
-707 -773 0
-1559 -1625 0
-2411 -2477 0
-3263 -3329 0
-710 -751 0
-1562 -1603 0
-2414 -2455 0
-3266 -3307 0
-719 -829 0
-1571 -1681 0
-2423 -2533 0
-3275 -3385 0
-725 -754 0
-1577 -1606 0
-2429 -2458 0
-3281 -3310 0
-10 -560 0
-862 -1412 0
-1714 -2264 0
-2566 -3116 0
-11 -357 0
-863 -1209 0
-1715 -2061 0
-2567 -2913 0
-17 -782 0
-869 -1634 0
-1721 -2486 0
-2573 -3338 0
-24 -800 0
-876 -1652 0
-1728 -2504 0
-2580 -3356 0
-34 -165 0
-886 -1017 0
-1738 -1869 0
-2590 -2721 0
-41 -60 0
-893 -912 0
-1745 -1764 0
-2597 -2616 0
-47 -178 0
-899 -1030 0
-1751 -1882 0
-2603 -2734 0
-49 -505 0
-901 -1357 0
-1753 -2209 0
-2605 -3061 0
-50 -330 0
-902 -1182 0
-1754 -2034 0
-2606 -2886 0
-58 -167 0
-910 -1019 0
-1762 -1871 0
-2614 -2723 0
-62 -302 0
-914 -1154 0
-1766 -2006 0
-2618 -2858 0
-63 -283 0
-915 -1135 0
-1767 -1987 0
-2619 -2839 0
-73 -463 0
-925 -1315 0
-1777 -2167 0
-2629 -3019 0
-102 -478 0
-954 -1330 0
-1806 -2182 0
-2658 -3034 0
-119 -180 0
-971 -1032 0
-1823 -1884 0
-2675 -2736 0
-132 -440 0
-984 -1292 0
-1836 -2144 0
-2688 -2996 0
-149 -797 0
-1001 -1649 0
-1853 -2501 0
-2705 -3353 0
-152 -604 0
-1004 -1456 0
-1856 -2308 0
-2708 -3160 0
-155 -312 0
-1007 -1164 0
-1859 -2016 0
-2711 -2868 0
-158 -232 0
-1010 -1084 0
-1862 -1936 0
-2714 -2788 0
-163 -717 0
-1015 -1569 0
-1867 -2421 0
-2719 -3273 0
-173 -257 0
-1025 -1109 0
-1877 -1961 0
-2729 -2813 0
-179 -197 0
-1031 -1049 0
-1883 -1901 0
-2735 -2753 0
-186 -650 0
-1038 -1502 0
-1890 -2354 0
-2742 -3206 0
-205 -321 0
-1057 -1173 0
-1909 -2025 0
-2761 -2877 0
-212 -343 0
-1064 -1195 0
-1916 -2047 0
-2768 -2899 0
-215 -255 0
-1067 -1107 0
-1919 -1959 0
-2771 -2811 0
-253 -453 0
-1105 -1305 0
-1957 -2157 0
-2809 -3009 0
-261 -724 0
-1113 -1576 0
-1965 -2428 0
-2817 -3280 0
-270 -307 0
-1122 -1159 0
-1974 -2011 0
-2826 -2863 0
-276 -309 0
-1128 -1161 0
-1980 -2013 0
-2832 -2865 0
-284 -365 0
-1136 -1217 0
-1988 -2069 0
-2840 -2921 0
-292 -530 0
-1144 -1382 0
-1996 -2234 0
-2848 -3086 0
-305 -558 0
-1157 -1410 0
-2009 -2262 0
-2861 -3114 0
-316 -688 0
-1168 -1540 0
-2020 -2392 0
-2872 -3244 0
-318 -395 0
-1170 -1247 0
-2022 -2099 0
-2874 -2951 0
-322 -355 0
-1174 -1207 0
-2026 -2059 0
-2878 -2911 0
-324 -410 0
-1176 -1262 0
-2028 -2114 0
-2880 -2966 0
-328 -367 0
-1180 -1219 0
-2032 -2071 0
-2884 -2923 0
-333 -427 0
-1185 -1279 0
-2037 -2131 0
-2889 -2983 0
-350 -520 0
-1202 -1372 0
-2054 -2224 0
-2906 -3076 0
-368 -419 0
-1220 -1271 0
-2072 -2123 0
-2924 -2975 0
-393 -495 0
-1245 -1347 0
-2097 -2199 0
-2949 -3051 0
-394 -615 0
-1246 -1467 0
-2098 -2319 0
-2950 -3171 0
-397 -487 0
-1249 -1339 0
-2101 -2191 0
-2953 -3043 0
-428 -586 0
-1280 -1438 0
-2132 -2290 0
-2984 -3142 0
-433 -707 0
-1285 -1559 0
-2137 -2411 0
-2989 -3263 0
-436 -503 0
-1288 -1355 0
-2140 -2207 0
-2992 -3059 0
-441 -531 0
-1293 -1383 0
-2145 -2235 0
-2997 -3087 0
-467 -608 0
-1319 -1460 0
-2171 -2312 0
-3023 -3164 0
-468 -729 0
-1320 -1581 0
-2172 -2433 0
-3024 -3285 0
-481 -821 0
-1333 -1673 0
-2185 -2525 0
-3037 -3377 0
-488 -713 0
-1340 -1565 0
-2192 -2417 0
-3044 -3269 0
-507 -710 0
-1359 -1562 0
-2211 -2414 0
-3063 -3266 0
-513 -640 0
-1365 -1492 0
-2217 -2344 0
-3069 -3196 0
-538 -595 0
-1390 -1447 0
-2242 -2299 0
-3094 -3151 0
-553 -680 0
-1405 -1532 0
-2257 -2384 0
-3109 -3236 0
-597 -794 0
-1449 -1646 0
-2301 -2498 0
-3153 -3350 0
-609 -767 0
-1461 -1619 0
-2313 -2471 0
-3165 -3323 0
-622 -751 0
-1474 -1603 0
-2326 -2455 0
-3178 -3307 0
-740 -755 0
-1592 -1607 0
-2444 -2459 0
-3296 -3311 0
-1 -218 0
-853 -1070 0
-1705 -1922 0
-2557 -2774 0
-3 -353 0
-855 -1205 0
-1707 -2057 0
-2559 -2909 0
-8 -67 0
-860 -919 0
-1712 -1771 0
-2564 -2623 0
-9 -532 0
-861 -1384 0
-1713 -2236 0
-2565 -3088 0
-11 -62 0
-863 -914 0
-1715 -1766 0
-2567 -2618 0
-26 -70 0
-878 -922 0
-1730 -1774 0
-2582 -2626 0
-27 -38 0
-879 -890 0
-1731 -1742 0
-2583 -2594 0
-34 -356 0
-886 -1208 0
-1738 -2060 0
-2590 -2912 0
-37 -206 0
-889 -1058 0
-1741 -1910 0
-2593 -2762 0
-43 -65 0
-895 -917 0
-1747 -1769 0
-2599 -2621 0
-44 -664 0
-896 -1516 0
-1748 -2368 0
-2600 -3220 0
-53 -144 0
-905 -996 0
-1757 -1848 0
-2609 -2700 0
-56 -219 0
-908 -1071 0
-1760 -1923 0
-2612 -2775 0
-59 -472 0
-911 -1324 0
-1763 -2176 0
-2615 -3028 0
-64 -288 0
-916 -1140 0
-1768 -1992 0
-2620 -2844 0
-74 -809 0
-926 -1661 0
-1778 -2513 0
-2630 -3365 0
-78 -512 0
-930 -1364 0
-1782 -2216 0
-2634 -3068 0
-81 -216 0
-933 -1068 0
-1785 -1920 0
-2637 -2772 0
-86 -222 0
-938 -1074 0
-1790 -1926 0
-2642 -2778 0
-102 -806 0
-954 -1658 0
-1806 -2510 0
-2658 -3362 0
-103 -545 0
-955 -1397 0
-1807 -2249 0
-2659 -3101 0
-113 -258 0
-965 -1110 0
-1817 -1962 0
-2669 -2814 0
-126 -129 0
-978 -981 0
-1830 -1833 0
-2682 -2685 0
-130 -510 0
-982 -1362 0
-1834 -2214 0
-2686 -3066 0
-131 -137 0
-983 -989 0
-1835 -1841 0
-2687 -2693 0
-138 -264 0
-990 -1116 0
-1842 -1968 0
-2694 -2820 0
-143 -835 0
-995 -1687 0
-1847 -2539 0
-2699 -3391 0
-158 -284 0
-1010 -1136 0
-1862 -1988 0
-2714 -2840 0
-174 -346 0
-1026 -1198 0
-1878 -2050 0
-2730 -2902 0
-176 -714 0
-1028 -1566 0
-1880 -2418 0
-2732 -3270 0
-203 -251 0
-1055 -1103 0
-1907 -1955 0
-2759 -2807 0
-204 -712 0
-1056 -1564 0
-1908 -2416 0
-2760 -3268 0
-232 -365 0
-1084 -1217 0
-1936 -2069 0
-2788 -2921 0
-240 -447 0
-1092 -1299 0
-1944 -2151 0
-2796 -3003 0
-310 -726 0
-1162 -1578 0
-2014 -2430 0
-2866 -3282 0
-314 -525 0
-1166 -1377 0
-2018 -2229 0
-2870 -3081 0
-328 -840 0
-1180 -1692 0
-2032 -2544 0
-2884 -3396 0
-347 -399 0
-1199 -1251 0
-2051 -2103 0
-2903 -2955 0
-352 -761 0
-1204 -1613 0
-2056 -2465 0
-2908 -3317 0
-367 -521 0
-1219 -1373 0
-2071 -2225 0
-2923 -3077 0
-370 -537 0
-1222 -1389 0
-2074 -2241 0
-2926 -3093 0
-378 -774 0
-1230 -1626 0
-2082 -2478 0
-2934 -3330 0
-417 -836 0
-1269 -1688 0
-2121 -2540 0
-2973 -3392 0
-432 -497 0
-1284 -1349 0
-2136 -2201 0
-2988 -3053 0
-440 -463 0
-1292 -1315 0
-2144 -2167 0
-2996 -3019 0
-467 -538 0
-1319 -1390 0
-2171 -2242 0
-3023 -3094 0
-468 -564 0
-1320 -1416 0
-2172 -2268 0
-3024 -3120 0
-491 -579 0
-1343 -1431 0
-2195 -2283 0
-3047 -3135 0
-492 -768 0
-1344 -1620 0
-2196 -2472 0
-3048 -3324 0
-515 -577 0
-1367 -1429 0
-2219 -2281 0
-3071 -3133 0
-520 -558 0
-1372 -1410 0
-2224 -2262 0
-3076 -3114 0
-625 -808 0
-1477 -1660 0
-2329 -2512 0
-3181 -3364 0
-650 -717 0
-1502 -1569 0
-2354 -2421 0
-3206 -3273 0
-1 -150 0
-853 -1002 0
-1705 -1854 0
-2557 -2706 0
-20 -490 0
-872 -1342 0
-1724 -2194 0
-2576 -3046 0
-23 -332 0
-875 -1184 0
-1727 -2036 0
-2579 -2888 0
-27 -90 0
-879 -942 0
-1731 -1794 0
-2583 -2646 0
-32 -419 0
-884 -1271 0
-1736 -2123 0
-2588 -2975 0
-33 -368 0
-885 -1220 0
-1737 -2072 0
-2589 -2924 0
-34 -477 0
-886 -1329 0
-1738 -2181 0
-2590 -3033 0
-37 -814 0
-889 -1666 0
-1741 -2518 0
-2593 -3370 0
-38 -55 0
-890 -907 0
-1742 -1759 0
-2594 -2611 0
-41 -371 0
-893 -1223 0
-1745 -2075 0
-2597 -2927 0
-43 -131 0
-895 -983 0
-1747 -1835 0
-2599 -2687 0
-45 -78 0
-897 -930 0
-1749 -1782 0
-2601 -2634 0
-50 -333 0
-902 -1185 0
-1754 -2037 0
-2606 -2889 0
-64 -675 0
-916 -1527 0
-1768 -2379 0
-2620 -3231 0
-65 -137 0
-917 -989 0
-1769 -1841 0
-2621 -2693 0
-68 -639 0
-920 -1491 0
-1772 -2343 0
-2624 -3195 0
-69 -405 0
-921 -1257 0
-1773 -2109 0
-2625 -2961 0
-73 -555 0
-925 -1407 0
-1777 -2259 0
-2629 -3111 0
-81 -524 0
-933 -1376 0
-1785 -2228 0
-2637 -3080 0
-89 -99 0
-941 -951 0
-1793 -1803 0
-2645 -2655 0
-96 -297 0
-948 -1149 0
-1800 -2001 0
-2652 -2853 0
-103 -113 0
-955 -965 0
-1807 -1817 0
-2659 -2669 0
-123 -160 0
-975 -1012 0
-1827 -1864 0
-2679 -2716 0
-125 -583 0
-977 -1435 0
-1829 -2287 0
-2681 -3139 0
-138 -489 0
-990 -1341 0
-1842 -2193 0
-2694 -3045 0
-149 -617 0
-1001 -1469 0
-1853 -2321 0
-2705 -3173 0
-164 -522 0
-1016 -1374 0
-1868 -2226 0
-2720 -3078 0
-171 -363 0
-1023 -1215 0
-1875 -2067 0
-2727 -2919 0
-182 -518 0
-1034 -1370 0
-1886 -2222 0
-2738 -3074 0
-194 -533 0
-1046 -1385 0
-1898 -2237 0
-2750 -3089 0
-199 -693 0
-1051 -1545 0
-1903 -2397 0
-2755 -3249 0
-215 -320 0
-1067 -1172 0
-1919 -2024 0
-2771 -2876 0
-216 -485 0
-1068 -1337 0
-1920 -2189 0
-2772 -3041 0
-227 -850 0
-1079 -1702 0
-1931 -2554 0
-2783 -3406 0
-237 -417 0
-1089 -1269 0
-1941 -2121 0
-2793 -2973 0
-239 -731 0
-1091 -1583 0
-1943 -2435 0
-2795 -3287 0
-248 -317 0
-1100 -1169 0
-1952 -2021 0
-2804 -2873 0
-249 -301 0
-1101 -1153 0
-1953 -2005 0
-2805 -2857 0
-264 -334 0
-1116 -1186 0
-1968 -2038 0
-2820 -2890 0
-265 -445 0
-1117 -1297 0
-1969 -2149 0
-2821 -3001 0
-272 -329 0
-1124 -1181 0
-1976 -2033 0
-2828 -2885 0
-304 -348 0
-1156 -1200 0
-2008 -2052 0
-2860 -2904 0
-324 -848 0
-1176 -1700 0
-2028 -2552 0
-2880 -3404 0
-330 -427 0
-1182 -1279 0
-2034 -2131 0
-2886 -2983 0
-336 -464 0
-1188 -1316 0
-2040 -2168 0
-2892 -3020 0
-339 -607 0
-1191 -1459 0
-2043 -2311 0
-2895 -3163 0
-360 -457 0
-1212 -1309 0
-2064 -2161 0
-2916 -3013 0
-375 -705 0
-1227 -1557 0
-2079 -2409 0
-2931 -3261 0
-411 -428 0
-1263 -1280 0
-2115 -2132 0
-2967 -2984 0
-422 -571 0
-1274 -1423 0
-2126 -2275 0
-2978 -3127 0
-433 -628 0
-1285 -1480 0
-2137 -2332 0
-2989 -3184 0
-467 -488 0
-1319 -1340 0
-2171 -2192 0
-3023 -3044 0
-470 -612 0
-1322 -1464 0
-2174 -2316 0
-3026 -3168 0
-471 -812 0
-1323 -1664 0
-2175 -2516 0
-3027 -3368 0
-483 -750 0
-1335 -1602 0
-2187 -2454 0
-3039 -3306 0
-486 -621 0
-1338 -1473 0
-2190 -2325 0
-3042 -3177 0
-540 -587 0
-1392 -1439 0
-2244 -2291 0
-3096 -3143 0
-551 -684 0
-1403 -1536 0
-2255 -2388 0
-3107 -3240 0
-579 -753 0
-1431 -1605 0
-2283 -2457 0
-3135 -3309 0
-603 -730 0
-1455 -1582 0
-2307 -2434 0
-3159 -3286 0
-608 -713 0
-1460 -1565 0
-2312 -2417 0
-3164 -3269 0
-618 -813 0
-1470 -1665 0
-2322 -2517 0
-3174 -3369 0
-626 -711 0
-1478 -1563 0
-2330 -2415 0
-3182 -3267 0
-649 -651 0
-1501 -1503 0
-2353 -2355 0
-3205 -3207 0
-660 -811 0
-1512 -1663 0
-2364 -2515 0
-3216 -3367 0
-726 -828 0
-1578 -1680 0
-2430 -2532 0
-3282 -3384 0
-38 -738 0
-890 -1590 0
-1742 -2442 0
-2594 -3294 0
-75 -311 0
-927 -1163 0
-1779 -2015 0
-2631 -2867 0
-92 -167 0
-944 -1019 0
-1796 -1871 0
-2648 -2723 0
-157 -827 0
-1009 -1679 0
-1861 -2531 0
-2713 -3383 0
-188 -319 0
-1040 -1171 0
-1892 -2023 0
-2744 -2875 0
-201 -355 0
-1053 -1207 0
-1905 -2059 0
-2757 -2911 0
-240 -592 0
-1092 -1444 0
-1944 -2296 0
-2796 -3148 0
-262 -676 0
-1114 -1528 0
-1966 -2380 0
-2818 -3232 0
-272 -707 0
-1124 -1559 0
-1976 -2411 0
-2828 -3263 0
-284 -652 0
-1136 -1504 0
-1988 -2356 0
-2840 -3208 0
-393 -648 0
-1245 -1500 0
-2097 -2352 0
-2949 -3204 0
-447 -453 0
-1299 -1305 0
-2151 -2157 0
-3003 -3009 0
-483 -846 0
-1335 -1698 0
-2187 -2550 0
-3039 -3402 0
-484 -613 0
-1336 -1465 0
-2188 -2317 0
-3040 -3169 0
-587 -607 0
-1439 -1459 0
-2291 -2311 0
-3143 -3163 0
-629 -674 0
-1481 -1526 0
-2333 -2378 0
-3185 -3230 0
-695 -751 0
-1547 -1603 0
-2399 -2455 0
-3251 -3307 0
-763 -767 0
-1615 -1619 0
-2467 -2471 0
-3319 -3323 0
-4 -402 0
-856 -1254 0
-1708 -2106 0
-2560 -2958 0
-7 -582 0
-859 -1434 0
-1711 -2286 0
-2563 -3138 0
-9 -244 0
-861 -1096 0
-1713 -1948 0
-2565 -2800 0
-22 -825 0
-874 -1677 0
-1726 -2529 0
-2578 -3381 0
-25 -500 0
-877 -1352 0
-1729 -2204 0
-2581 -3056 0
-37 -549 0
-889 -1401 0
-1741 -2253 0
-2593 -3105 0
-43 -81 0
-895 -933 0
-1747 -1785 0
-2599 -2637 0
-45 -123 0
-897 -975 0
-1749 -1827 0
-2601 -2679 0
-58 -147 0
-910 -999 0
-1762 -1851 0
-2614 -2703 0
-65 -216 0
-917 -1068 0
-1769 -1920 0
-2621 -2772 0
-72 -376 0
-924 -1228 0
-1776 -2080 0
-2628 -2932 0
-78 -160 0
-930 -1012 0
-1782 -1864 0
-2634 -2716 0
-84 -637 0
-936 -1489 0
-1788 -2341 0
-2640 -3193 0
-125 -719 0
-977 -1571 0
-1829 -2423 0
-2681 -3275 0
-128 -148 0
-980 -1000 0
-1832 -1852 0
-2684 -2704 0
-131 -524 0
-983 -1376 0
-1835 -2228 0
-2687 -3080 0
-135 -696 0
-987 -1548 0
-1839 -2400 0
-2691 -3252 0
-137 -485 0
-989 -1337 0
-1841 -2189 0
-2693 -3041 0
-155 -808 0
-1007 -1660 0
-1859 -2512 0
-2711 -3364 0
-180 -478 0
-1032 -1330 0
-1884 -2182 0
-2736 -3034 0
-195 -287 0
-1047 -1139 0
-1899 -1991 0
-2751 -2843 0
-209 -829 0
-1061 -1681 0
-1913 -2533 0
-2765 -3385 0
-226 -666 0
-1078 -1518 0
-1930 -2370 0
-2782 -3222 0
-229 -398 0
-1081 -1250 0
-1933 -2102 0
-2785 -2954 0
-251 -714 0
-1103 -1566 0
-1955 -2418 0
-2807 -3270 0
-276 -754 0
-1128 -1606 0
-1980 -2458 0
-2832 -3310 0
-303 -706 0
-1155 -1558 0
-2007 -2410 0
-2859 -3262 0
-309 -641 0
-1161 -1493 0
-2013 -2345 0
-2865 -3197 0
-342 -475 0
-1194 -1327 0
-2046 -2179 0
-2898 -3031 0
-351 -727 0
-1203 -1579 0
-2055 -2431 0
-2907 -3283 0
-367 -530 0
-1219 -1382 0
-2071 -2234 0
-2923 -3086 0
-381 -473 0
-1233 -1325 0
-2085 -2177 0
-2937 -3029 0
-439 -625 0
-1291 -1477 0
-2143 -2329 0
-2995 -3181 0
-443 -787 0
-1295 -1639 0
-2147 -2491 0
-2999 -3343 0
-462 -619 0
-1314 -1471 0
-2166 -2323 0
-3018 -3175 0
-466 -776 0
-1318 -1628 0
-2170 -2480 0
-3022 -3332 0
-612 -683 0
-1464 -1535 0
-2316 -2387 0
-3168 -3239 0
-9 -355 0
-861 -1207 0
-1713 -2059 0
-2565 -2911 0
-23 -145 0
-875 -997 0
-1727 -1849 0
-2579 -2701 0
-24 -161 0
-876 -1013 0
-1728 -1865 0
-2580 -2717 0
-33 -115 0
-885 -967 0
-1737 -1819 0
-2589 -2671 0
-35 -201 0
-887 -1053 0
-1739 -1905 0
-2591 -2757 0
-39 -156 0
-891 -1008 0
-1743 -1860 0
-2595 -2712 0
-49 -504 0
-901 -1356 0
-1753 -2208 0
-2605 -3060 0
-59 -99 0
-911 -951 0
-1763 -1803 0
-2615 -2655 0
-61 -656 0
-913 -1508 0
-1765 -2360 0
-2617 -3212 0
-72 -404 0
-924 -1256 0
-1776 -2108 0
-2628 -2960 0
-75 -106 0
-927 -958 0
-1779 -1810 0
-2631 -2662 0
-125 -312 0
-977 -1164 0
-1829 -2016 0
-2681 -2868 0
-133 -391 0
-985 -1243 0
-1837 -2095 0
-2689 -2947 0
-157 -447 0
-1009 -1299 0
-1861 -2151 0
-2713 -3003 0
-162 -348 0
-1014 -1200 0
-1866 -2052 0
-2718 -2904 0
-172 -279 0
-1024 -1131 0
-1876 -1983 0
-2728 -2835 0
-175 -558 0
-1027 -1410 0
-1879 -2262 0
-2731 -3114 0
-209 -257 0
-1061 -1109 0
-1913 -1961 0
-2765 -2813 0
-210 -362 0
-1062 -1214 0
-1914 -2066 0
-2766 -2918 0
-215 -285 0
-1067 -1137 0
-1919 -1989 0
-2771 -2841 0
-226 -520 0
-1078 -1372 0
-1930 -2224 0
-2782 -3076 0
-237 -480 0
-1089 -1332 0
-1941 -2184 0
-2793 -3036 0
-248 -434 0
-1100 -1286 0
-1952 -2138 0
-2804 -2990 0
-249 -435 0
-1101 -1287 0
-1953 -2139 0
-2805 -2991 0
-269 -283 0
-1121 -1135 0
-1973 -1987 0
-2825 -2839 0
-347 -392 0
-1199 -1244 0
-2051 -2096 0
-2903 -2948 0
-369 -419 0
-1221 -1271 0
-2073 -2123 0
-2925 -2975 0
-370 -429 0
-1222 -1281 0
-2074 -2133 0
-2926 -2985 0
-398 -485 0
-1250 -1337 0
-2102 -2189 0
-2954 -3041 0
-408 -704 0
-1260 -1556 0
-2112 -2408 0
-2964 -3260 0
-411 -655 0
-1263 -1507 0
-2115 -2359 0
-2967 -3211 0
-422 -528 0
-1274 -1380 0
-2126 -2232 0
-2978 -3084 0
-423 -533 0
-1275 -1385 0
-2127 -2237 0
-2979 -3089 0
-424 -611 0
-1276 -1463 0
-2128 -2315 0
-2980 -3167 0
-436 -522 0
-1288 -1374 0
-2140 -2226 0
-2992 -3078 0
-535 -755 0
-1387 -1607 0
-2239 -2459 0
-3091 -3311 0
-603 -671 0
-1455 -1523 0
-2307 -2375 0
-3159 -3227 0
-661 -717 0
-1513 -1569 0
-2365 -2421 0
-3217 -3273 0
-684 -850 0
-1536 -1702 0
-2388 -2554 0
-3240 -3406 0
-711 -814 0
-1563 -1666 0
-2415 -2518 0
-3267 -3370 0
-720 -797 0
-1572 -1649 0
-2424 -2501 0
-3276 -3353 0
-5 -211 0
-857 -1063 0
-1709 -1915 0
-2561 -2767 0
-9 -311 0
-861 -1163 0
-1713 -2015 0
-2565 -2867 0
-11 -482 0
-863 -1334 0
-1715 -2186 0
-2567 -3038 0
-26 -82 0
-878 -934 0
-1730 -1786 0
-2582 -2638 0
-27 -114 0
-879 -966 0
-1731 -1818 0
-2583 -2670 0
-34 -116 0
-886 -968 0
-1738 -1820 0
-2590 -2672 0
-35 -75 0
-887 -927 0
-1739 -1779 0
-2591 -2631 0
-37 -716 0
-889 -1568 0
-1741 -2420 0
-2593 -3272 0
-41 -95 0
-893 -947 0
-1745 -1799 0
-2597 -2651 0
-45 -615 0
-897 -1467 0
-1749 -2319 0
-2601 -3171 0
-49 -250 0
-901 -1102 0
-1753 -1954 0
-2605 -2806 0
-51 -230 0
-903 -1082 0
-1755 -1934 0
-2607 -2786 0
-56 -93 0
-908 -945 0
-1760 -1797 0
-2612 -2649 0
-63 -451 0
-915 -1303 0
-1767 -2155 0
-2619 -3007 0
-74 -300 0
-926 -1152 0
-1778 -2004 0
-2630 -2856 0
-76 -101 0
-928 -953 0
-1780 -1805 0
-2632 -2657 0
-102 -301 0
-954 -1153 0
-1806 -2005 0
-2658 -2857 0
-104 -689 0
-956 -1541 0
-1808 -2393 0
-2660 -3245 0
-105 -338 0
-957 -1190 0
-1809 -2042 0
-2661 -2894 0
-109 -499 0
-961 -1351 0
-1813 -2203 0
-2665 -3055 0
-118 -196 0
-970 -1048 0
-1822 -1900 0
-2674 -2752 0
-122 -297 0
-974 -1149 0
-1826 -2001 0
-2678 -2853 0
-123 -255 0
-975 -1107 0
-1827 -1959 0
-2679 -2811 0
-126 -417 0
-978 -1269 0
-1830 -2121 0
-2682 -2973 0
-129 -836 0
-981 -1688 0
-1833 -2540 0
-2685 -3392 0
-132 -235 0
-984 -1087 0
-1836 -1939 0
-2688 -2791 0
-133 -249 0
-985 -1101 0
-1837 -1953 0
-2689 -2805 0
-143 -331 0
-995 -1183 0
-1847 -2035 0
-2699 -2887 0
-149 -189 0
-1001 -1041 0
-1853 -1893 0
-2705 -2745 0
-155 -185 0
-1007 -1037 0
-1859 -1889 0
-2711 -2741 0
-169 -181 0
-1021 -1033 0
-1873 -1885 0
-2725 -2737 0
-174 -514 0
-1026 -1366 0
-1878 -2218 0
-2730 -3070 0
-186 -546 0
-1038 -1398 0
-1890 -2250 0
-2742 -3102 0
-190 -237 0
-1042 -1089 0
-1894 -1941 0
-2746 -2793 0
-198 -722 0
-1050 -1574 0
-1902 -2426 0
-2754 -3278 0
-203 -492 0
-1055 -1344 0
-1907 -2196 0
-2759 -3048 0
-207 -672 0
-1059 -1524 0
-1911 -2376 0
-2763 -3228 0
-221 -544 0
-1073 -1396 0
-1925 -2248 0
-2777 -3100 0
-224 -343 0
-1076 -1195 0
-1928 -2047 0
-2780 -2899 0
-225 -420 0
-1077 -1272 0
-1929 -2124 0
-2781 -2976 0
-226 -657 0
-1078 -1509 0
-1930 -2361 0
-2782 -3213 0
-231 -843 0
-1083 -1695 0
-1935 -2547 0
-2787 -3399 0
-251 -768 0
-1103 -1620 0
-1955 -2472 0
-2807 -3324 0
-252 -452 0
-1104 -1304 0
-1956 -2156 0
-2808 -3008 0
-254 -321 0
-1106 -1173 0
-1958 -2025 0
-2810 -2877 0
-262 -313 0
-1114 -1165 0
-1966 -2017 0
-2818 -2869 0
-265 -339 0
-1117 -1191 0
-1969 -2043 0
-2821 -2895 0
-267 -302 0
-1119 -1154 0
-1971 -2006 0
-2823 -2858 0
-277 -718 0
-1129 -1570 0
-1981 -2422 0
-2833 -3274 0
-280 -309 0
-1132 -1161 0
-1984 -2013 0
-2836 -2865 0
-294 -584 0
-1146 -1436 0
-1998 -2288 0
-2850 -3140 0
-317 -320 0
-1169 -1172 0
-2021 -2024 0
-2873 -2876 0
-322 -351 0
-1174 -1203 0
-2026 -2055 0
-2878 -2907 0
-350 -826 0
-1202 -1678 0
-2054 -2530 0
-2906 -3382 0
-360 -394 0
-1212 -1246 0
-2064 -2098 0
-2916 -2950 0
-370 -620 0
-1222 -1472 0
-2074 -2324 0
-2926 -3176 0
-374 -427 0
-1226 -1279 0
-2078 -2131 0
-2930 -2983 0
-391 -435 0
-1243 -1287 0
-2095 -2139 0
-2947 -2991 0
-436 -828 0
-1288 -1680 0
-2140 -2532 0
-2992 -3384 0
-439 -462 0
-1291 -1314 0
-2143 -2166 0
-2995 -3018 0
-445 -607 0
-1297 -1459 0
-2149 -2311 0
-3001 -3163 0
-471 -618 0
-1323 -1470 0
-2175 -2322 0
-3027 -3174 0
-474 -831 0
-1326 -1683 0
-2178 -2535 0
-3030 -3387 0
-491 -701 0
-1343 -1553 0
-2195 -2405 0
-3047 -3257 0
-509 -586 0
-1361 -1438 0
-2213 -2290 0
-3065 -3142 0
-516 -833 0
-1368 -1685 0
-2220 -2537 0
-3072 -3389 0
-538 -726 0
-1390 -1578 0
-2242 -2430 0
-3094 -3282 0
-566 -614 0
-1418 -1466 0
-2270 -2318 0
-3122 -3170 0
-573 -762 0
-1425 -1614 0
-2277 -2466 0
-3129 -3318 0
-593 -699 0
-1445 -1551 0
-2297 -2403 0
-3149 -3255 0
-690 -779 0
-1542 -1631 0
-2394 -2483 0
-3246 -3335 0
-732 -845 0
-1584 -1697 0
-2436 -2549 0
-3288 -3401 0
-812 -813 0
-1664 -1665 0
-2516 -2517 0
-3368 -3369 0
-4 -297 0
-856 -1149 0
-1708 -2001 0
-2560 -2853 0
-7 -122 0
-859 -974 0
-1711 -1826 0
-2563 -2678 0
-10 -332 0
-862 -1184 0
-1714 -2036 0
-2566 -2888 0
-25 -708 0
-877 -1560 0
-1729 -2412 0
-2581 -3264 0
-32 -679 0
-884 -1531 0
-1736 -2383 0
-2588 -3235 0
-34 -651 0
-886 -1503 0
-1738 -2355 0
-2590 -3207 0
-37 -805 0
-889 -1657 0
-1741 -2509 0
-2593 -3361 0
-38 -148 0
-890 -1000 0
-1742 -1852 0
-2594 -2704 0
-44 -493 0
-896 -1345 0
-1748 -2197 0
-2600 -3049 0
-64 -823 0
-916 -1675 0
-1768 -2527 0
-2620 -3379 0
-65 -67 0
-917 -919 0
-1769 -1771 0
-2621 -2623 0
-74 -102 0
-926 -954 0
-1778 -1806 0
-2630 -2658 0
-76 -366 0
-928 -1218 0
-1780 -2070 0
-2632 -2922 0
-80 -214 0
-932 -1066 0
-1784 -1918 0
-2636 -2770 0
-97 -661 0
-949 -1513 0
-1801 -2365 0
-2653 -3217 0
-100 -147 0
-952 -999 0
-1804 -1851 0
-2656 -2703 0
-104 -407 0
-956 -1259 0
-1808 -2111 0
-2660 -2963 0
-113 -150 0
-965 -1002 0
-1817 -1854 0
-2669 -2706 0
-123 -244 0
-975 -1096 0
-1827 -1948 0
-2679 -2800 0
-125 -832 0
-977 -1684 0
-1829 -2536 0
-2681 -3388 0
-135 -369 0
-987 -1221 0
-1839 -2073 0
-2691 -2925 0
-138 -293 0
-990 -1145 0
-1842 -1997 0
-2694 -2849 0
-146 -743 0
-998 -1595 0
-1850 -2447 0
-2702 -3299 0
-151 -423 0
-1003 -1275 0
-1855 -2127 0
-2707 -2979 0
-155 -436 0
-1007 -1288 0
-1859 -2140 0
-2711 -2992 0
-165 -646 0
-1017 -1498 0
-1869 -2350 0
-2721 -3202 0
-185 -828 0
-1037 -1680 0
-1889 -2532 0
-2741 -3384 0
-209 -506 0
-1061 -1358 0
-1913 -2210 0
-2765 -3062 0
-239 -290 0
-1091 -1142 0
-1943 -1994 0
-2795 -2846 0
-274 -316 0
-1126 -1168 0
-1978 -2020 0
-2830 -2872 0
-285 -727 0
-1137 -1579 0
-1989 -2431 0
-2841 -3283 0
-300 -301 0
-1152 -1153 0
-2004 -2005 0
-2856 -2857 0
-312 -503 0
-1164 -1355 0
-2016 -2207 0
-2868 -3059 0
-358 -531 0
-1210 -1383 0
-2062 -2235 0
-2914 -3087 0
-360 -606 0
-1212 -1458 0
-2064 -2310 0
-2916 -3162 0
-364 -734 0
-1216 -1586 0
-2068 -2438 0
-2920 -3290 0
-375 -450 0
-1227 -1302 0
-2079 -2154 0
-2931 -3006 0
-381 -772 0
-1233 -1624 0
-2085 -2476 0
-2937 -3328 0
-390 -636 0
-1242 -1488 0
-2094 -2340 0
-2946 -3192 0
-394 -425 0
-1246 -1277 0
-2098 -2129 0
-2950 -2981 0
-408 -711 0
-1260 -1563 0
-2112 -2415 0
-2964 -3267 0
-439 -488 0
-1291 -1340 0
-2143 -2192 0
-2995 -3044 0
-442 -638 0
-1294 -1490 0
-2146 -2342 0
-2998 -3194 0
-513 -622 0
-1365 -1474 0
-2217 -2326 0
-3069 -3178 0
-525 -658 0
-1377 -1510 0
-2229 -2362 0
-3081 -3214 0
-539 -549 0
-1391 -1401 0
-2243 -2253 0
-3095 -3105 0
-603 -810 0
-1455 -1662 0
-2307 -2514 0
-3159 -3366 0
-640 -751 0
-1492 -1603 0
-2344 -2455 0
-3196 -3307 0
-648 -652 0
-1500 -1504 0
-2352 -2356 0
-3204 -3208 0
-671 -790 0
-1523 -1642 0
-2375 -2494 0
-3227 -3346 0
-704 -814 0
-1556 -1666 0
-2408 -2518 0
-3260 -3370 0
-748 -820 0
-1600 -1672 0
-2452 -2524 0
-3304 -3376 0
-1 -674 0
-853 -1526 0
-1705 -2378 0
-2557 -3230 0
-6 -241 0
-858 -1093 0
-1710 -1945 0
-2562 -2797 0
-8 -751 0
-860 -1603 0
-1712 -2455 0
-2564 -3307 0
-9 -676 0
-861 -1528 0
-1713 -2380 0
-2565 -3232 0
-26 -348 0
-878 -1200 0
-1730 -2052 0
-2582 -2904 0
-27 -588 0
-879 -1440 0
-1731 -2292 0
-2583 -3144 0
-34 -162 0
-886 -1014 0
-1738 -1866 0
-2590 -2718 0
-35 -262 0
-887 -1114 0
-1739 -1966 0
-2591 -2818 0
-40 -245 0
-892 -1097 0
-1744 -1949 0
-2596 -2801 0
-42 -52 0
-894 -904 0
-1746 -1756 0
-2598 -2608 0
-43 -640 0
-895 -1492 0
-1747 -2344 0
-2599 -3196 0
-49 -523 0
-901 -1375 0
-1753 -2227 0
-2605 -3079 0
-50 -222 0
-902 -1074 0
-1754 -1926 0
-2606 -2778 0
-69 -86 0
-921 -938 0
-1773 -1790 0
-2625 -2642 0
-75 -313 0
-927 -1165 0
-1779 -2017 0
-2631 -2869 0
-76 -304 0
-928 -1156 0
-1780 -2008 0
-2632 -2860 0
-91 -129 0
-943 -981 0
-1795 -1833 0
-2647 -2685 0
-111 -193 0
-963 -1045 0
-1815 -1897 0
-2667 -2749 0
-138 -798 0
-990 -1650 0
-1842 -2502 0
-2694 -3354 0
-169 -363 0
-1021 -1215 0
-1873 -2067 0
-2725 -2919 0
-192 -735 0
-1044 -1587 0
-1896 -2439 0
-2748 -3291 0
-210 -622 0
-1062 -1474 0
-1914 -2326 0
-2766 -3178 0
-239 -809 0
-1091 -1661 0
-1943 -2513 0
-2795 -3365 0
-261 -667 0
-1113 -1519 0
-1965 -2371 0
-2817 -3223 0
-280 -306 0
-1132 -1158 0
-1984 -2010 0
-2836 -2862 0
-286 -513 0
-1138 -1365 0
-1990 -2217 0
-2842 -3069 0
-290 -806 0
-1142 -1658 0
-1994 -2510 0
-2846 -3362 0
-292 -629 0
-1144 -1481 0
-1996 -2333 0
-2848 -3185 0
-336 -670 0
-1188 -1522 0
-2040 -2374 0
-2892 -3226 0
-347 -424 0
-1199 -1276 0
-2051 -2128 0
-2903 -2980 0
-349 -737 0
-1201 -1589 0
-2053 -2441 0
-2905 -3293 0
-357 -560 0
-1209 -1412 0
-2061 -2264 0
-2913 -3116 0
-389 -632 0
-1241 -1484 0
-2093 -2336 0
-2945 -3188 0
-392 -611 0
-1244 -1463 0
-2096 -2315 0
-2948 -3167 0
-394 -775 0
-1246 -1627 0
-2098 -2479 0
-2950 -3331 0
-437 -835 0
-1289 -1687 0
-2141 -2539 0
-2993 -3391 0
-468 -630 0
-1320 -1482 0
-2172 -2334 0
-3024 -3186 0
-471 -631 0
-1323 -1483 0
-2175 -2335 0
-3027 -3187 0
-483 -839 0
-1335 -1691 0
-2187 -2543 0
-3039 -3395 0
-535 -552 0
-1387 -1404 0
-2239 -2256 0
-3091 -3108 0
-559 -739 0
-1411 -1591 0
-2263 -2443 0
-3115 -3295 0
-597 -774 0
-1449 -1626 0
-2301 -2478 0
-3153 -3330 0
-659 -765 0
-1511 -1617 0
-2363 -2469 0
-3215 -3321 0
-725 -808 0
-1577 -1660 0
-2429 -2512 0
-3281 -3364 0
-7 -227 0
-859 -1079 0
-1711 -1931 0
-2563 -2783 0
-22 -197 0
-874 -1049 0
-1726 -1901 0
-2578 -2753 0
-24 -108 0
-876 -960 0
-1728 -1812 0
-2580 -2664 0
-25 -321 0
-877 -1173 0
-1729 -2025 0
-2581 -2877 0
-26 -430 0
-878 -1282 0
-1730 -2134 0
-2582 -2986 0
-27 -81 0
-879 -933 0
-1731 -1785 0
-2583 -2637 0
-35 -535 0
-887 -1387 0
-1739 -2239 0
-2591 -3091 0
-38 -216 0
-890 -1068 0
-1742 -1920 0
-2594 -2772 0
-55 -485 0
-907 -1337 0
-1759 -2189 0
-2611 -3041 0
-58 -110 0
-910 -962 0
-1762 -1814 0
-2614 -2666 0
-63 -547 0
-915 -1399 0
-1767 -2251 0
-2619 -3103 0
-87 -200 0
-939 -1052 0
-1791 -1904 0
-2643 -2756 0
-90 -524 0
-942 -1376 0
-1794 -2228 0
-2646 -3080 0
-112 -302 0
-964 -1154 0
-1816 -2006 0
-2668 -2858 0
-118 -145 0
-970 -997 0
-1822 -1849 0
-2674 -2701 0
-129 -706 0
-981 -1558 0
-1833 -2410 0
-2685 -3262 0
-136 -254 0
-988 -1106 0
-1840 -1958 0
-2692 -2810 0
-146 -205 0
-998 -1057 0
-1850 -1909 0
-2702 -2761 0
-201 -755 0
-1053 -1607 0
-1905 -2459 0
-2757 -3311 0
-259 -353 0
-1111 -1205 0
-1963 -2057 0
-2815 -2909 0
-261 -387 0
-1113 -1239 0
-1965 -2091 0
-2817 -2943 0
-262 -552 0
-1114 -1404 0
-1966 -2256 0
-2818 -3108 0
-284 -398 0
-1136 -1250 0
-1988 -2102 0
-2840 -2954 0
-298 -337 0
-1150 -1189 0
-2002 -2041 0
-2854 -2893 0
-314 -767 0
-1166 -1619 0
-2018 -2471 0
-2870 -3323 0
-324 -696 0
-1176 -1548 0
-2028 -2400 0
-2880 -3252 0
-360 -476 0
-1212 -1328 0
-2064 -2180 0
-2916 -3032 0
-393 -669 0
-1245 -1521 0
-2097 -2373 0
-2949 -3225 0
-416 -594 0
-1268 -1446 0
-2120 -2298 0
-2972 -3150 0
-424 -580 0
-1276 -1432 0
-2128 -2284 0
-2980 -3136 0
-444 -565 0
-1296 -1417 0
-2148 -2269 0
-3000 -3121 0
-462 -689 0
-1314 -1541 0
-2166 -2393 0
-3018 -3245 0
-484 -572 0
-1336 -1424 0
-2188 -2276 0
-3040 -3128 0
-553 -684 0
-1405 -1536 0
-2257 -2388 0
-3109 -3240 0
-581 -822 0
-1433 -1674 0
-2285 -2526 0
-3137 -3378 0
-589 -655 0
-1441 -1507 0
-2293 -2359 0
-3145 -3211 0
-631 -670 0
-1483 -1522 0
-2335 -2374 0
-3187 -3226 0
-647 -747 0
-1499 -1599 0
-2351 -2451 0
-3203 -3303 0
-692 -749 0
-1544 -1601 0
-2396 -2453 0
-3248 -3305 0
-764 -815 0
-1616 -1667 0
-2468 -2519 0
-3320 -3371 0
-4 -338 0
-856 -1190 0
-1708 -2042 0
-2560 -2894 0
-7 -105 0
-859 -957 0
-1711 -1809 0
-2563 -2661 0
-10 -71 0
-862 -923 0
-1714 -1775 0
-2566 -2627 0
-13 -327 0
-865 -1179 0
-1717 -2031 0
-2569 -2883 0
-23 -147 0
-875 -999 0
-1727 -1851 0
-2579 -2703 0
-24 -58 0
-876 -910 0
-1728 -1762 0
-2580 -2614 0
-30 -57 0
-882 -909 0
-1734 -1761 0
-2586 -2613 0
-33 -281 0
-885 -1133 0
-1737 -1985 0
-2589 -2837 0
-35 -91 0
-887 -943 0
-1739 -1795 0
-2591 -2647 0
-39 -100 0
-891 -952 0
-1743 -1804 0
-2595 -2656 0
-50 -597 0
-902 -1449 0
-1754 -2301 0
-2606 -3153 0
-51 -63 0
-903 -915 0
-1755 -1767 0
-2607 -2619 0
-64 -613 0
-916 -1465 0
-1768 -2317 0
-2620 -3169 0
-68 -234 0
-920 -1086 0
-1772 -1938 0
-2624 -2790 0
-72 -107 0
-924 -959 0
-1776 -1811 0
-2628 -2663 0
-73 -163 0
-925 -1015 0
-1777 -1867 0
-2629 -2719 0
-80 -154 0
-932 -1006 0
-1784 -1858 0
-2636 -2710 0
-86 -378 0
-938 -1230 0
-1790 -2082 0
-2642 -2934 0
-108 -110 0
-960 -962 0
-1812 -1814 0
-2664 -2666 0
-111 -498 0
-963 -1350 0
-1815 -2202 0
-2667 -3054 0
-121 -189 0
-973 -1041 0
-1825 -1893 0
-2677 -2745 0
-125 -191 0
-977 -1043 0
-1829 -1895 0
-2681 -2747 0
-132 -186 0
-984 -1038 0
-1836 -1890 0
-2688 -2742 0
-134 -220 0
-986 -1072 0
-1838 -1924 0
-2690 -2776 0
-139 -599 0
-991 -1451 0
-1843 -2303 0
-2695 -3155 0
-146 -183 0
-998 -1035 0
-1850 -1887 0
-2702 -2739 0
-155 -238 0
-1007 -1090 0
-1859 -1942 0
-2711 -2794 0
-157 -682 0
-1009 -1534 0
-1861 -2386 0
-2713 -3238 0
-193 -426 0
-1045 -1278 0
-1897 -2130 0
-2749 -2982 0
-222 -774 0
-1074 -1626 0
-1926 -2478 0
-2778 -3330 0
-230 -451 0
-1082 -1303 0
-1934 -2155 0
-2786 -3007 0
-235 -546 0
-1087 -1398 0
-1939 -2250 0
-2791 -3102 0
-240 -382 0
-1092 -1234 0
-1944 -2086 0
-2796 -2938 0
-292 -754 0
-1144 -1606 0
-1996 -2458 0
-2848 -3310 0
-313 -836 0
-1165 -1688 0
-2017 -2540 0
-2869 -3392 0
-330 -794 0
-1182 -1646 0
-2034 -2498 0
-2886 -3350 0
-340 -417 0
-1192 -1269 0
-2044 -2121 0
-2896 -2973 0
-363 -617 0
-1215 -1469 0
-2067 -2321 0
-2919 -3173 0
-373 -386 0
-1225 -1238 0
-2077 -2090 0
-2929 -2942 0
-424 -458 0
-1276 -1310 0
-2128 -2162 0
-2980 -3014 0
-440 -650 0
-1292 -1502 0
-2144 -2354 0
-2996 -3206 0
-444 -576 0
-1296 -1428 0
-2148 -2280 0
-3000 -3132 0
-448 -484 0
-1300 -1336 0
-2152 -2188 0
-3004 -3040 0
-463 -717 0
-1315 -1569 0
-2167 -2421 0
-3019 -3273 0
-500 -825 0
-1352 -1677 0
-2204 -2529 0
-3056 -3381 0
-530 -641 0
-1382 -1493 0
-2234 -2345 0
-3086 -3197 0
-552 -706 0
-1404 -1558 0
-2256 -2410 0
-3108 -3262 0
-563 -700 0
-1415 -1552 0
-2267 -2404 0
-3119 -3256 0
-595 -851 0
-1447 -1703 0
-2299 -2555 0
-3151 -3407 0
-621 -731 0
-1473 -1583 0
-2325 -2435 0
-3177 -3287 0
-627 -652 0
-1479 -1504 0
-2331 -2356 0
-3183 -3208 0
-707 -738 0
-1559 -1590 0
-2411 -2442 0
-3263 -3294 0
-785 -844 0
-1637 -1696 0
-2489 -2548 0
-3341 -3400 0
-1 -3 0
-853 -855 0
-1705 -1707 0
-2557 -2559 0
-7 -611 0
-859 -1463 0
-1711 -2315 0
-2563 -3167 0
-27 -379 0
-879 -1231 0
-1731 -2083 0
-2583 -2935 0
-33 -758 0
-885 -1610 0
-1737 -2462 0
-2589 -3314 0
-34 -590 0
-886 -1442 0
-1738 -2294 0
-2590 -3146 0
-35 -760 0
-887 -1612 0
-1739 -2464 0
-2591 -3316 0
-44 -701 0
-896 -1553 0
-1748 -2405 0
-2600 -3257 0
-61 -365 0
-913 -1217 0
-1765 -2069 0
-2617 -2921 0
-76 -358 0
-928 -1210 0
-1780 -2062 0
-2632 -2914 0
-79 -232 0
-931 -1084 0
-1783 -1936 0
-2635 -2788 0
-123 -410 0
-975 -1262 0
-1827 -2114 0
-2679 -2966 0
-133 -269 0
-985 -1121 0
-1837 -1973 0
-2689 -2825 0
-141 -828 0
-993 -1680 0
-1845 -2532 0
-2697 -3384 0
-157 -313 0
-1009 -1165 0
-1861 -2017 0
-2713 -2869 0
-168 -185 0
-1020 -1037 0
-1872 -1889 0
-2724 -2741 0
-184 -460 0
-1036 -1312 0
-1888 -2164 0
-2740 -3016 0
-192 -419 0
-1044 -1271 0
-1896 -2123 0
-2748 -2975 0
-202 -710 0
-1054 -1562 0
-1906 -2414 0
-2758 -3266 0
-218 -353 0
-1070 -1205 0
-1922 -2057 0
-2774 -2909 0
-227 -560 0
-1079 -1412 0
-1931 -2264 0
-2783 -3116 0
-248 -324 0
-1100 -1176 0
-1952 -2028 0
-2804 -2880 0
-256 -503 0
-1108 -1355 0
-1960 -2207 0
-2812 -3059 0
-261 -607 0
-1113 -1459 0
-1965 -2311 0
-2817 -3163 0
-264 -312 0
-1116 -1164 0
-1968 -2016 0
-2820 -2868 0
-266 -495 0
-1118 -1347 0
-1970 -2199 0
-2822 -3051 0
-268 -730 0
-1120 -1582 0
-1972 -2434 0
-2824 -3286 0
-273 -369 0
-1125 -1221 0
-1977 -2073 0
-2829 -2925 0
-274 -403 0
-1126 -1255 0
-1978 -2107 0
-2830 -2959 0
-275 -619 0
-1127 -1471 0
-1979 -2323 0
-2831 -3175 0
-276 -826 0
-1128 -1678 0
-1980 -2530 0
-2832 -3382 0
-280 -520 0
-1132 -1372 0
-1984 -2224 0
-2836 -3076 0
-286 -462 0
-1138 -1314 0
-1990 -2166 0
-2842 -3018 0
-293 -713 0
-1145 -1565 0
-1997 -2417 0
-2849 -3269 0
-315 -578 0
-1167 -1430 0
-2019 -2282 0
-2871 -3134 0
-317 -848 0
-1169 -1700 0
-2021 -2552 0
-2873 -3404 0
-322 -814 0
-1174 -1666 0
-2026 -2518 0
-2878 -3370 0
-342 -583 0
-1194 -1435 0
-2046 -2287 0
-2898 -3139 0
-352 -392 0
-1204 -1244 0
-2056 -2096 0
-2908 -2948 0
-360 -408 0
-1212 -1260 0
-2064 -2112 0
-2916 -2964 0
-364 -404 0
-1216 -1256 0
-2068 -2108 0
-2920 -2960 0
-366 -531 0
-1218 -1383 0
-2070 -2235 0
-2922 -3087 0
-370 -675 0
-1222 -1527 0
-2074 -2379 0
-2926 -3231 0
-381 -519 0
-1233 -1371 0
-2085 -2223 0
-2937 -3075 0
-397 -654 0
-1249 -1506 0
-2101 -2358 0
-2953 -3210 0
-432 -662 0
-1284 -1514 0
-2136 -2366 0
-2988 -3218 0
-437 -708 0
-1289 -1560 0
-2141 -2412 0
-2993 -3264 0
-481 -813 0
-1333 -1665 0
-2185 -2517 0
-3037 -3369 0
-526 -677 0
-1378 -1529 0
-2230 -2381 0
-3082 -3233 0
-551 -580 0
-1403 -1432 0
-2255 -2284 0
-3107 -3136 0
-564 -753 0
-1416 -1605 0
-2268 -2457 0
-3120 -3309 0
-606 -711 0
-1458 -1563 0
-2310 -2415 0
-3162 -3267 0
-610 -766 0
-1462 -1618 0
-2314 -2470 0
-3166 -3322 0
-618 -657 0
-1470 -1509 0
-2322 -2361 0
-3174 -3213 0
-633 -819 0
-1485 -1671 0
-2337 -2523 0
-3189 -3375 0
-643 -768 0
-1495 -1620 0
-2347 -2472 0
-3199 -3324 0
-659 -716 0
-1511 -1568 0
-2363 -2420 0
-3215 -3272 0
-682 -836 0
-1534 -1688 0
-2386 -2540 0
-3238 -3392 0
-7 -346 0
-859 -1198 0
-1711 -2050 0
-2563 -2902 0
-15 -66 0
-867 -918 0
-1719 -1770 0
-2571 -2622 0
-26 -115 0
-878 -967 0
-1730 -1819 0
-2582 -2671 0
-27 -89 0
-879 -941 0
-1731 -1793 0
-2583 -2645 0
-29 -124 0
-881 -976 0
-1733 -1828 0
-2585 -2680 0
-35 -73 0
-887 -925 0
-1739 -1777 0
-2591 -2629 0
-54 -94 0
-906 -946 0
-1758 -1798 0
-2610 -2650 0
-61 -218 0
-913 -1070 0
-1765 -1922 0
-2617 -2774 0
-72 -121 0
-924 -973 0
-1776 -1825 0
-2628 -2677 0
-78 -759 0
-930 -1611 0
-1782 -2463 0
-2634 -3315 0
-90 -99 0
-942 -951 0
-1794 -1803 0
-2646 -2655 0
-91 -163 0
-943 -1015 0
-1795 -1867 0
-2647 -2719 0
-92 -144 0
-944 -996 0
-1796 -1848 0
-2648 -2700 0
-107 -189 0
-959 -1041 0
-1811 -1893 0
-2663 -2745 0
-123 -770 0
-975 -1622 0
-1827 -2474 0
-2679 -3326 0
-125 -288 0
-977 -1140 0
-1829 -1992 0
-2681 -2844 0
-138 -527 0
-990 -1379 0
-1842 -2231 0
-2694 -3083 0
-139 -514 0
-991 -1366 0
-1843 -2218 0
-2695 -3070 0
-160 -299 0
-1012 -1151 0
-1864 -2003 0
-2716 -2855 0
-175 -206 0
-1027 -1058 0
-1879 -1910 0
-2731 -2762 0
-204 -212 0
-1056 -1064 0
-1908 -1916 0
-2760 -2768 0
-209 -765 0
-1061 -1617 0
-1913 -2469 0
-2765 -3321 0
-237 -499 0
-1089 -1351 0
-1941 -2203 0
-2793 -3055 0
-260 -799 0
-1112 -1651 0
-1964 -2503 0
-2816 -3355 0
-266 -545 0
-1118 -1397 0
-1970 -2249 0
-2822 -3101 0
-284 -472 0
-1136 -1324 0
-1988 -2176 0
-2840 -3028 0
-294 -345 0
-1146 -1197 0
-1998 -2049 0
-2850 -2901 0
-314 -359 0
-1166 -1211 0
-2018 -2063 0
-2870 -2915 0
-342 -537 0
-1194 -1389 0
-2046 -2241 0
-2898 -3093 0
-395 -453 0
-1247 -1305 0
-2099 -2157 0
-2951 -3009 0
-417 -451 0
-1269 -1303 0
-2121 -2155 0
-2973 -3007 0
-442 -698 0
-1294 -1550 0
-2146 -2402 0
-2998 -3254 0
-449 -722 0
-1301 -1574 0
-2153 -2426 0
-3005 -3278 0
-511 -620 0
-1363 -1472 0
-2215 -2324 0
-3067 -3176 0
-550 -643 0
-1402 -1495 0
-2254 -2347 0
-3106 -3199 0
-553 -628 0
-1405 -1480 0
-2257 -2332 0
-3109 -3184 0
-563 -702 0
-1415 -1554 0
-2267 -2406 0
-3119 -3258 0
-590 -758 0
-1442 -1610 0
-2294 -2462 0
-3146 -3314 0
-618 -659 0
-1470 -1511 0
-2322 -2363 0
-3174 -3215 0
-631 -830 0
-1483 -1682 0
-2335 -2534 0
-3187 -3386 0
-646 -679 0
-1498 -1531 0
-2350 -2383 0
-3202 -3235 0
-657 -716 0
-1509 -1568 0
-2361 -2420 0
-3213 -3272 0
-9 -102 0
-861 -954 0
-1713 -1806 0
-2565 -2658 0
-22 -71 0
-874 -923 0
-1726 -1775 0
-2578 -2627 0
-24 -622 0
-876 -1474 0
-1728 -2326 0
-2580 -3178 0
-32 -547 0
-884 -1399 0
-1736 -2251 0
-2588 -3103 0
-37 -63 0
-889 -915 0
-1741 -1767 0
-2593 -2619 0
-44 -275 0
-896 -1127 0
-1748 -1979 0
-2600 -2831 0
-45 -74 0
-897 -926 0
-1749 -1778 0
-2601 -2630 0
-49 -317 0
-901 -1169 0
-1753 -2021 0
-2605 -2873 0
-64 -117 0
-916 -969 0
-1768 -1821 0
-2620 -2673 0
-68 -513 0
-920 -1365 0
-1772 -2217 0
-2624 -3069 0
-84 -368 0
-936 -1220 0
-1788 -2072 0
-2640 -2924 0
-97 -100 0
-949 -952 0
-1801 -1804 0
-2653 -2656 0
-125 -162 0
-977 -1014 0
-1829 -1866 0
-2681 -2718 0
-135 -170 0
-987 -1022 0
-1839 -1874 0
-2691 -2726 0
-136 -630 0
-988 -1482 0
-1840 -2334 0
-2692 -3186 0
-142 -173 0
-994 -1025 0
-1846 -1877 0
-2698 -2729 0
-250 -320 0
-1102 -1172 0
-1954 -2024 0
-2806 -2876 0
-272 -629 0
-1124 -1481 0
-1976 -2333 0
-2828 -3185 0
-302 -485 0
-1154 -1337 0
-2006 -2189 0
-2858 -3041 0
-309 -382 0
-1161 -1234 0
-2013 -2086 0
-2865 -2938 0
-312 -348 0
-1164 -1200 0
-2016 -2052 0
-2868 -2904 0
-330 -402 0
-1182 -1254 0
-2034 -2106 0
-2886 -2958 0
-339 -378 0
-1191 -1230 0
-2043 -2082 0
-2895 -2934 0
-357 -524 0
-1209 -1376 0
-2061 -2228 0
-2913 -3080 0
-358 -685 0
-1210 -1537 0
-2062 -2389 0
-2914 -3241 0
-486 -752 0
-1338 -1604 0
-2190 -2456 0
-3042 -3308 0
-487 -582 0
-1339 -1434 0
-2191 -2286 0
-3043 -3138 0
-491 -625 0
-1343 -1477 0
-2195 -2329 0
-3047 -3181 0
-525 -667 0
-1377 -1519 0
-2229 -2371 0
-3081 -3223 0
-532 -806 0
-1384 -1658 0
-2236 -2510 0
-3088 -3362 0
-535 -683 0
-1387 -1535 0
-2239 -2387 0
-3091 -3239 0
-579 -808 0
-1431 -1660 0
-2283 -2512 0
-3135 -3364 0
-618 -700 0
-1470 -1552 0
-2322 -2404 0
-3174 -3256 0
-660 -709 0
-1512 -1561 0
-2364 -2413 0
-3216 -3265 0
-677 -705 0
-1529 -1557 0
-2381 -2409 0
-3233 -3261 0
-10 -751 0
-862 -1603 0
-1714 -2455 0
-2566 -3307 0
-17 -48 0
-869 -900 0
-1721 -1752 0
-2573 -2604 0
-22 -167 0
-874 -1019 0
-1726 -1871 0
-2578 -2723 0
-25 -800 0
-877 -1652 0
-1729 -2504 0
-2581 -3356 0
-26 -279 0
-878 -1131 0
-1730 -1983 0
-2582 -2835 0
-30 -178 0
-882 -1030 0
-1734 -1882 0
-2586 -2734 0
-33 -83 0
-885 -935 0
-1737 -1787 0
-2589 -2639 0
-34 -172 0
-886 -1024 0
-1738 -1876 0
-2590 -2728 0
-41 -372 0
-893 -1224 0
-1745 -2076 0
-2597 -2928 0
-44 -779 0
-896 -1631 0
-1748 -2483 0
-2600 -3335 0
-50 -96 0
-902 -948 0
-1754 -1800 0
-2606 -2652 0
-62 -67 0
-914 -919 0
-1766 -1771 0
-2618 -2623 0
-78 -180 0
-930 -1032 0
-1782 -1884 0
-2634 -2736 0
-87 -319 0
-939 -1171 0
-1791 -2023 0
-2643 -2875 0
-113 -592 0
-965 -1444 0
-1817 -2296 0
-2669 -3148 0
-155 -231 0
-1007 -1083 0
-1859 -1935 0
-2711 -2787 0
-160 -478 0
-1012 -1330 0
-1864 -2182 0
-2716 -3034 0
-185 -843 0
-1037 -1695 0
-1889 -2547 0
-2741 -3399 0
-199 -691 0
-1051 -1543 0
-1903 -2395 0
-2755 -3247 0
-215 -249 0
-1067 -1101 0
-1919 -1953 0
-2771 -2805 0
-242 -283 0
-1094 -1135 0
-1946 -1987 0
-2798 -2839 0
-247 -257 0
-1099 -1109 0
-1951 -1961 0
-2803 -2813 0
-250 -311 0
-1102 -1163 0
-1954 -2015 0
-2806 -2867 0
-258 -453 0
-1110 -1305 0
-1962 -2157 0
-2814 -3009 0
-261 -591 0
-1113 -1443 0
-1965 -2295 0
-2817 -3147 0
-263 -395 0
-1115 -1247 0
-1967 -2099 0
-2819 -2951 0
-275 -769 0
-1127 -1621 0
-1979 -2473 0
-2831 -3325 0
-284 -506 0
-1136 -1358 0
-1988 -2210 0
-2840 -3062 0
-285 -435 0
-1137 -1287 0
-1989 -2139 0
-2841 -2991 0
-360 -616 0
-1212 -1468 0
-2064 -2320 0
-2916 -3172 0
-439 -456 0
-1291 -1308 0
-2143 -2160 0
-2995 -3012 0
-448 -681 0
-1300 -1533 0
-2152 -2385 0
-3004 -3237 0
-459 -604 0
-1311 -1456 0
-2163 -2308 0
-3015 -3160 0
-479 -773 0
-1331 -1625 0
-2183 -2477 0
-3035 -3329 0
-491 -608 0
-1343 -1460 0
-2195 -2312 0
-3047 -3164 0
-523 -676 0
-1375 -1528 0
-2227 -2380 0
-3079 -3232 0
-579 -595 0
-1431 -1447 0
-2283 -2299 0
-3135 -3151 0
-602 -807 0
-1454 -1659 0
-2306 -2511 0
-3158 -3363 0
-603 -720 0
-1455 -1572 0
-2307 -2424 0
-3159 -3276 0
-637 -679 0
-1489 -1531 0
-2341 -2383 0
-3193 -3235 0
-638 -646 0
-1490 -1498 0
-2342 -2350 0
-3194 -3202 0
-645 -715 0
-1497 -1567 0
-2349 -2419 0
-3201 -3271 0
-671 -797 0
-1523 -1649 0
-2375 -2501 0
-3227 -3353 0
-764 -841 0
-1616 -1693 0
-2468 -2545 0
-3320 -3397 0
-820 -832 0
-1672 -1684 0
-2524 -2536 0
-3376 -3388 0
-7 -38 0
-859 -890 0
-1711 -1742 0
-2563 -2594 0
-9 -661 0
-861 -1513 0
-1713 -2365 0
-2565 -3217 0
-24 -726 0
-876 -1578 0
-1728 -2430 0
-2580 -3282 0
-26 -220 0
-878 -1072 0
-1730 -1924 0
-2582 -2776 0
-43 -101 0
-895 -953 0
-1747 -1805 0
-2599 -2657 0
-45 -97 0
-897 -949 0
-1749 -1801 0
-2601 -2653 0
-56 -134 0
-908 -986 0
-1760 -1838 0
-2612 -2690 0
-74 -100 0
-926 -952 0
-1778 -1804 0
-2630 -2656 0
-102 -147 0
-954 -999 0
-1806 -1851 0
-2658 -2703 0
-104 -572 0
-956 -1424 0
-1808 -2276 0
-2660 -3128 0
-113 -285 0
-965 -1137 0
-1817 -1989 0
-2669 -2841 0
-122 -148 0
-974 -1000 0
-1826 -1852 0
-2678 -2704 0
-136 -579 0
-988 -1431 0
-1840 -2283 0
-2692 -3135 0
-150 -727 0
-1002 -1579 0
-1854 -2431 0
-2706 -3283 0
-151 -603 0
-1003 -1455 0
-1855 -2307 0
-2707 -3159 0
-160 -825 0
-1012 -1677 0
-1864 -2529 0
-2716 -3381 0
-176 -549 0
-1028 -1401 0
-1880 -2253 0
-2732 -3105 0
-182 -818 0
-1034 -1670 0
-1886 -2522 0
-2738 -3374 0
-202 -497 0
-1054 -1349 0
-1906 -2201 0
-2758 -3053 0
-240 -461 0
-1092 -1313 0
-1944 -2165 0
-2796 -3017 0
-261 -597 0
-1113 -1449 0
-1965 -2301 0
-2817 -3153 0
-293 -366 0
-1145 -1218 0
-1997 -2070 0
-2849 -2922 0
-294 -783 0
-1146 -1635 0
-1998 -2487 0
-2850 -3339 0
-314 -339 0
-1166 -1191 0
-2018 -2043 0
-2870 -2895 0
-318 -682 0
-1170 -1534 0
-2022 -2386 0
-2874 -3238 0
-319 -851 0
-1171 -1703 0
-2023 -2555 0
-2875 -3407 0
-342 -356 0
-1194 -1208 0
-2046 -2060 0
-2898 -2912 0
-350 -386 0
-1202 -1238 0
-2054 -2090 0
-2906 -2942 0
-352 -802 0
-1204 -1654 0
-2056 -2506 0
-2908 -3358 0
-355 -717 0
-1207 -1569 0
-2059 -2421 0
-2911 -3273 0
-367 -791 0
-1219 -1643 0
-2071 -2495 0
-2923 -3347 0
-416 -567 0
-1268 -1419 0
-2120 -2271 0
-2972 -3123 0
-423 -810 0
-1275 -1662 0
-2127 -2514 0
-2979 -3366 0
-439 -484 0
-1291 -1336 0
-2143 -2188 0
-2995 -3040 0
-468 -725 0
-1320 -1577 0
-2172 -2429 0
-3024 -3281 0
-474 -493 0
-1326 -1345 0
-2178 -2197 0
-3030 -3049 0
-486 -664 0
-1338 -1516 0
-2190 -2368 0
-3042 -3220 0
-492 -716 0
-1344 -1568 0
-2196 -2420 0
-3048 -3272 0
-533 -790 0
-1385 -1642 0
-2237 -2494 0
-3089 -3346 0
-566 -712 0
-1418 -1564 0
-2270 -2416 0
-3122 -3268 0
-573 -784 0
-1425 -1636 0
-2277 -2488 0
-3129 -3340 0
-630 -808 0
-1482 -1660 0
-2334 -2512 0
-3186 -3364 0
-667 -774 0
-1519 -1626 0
-2371 -2478 0
-3223 -3330 0
-675 -758 0
-1527 -1610 0
-2379 -2462 0
-3231 -3314 0
-677 -701 0
-1529 -1553 0
-2381 -2405 0
-3233 -3257 0
-724 -794 0
-1576 -1646 0
-2428 -2498 0
-3280 -3350 0
-1 -192 0
-853 -1044 0
-1705 -1896 0
-2557 -2748 0
-3 -419 0
-855 -1271 0
-1707 -2123 0
-2559 -2975 0
-4 -137 0
-856 -989 0
-1708 -1841 0
-2560 -2693 0
-7 -334 0
-859 -1186 0
-1711 -2038 0
-2563 -2890 0
-15 -371 0
-867 -1223 0
-1719 -2075 0
-2571 -2927 0
-23 -214 0
-875 -1066 0
-1727 -1918 0
-2579 -2770 0
-28 -57 0
-880 -909 0
-1732 -1761 0
-2584 -2613 0
-38 -70 0
-890 -922 0
-1742 -1774 0
-2594 -2626 0
-39 -80 0
-891 -932 0
-1743 -1784 0
-2595 -2636 0
-44 -815 0
-896 -1667 0
-1748 -2519 0
-2600 -3371 0
-50 -62 0
-902 -914 0
-1754 -1766 0
-2606 -2618 0
-51 -363 0
-903 -1215 0
-1755 -2067 0
-2607 -2919 0
-59 -368 0
-911 -1220 0
-1763 -2072 0
-2615 -2924 0
-63 -617 0
-915 -1469 0
-1767 -2321 0
-2619 -3173 0
-79 -464 0
-931 -1316 0
-1783 -2168 0
-2635 -3020 0
-81 -430 0
-933 -1282 0
-1785 -2134 0
-2637 -2986 0
-89 -115 0
-941 -967 0
-1793 -1819 0
-2645 -2671 0
-100 -154 0
-952 -1006 0
-1804 -1858 0
-2656 -2710 0
-103 -446 0
-955 -1298 0
-1807 -2150 0
-2659 -3002 0
-109 -149 0
-961 -1001 0
-1813 -1853 0
-2665 -2705 0
-118 -522 0
-970 -1374 0
-1822 -2226 0
-2674 -3078 0
-123 -200 0
-975 -1052 0
-1827 -1904 0
-2679 -2756 0
-130 -160 0
-982 -1012 0
-1834 -1864 0
-2686 -2716 0
-132 -169 0
-984 -1021 0
-1836 -1873 0
-2688 -2725 0
-133 -184 0
-985 -1036 0
-1837 -1888 0
-2689 -2740 0
-158 -477 0
-1010 -1329 0
-1862 -2181 0
-2714 -3033 0
-174 -429 0
-1026 -1281 0
-1878 -2133 0
-2730 -2985 0
-176 -533 0
-1028 -1385 0
-1880 -2237 0
-2732 -3089 0
-209 -303 0
-1061 -1155 0
-1913 -2007 0
-2765 -2859 0
-236 -489 0
-1088 -1341 0
-1940 -2193 0
-2792 -3045 0
-248 -268 0
-1100 -1120 0
-1952 -1972 0
-2804 -2824 0
-261 -731 0
-1113 -1583 0
-1965 -2435 0
-2817 -3287 0
-266 -598 0
-1118 -1450 0
-1970 -2302 0
-2822 -3154 0
-269 -460 0
-1121 -1312 0
-1973 -2164 0
-2825 -3016 0
-292 -740 0
-1144 -1592 0
-1996 -2444 0
-2848 -3296 0
-324 -730 0
-1176 -1582 0
-2028 -2434 0
-2880 -3286 0
-359 -759 0
-1211 -1611 0
-2063 -2463 0
-2915 -3315 0
-397 -564 0
-1249 -1416 0
-2101 -2268 0
-2953 -3120 0
-402 -485 0
-1254 -1337 0
-2106 -2189 0
-2958 -3041 0
-412 -634 0
-1264 -1486 0
-2116 -2338 0
-2968 -3190 0
-416 -518 0
-1268 -1370 0
-2120 -2222 0
-2972 -3074 0
-422 -548 0
-1274 -1400 0
-2126 -2252 0
-2978 -3104 0
-424 -583 0
-1276 -1435 0
-2128 -2287 0
-2980 -3139 0
-433 -537 0
-1285 -1389 0
-2137 -2241 0
-2989 -3093 0
-483 -621 0
-1335 -1473 0
-2187 -2325 0
-3039 -3177 0
-530 -755 0
-1382 -1607 0
-2234 -2459 0
-3086 -3311 0
-539 -671 0
-1391 -1523 0
-2243 -2375 0
-3095 -3227 0
-549 -790 0
-1401 -1642 0
-2253 -2494 0
-3105 -3346 0
-563 -612 0
-1415 -1464 0
-2267 -2316 0
-3119 -3168 0
-642 -844 0
-1494 -1696 0
-2346 -2548 0
-3198 -3400 0
-654 -753 0
-1506 -1605 0
-2358 -2457 0
-3210 -3309 0
-674 -735 0
-1526 -1587 0
-2378 -2439 0
-3230 -3291 0
-769 -822 0
-1621 -1674 0
-2473 -2526 0
-3325 -3378 0
-804 -850 0
-1656 -1702 0
-2508 -2554 0
-3360 -3406 0
-11 -620 0
-863 -1472 0
-1715 -2324 0
-2567 -3176 0
-27 -807 0
-879 -1659 0
-1731 -2511 0
-2583 -3363 0
-38 -765 0
-890 -1617 0
-1742 -2469 0
-2594 -3321 0
-61 -827 0
-913 -1679 0
-1765 -2531 0
-2617 -3383 0
-92 -843 0
-944 -1695 0
-1796 -2547 0
-2648 -3399 0
-112 -768 0
-964 -1620 0
-1816 -2472 0
-2668 -3324 0
-127 -185 0
-979 -1037 0
-1831 -1889 0
-2683 -2741 0
-188 -231 0
-1040 -1083 0
-1892 -1935 0
-2744 -2787 0
-292 -702 0
-1144 -1554 0
-1996 -2406 0
-2848 -3258 0
-324 -632 0
-1176 -1484 0
-2028 -2336 0
-2880 -3188 0
-380 -628 0
-1232 -1480 0
-2084 -2332 0
-2936 -3184 0
-392 -492 0
-1244 -1344 0
-2096 -2196 0
-2948 -3048 0
-393 -775 0
-1245 -1627 0
-2097 -2479 0
-2949 -3331 0
-397 -433 0
-1249 -1285 0
-2101 -2137 0
-2953 -2989 0
-471 -616 0
-1323 -1468 0
-2175 -2320 0
-3027 -3172 0
-487 -707 0
-1339 -1559 0
-2191 -2411 0
-3043 -3263 0
-504 -759 0
-1356 -1611 0
-2208 -2463 0
-3060 -3315 0
-582 -674 0
-1434 -1526 0
-2286 -2378 0
-3138 -3230 0
-665 -737 0
-1517 -1589 0
-2369 -2441 0
-3221 -3293 0
-703 -758 0
-1555 -1610 0
-2407 -2462 0
-3259 -3314 0
-7 -176 0
-859 -1028 0
-1711 -1880 0
-2563 -2732 0
-24 -823 0
-876 -1675 0
-1728 -2527 0
-2580 -3379 0
-29 -406 0
-881 -1258 0
-1733 -2110 0
-2585 -2962 0
-38 -549 0
-890 -1401 0
-1742 -2253 0
-2594 -3105 0
-61 -244 0
-913 -1096 0
-1765 -1948 0
-2617 -2800 0
-62 -637 0
-914 -1489 0
-1766 -2341 0
-2618 -3193 0
-67 -679 0
-919 -1531 0
-1771 -2383 0
-2623 -3235 0
-70 -790 0
-922 -1642 0
-1774 -2494 0
-2626 -3346 0
-72 -662 0
-924 -1514 0
-1776 -2366 0
-2628 -3218 0
-92 -531 0
-944 -1383 0
-1796 -2235 0
-2648 -3087 0
-98 -441 0
-950 -1293 0
-1802 -2145 0
-2654 -2997 0
-120 -646 0
-972 -1498 0
-1824 -2350 0
-2676 -3202 0
-127 -703 0
-979 -1555 0
-1831 -2407 0
-2683 -3259 0
-128 -805 0
-980 -1657 0
-1832 -2509 0
-2684 -3361 0
-137 -419 0
-989 -1271 0
-1841 -2123 0
-2693 -2975 0
-152 -323 0
-1004 -1175 0
-1856 -2027 0
-2708 -2879 0
-185 -758 0
-1037 -1610 0
-1889 -2462 0
-2741 -3314 0
-209 -269 0
-1061 -1121 0
-1913 -1973 0
-2765 -2825 0
-213 -343 0
-1065 -1195 0
-1917 -2047 0
-2769 -2899 0
-229 -369 0
-1081 -1221 0
-1933 -2073 0
-2785 -2925 0
-234 -613 0
-1086 -1465 0
-1938 -2317 0
-2790 -3169 0
-239 -559 0
-1091 -1411 0
-1943 -2263 0
-2795 -3115 0
-240 -287 0
-1092 -1139 0
-1944 -1991 0
-2796 -2843 0
-257 -283 0
-1109 -1135 0
-1961 -1987 0
-2813 -2839 0
-258 -299 0
-1110 -1151 0
-1962 -2003 0
-2814 -2855 0
-272 -787 0
-1124 -1639 0
-1976 -2491 0
-2828 -3343 0
-286 -344 0
-1138 -1196 0
-1990 -2048 0
-2842 -2900 0
-303 -460 0
-1155 -1312 0
-2007 -2164 0
-2859 -3016 0
-309 -650 0
-1161 -1502 0
-2013 -2354 0
-2865 -3206 0
-325 -713 0
-1177 -1565 0
-2029 -2417 0
-2881 -3269 0
-334 -533 0
-1186 -1385 0
-2038 -2237 0
-2890 -3089 0
-342 -423 0
-1194 -1275 0
-2046 -2127 0
-2898 -2979 0
-356 -810 0
-1208 -1662 0
-2060 -2514 0
-2912 -3366 0
-360 -400 0
-1212 -1252 0
-2064 -2104 0
-2916 -2956 0
-367 -440 0
-1219 -1292 0
-2071 -2144 0
-2923 -2996 0
-395 -478 0
-1247 -1330 0
-2099 -2182 0
-2951 -3034 0
-438 -500 0
-1290 -1352 0
-2142 -2204 0
-2994 -3056 0
-455 -638 0
-1307 -1490 0
-2159 -2342 0
-3011 -3194 0
-469 -666 0
-1321 -1518 0
-2173 -2370 0
-3025 -3222 0
-486 -565 0
-1338 -1417 0
-2190 -2269 0
-3042 -3121 0
-525 -624 0
-1377 -1476 0
-2229 -2328 0
-3081 -3180 0
-545 -770 0
-1397 -1622 0
-2249 -2474 0
-3101 -3326 0
-566 -593 0
-1418 -1445 0
-2270 -2297 0
-3122 -3149 0
-570 -651 0
-1422 -1503 0
-2274 -2355 0
-3126 -3207 0
-614 -699 0
-1466 -1551 0
-2318 -2403 0
-3170 -3255 0
-639 -675 0
-1491 -1527 0
-2343 -2379 0
-3195 -3231 0
-669 -696 0
-1521 -1548 0
-2373 -2400 0
-3225 -3252 0
-1 -391 0
-853 -1243 0
-1705 -2095 0
-2557 -2947 0
-3 -283 0
-855 -1135 0
-1707 -1987 0
-2559 -2839 0
-4 -257 0
-856 -1109 0
-1708 -1961 0
-2560 -2813 0
-7 -306 0
-859 -1158 0
-1711 -2010 0
-2563 -2862 0
-8 -279 0
-860 -1131 0
-1712 -1983 0
-2564 -2835 0
-9 -319 0
-861 -1171 0
-1713 -2023 0
-2565 -2875 0
-10 -348 0
-862 -1200 0
-1714 -2052 0
-2566 -2904 0
-11 -26 0
-863 -878 0
-1715 -1730 0
-2567 -2582 0
-23 -177 0
-875 -1029 0
-1727 -1881 0
-2579 -2733 0
-24 -231 0
-876 -1083 0
-1728 -1935 0
-2580 -2787 0
-25 -312 0
-877 -1164 0
-1729 -2016 0
-2581 -2868 0
-32 -797 0
-884 -1649 0
-1736 -2501 0
-2588 -3353 0
-33 -149 0
-885 -1001 0
-1737 -1853 0
-2589 -2705 0
-34 -153 0
-886 -1005 0
-1738 -1857 0
-2590 -2709 0
-35 -188 0
-887 -1040 0
-1739 -1892 0
-2591 -2744 0
-39 -304 0
-891 -1156 0
-1743 -2008 0
-2595 -2860 0
-44 -76 0
-896 -928 0
-1748 -1780 0
-2600 -2632 0
-49 -87 0
-901 -939 0
-1753 -1791 0
-2605 -2643 0
-59 -63 0
-911 -915 0
-1763 -1767 0
-2615 -2619 0
-62 -70 0
-914 -922 0
-1766 -1774 0
-2618 -2626 0
-73 -164 0
-925 -1016 0
-1777 -1868 0
-2629 -2720 0
-75 -92 0
-927 -944 0
-1779 -1796 0
-2631 -2648 0
-86 -588 0
-938 -1440 0
-1790 -2292 0
-2642 -3144 0
-93 -404 0
-945 -1256 0
-1797 -2108 0
-2649 -2960 0
-112 -558 0
-964 -1410 0
-1816 -2262 0
-2668 -3114 0
-114 -480 0
-966 -1332 0
-1818 -2184 0
-2670 -3036 0
-132 -298 0
-984 -1150 0
-1836 -2002 0
-2688 -2854 0
-139 -686 0
-991 -1538 0
-1843 -2390 0
-2695 -3242 0
-140 -305 0
-992 -1157 0
-1844 -2009 0
-2696 -2861 0
-146 -155 0
-998 -1007 0
-1850 -1859 0
-2702 -2711 0
-183 -238 0
-1035 -1090 0
-1887 -1942 0
-2739 -2794 0
-210 -581 0
-1062 -1433 0
-1914 -2285 0
-2766 -3137 0
-225 -282 0
-1077 -1134 0
-1929 -1986 0
-2781 -2838 0
-229 -303 0
-1081 -1155 0
-1933 -2007 0
-2785 -2859 0
-277 -798 0
-1129 -1650 0
-1981 -2502 0
-2833 -3354 0
-292 -473 0
-1144 -1325 0
-1996 -2177 0
-2848 -3029 0
-328 -381 0
-1180 -1233 0
-2032 -2085 0
-2884 -2937 0
-331 -751 0
-1183 -1603 0
-2035 -2455 0
-2887 -3307 0
-368 -617 0
-1220 -1469 0
-2072 -2321 0
-2924 -3173 0
-369 -460 0
-1221 -1312 0
-2073 -2164 0
-2925 -3016 0
-389 -613 0
-1241 -1465 0
-2093 -2317 0
-2945 -3169 0
-392 -520 0
-1244 -1372 0
-2096 -2224 0
-2948 -3076 0
-398 -706 0
-1250 -1558 0
-2102 -2410 0
-2954 -3262 0
-433 -830 0
-1285 -1682 0
-2137 -2534 0
-2989 -3386 0
-502 -720 0
-1354 -1572 0
-2206 -2424 0
-3058 -3276 0
-551 -670 0
-1403 -1522 0
-2255 -2374 0
-3107 -3226 0
-566 -631 0
-1418 -1483 0
-2270 -2335 0
-3122 -3187 0
-573 -723 0
-1425 -1575 0
-2277 -2427 0
-3129 -3279 0
-619 -685 0
-1471 -1537 0
-2323 -2389 0
-3175 -3241 0
-627 -676 0
-1479 -1528 0
-2331 -2380 0
-3183 -3232 0
-637 -790 0
-1489 -1642 0
-2341 -2494 0
-3193 -3346 0
-661 -851 0
-1513 -1703 0
-2365 -2555 0
-3217 -3407 0
-783 -818 0
-1635 -1670 0
-2487 -2522 0
-3339 -3374 0
-2 -211 0
-854 -1063 0
-1706 -1915 0
-2558 -2767 0
-7 -240 0
-859 -1092 0
-1711 -1944 0
-2563 -2796 0
-21 -418 0
-873 -1270 0
-1725 -2122 0
-2577 -2974 0
-22 -82 0
-874 -934 0
-1726 -1786 0
-2578 -2638 0
-25 -93 0
-877 -945 0
-1729 -1797 0
-2581 -2649 0
-37 -53 0
-889 -905 0
-1741 -1757 0
-2593 -2609 0
-38 -461 0
-890 -1313 0
-1742 -2165 0
-2594 -3017 0
-64 -833 0
-916 -1685 0
-1768 -2537 0
-2620 -3389 0
-78 -131 0
-930 -983 0
-1782 -1835 0
-2634 -2687 0
-84 -181 0
-936 -1033 0
-1788 -1885 0
-2640 -2737 0
-97 -101 0
-949 -953 0
-1801 -1805 0
-2653 -2657 0
-105 -382 0
-957 -1234 0
-1809 -2086 0
-2661 -2938 0
-111 -235 0
-963 -1087 0
-1815 -1939 0
-2667 -2791 0
-133 -769 0
-985 -1621 0
-1837 -2473 0
-2689 -3325 0
-135 -689 0
-987 -1541 0
-1839 -2393 0
-2691 -3245 0
-160 -524 0
-1012 -1376 0
-1864 -2228 0
-2716 -3080 0
-176 -287 0
-1028 -1139 0
-1880 -1991 0
-2732 -2843 0
-184 -822 0
-1036 -1674 0
-1888 -2526 0
-2740 -3378 0
-188 -557 0
-1040 -1409 0
-1892 -2261 0
-2744 -3113 0
-193 -230 0
-1045 -1082 0
-1897 -1934 0
-2749 -2786 0
-194 -337 0
-1046 -1189 0
-1898 -2041 0
-2750 -2893 0
-199 -817 0
-1051 -1669 0
-1903 -2521 0
-2755 -3373 0
-200 -430 0
-1052 -1282 0
-1904 -2134 0
-2756 -2986 0
-224 -541 0
-1076 -1393 0
-1928 -2245 0
-2780 -3097 0
-233 -309 0
-1085 -1161 0
-1937 -2013 0
-2789 -2865 0
-248 -275 0
-1100 -1127 0
-1952 -1979 0
-2804 -2831 0
-250 -482 0
-1102 -1334 0
-1954 -2186 0
-2806 -3038 0
-256 -734 0
-1108 -1586 0
-1960 -2438 0
-2812 -3290 0
-262 -695 0
-1114 -1547 0
-1966 -2399 0
-2818 -3251 0
-264 -364 0
-1116 -1216 0
-1968 -2068 0
-2820 -2920 0
-267 -755 0
-1119 -1607 0
-1971 -2459 0
-2823 -3311 0
-312 -404 0
-1164 -1256 0
-2016 -2108 0
-2868 -2960 0
-322 -362 0
-1174 -1214 0
-2026 -2066 0
-2878 -2918 0
-324 -619 0
-1176 -1471 0
-2028 -2323 0
-2880 -3175 0
-342 -612 0
-1194 -1464 0
-2046 -2316 0
-2898 -3168 0
-347 -762 0
-1199 -1614 0
-2051 -2466 0
-2903 -3318 0
-359 -514 0
-1211 -1366 0
-2063 -2218 0
-2915 -3070 0
-408 -462 0
-1260 -1314 0
-2112 -2166 0
-2964 -3018 0
-422 -842 0
-1274 -1694 0
-2126 -2546 0
-2978 -3398 0
-426 -451 0
-1278 -1303 0
-2130 -2155 0
-2982 -3007 0
-433 -702 0
-1285 -1554 0
-2137 -2406 0
-2989 -3258 0
-475 -683 0
-1327 -1535 0
-2179 -2387 0
-3031 -3239 0
-487 -530 0
-1339 -1382 0
-2191 -2234 0
-3043 -3086 0
-498 -546 0
-1350 -1398 0
-2202 -2250 0
-3054 -3102 0
-564 -740 0
-1416 -1592 0
-2268 -2444 0
-3120 -3296 0
-647 -705 0
-1499 -1557 0
-2351 -2409 0
-3203 -3261 0
-668 -831 0
-1520 -1683 0
-2372 -2535 0
-3224 -3387 0
-676 -751 0
-1528 -1603 0
-2380 -2455 0
-3232 -3307 0
-4 -351 0
-856 -1203 0
-1708 -2055 0
-2560 -2907 0
-7 -322 0
-859 -1174 0
-1711 -2026 0
-2563 -2878 0
-10 -368 0
-862 -1220 0
-1714 -2072 0
-2566 -2924 0
-25 -84 0
-877 -936 0
-1729 -1788 0
-2581 -2640 0
-27 -186 0
-879 -1038 0
-1731 -1890 0
-2583 -2742 0
-38 -163 0
-890 -1015 0
-1742 -1867 0
-2594 -2719 0
-56 -169 0
-908 -1021 0
-1760 -1873 0
-2612 -2725 0
-61 -290 0
-913 -1142 0
-1765 -1994 0
-2617 -2846 0
-79 -316 0
-931 -1168 0
-1783 -2020 0
-2635 -2872 0
-93 -181 0
-945 -1033 0
-1797 -1885 0
-2649 -2737 0
-100 -281 0
-952 -1133 0
-1804 -1985 0
-2656 -2837 0
-114 -546 0
-966 -1398 0
-1818 -2250 0
-2670 -3102 0
-123 -559 0
-975 -1411 0
-1827 -2263 0
-2679 -3115 0
-213 -659 0
-1065 -1511 0
-1917 -2363 0
-2769 -3215 0
-222 -472 0
-1074 -1324 0
-1926 -2176 0
-2778 -3028 0
-240 -362 0
-1092 -1214 0
-1944 -2066 0
-2796 -2918 0
-262 -436 0
-1114 -1288 0
-1966 -2140 0
-2818 -2992 0
-263 -731 0
-1115 -1583 0
-1967 -2435 0
-2819 -3287 0
-265 -576 0
-1117 -1428 0
-1969 -2280 0
-2821 -3132 0
-277 -370 0
-1129 -1222 0
-1981 -2074 0
-2833 -2926 0
-313 -828 0
-1165 -1680 0
-2017 -2532 0
-2869 -3384 0
-329 -555 0
-1181 -1407 0
-2033 -2259 0
-2885 -3111 0
-339 -498 0
-1191 -1350 0
-2043 -2202 0
-2895 -3054 0
-348 -617 0
-1200 -1469 0
-2052 -2321 0
-2904 -3173 0
-377 -414 0
-1229 -1266 0
-2081 -2118 0
-2933 -2970 0
-402 -727 0
-1254 -1579 0
-2106 -2431 0
-2958 -3283 0
-416 -488 0
-1268 -1340 0
-2120 -2192 0
-2972 -3044 0
-424 -711 0
-1276 -1563 0
-2128 -2415 0
-2980 -3267 0
-486 -741 0
-1338 -1593 0
-2190 -2445 0
-3042 -3297 0
-500 -637 0
-1352 -1489 0
-2204 -2341 0
-3056 -3193 0
-566 -606 0
-1418 -1458 0
-2270 -2310 0
-3122 -3162 0
-578 -805 0
-1430 -1657 0
-2282 -2509 0
-3134 -3361 0
-611 -814 0
-1463 -1666 0
-2315 -2518 0
-3167 -3370 0
-660 -764 0
-1512 -1616 0
-2364 -2468 0
-3216 -3320 0
-663 -743 0
-1515 -1595 0
-2367 -2447 0
-3219 -3299 0
-719 -810 0
-1571 -1662 0
-2423 -2514 0
-3275 -3366 0
-766 -823 0
-1618 -1675 0
-2470 -2527 0
-3322 -3379 0
-1 -23 0
-853 -875 0
-1705 -1727 0
-2557 -2579 0
-4 -313 0
-856 -1165 0
-1708 -2017 0
-2560 -2869 0
-5 -47 0
-857 -899 0
-1709 -1751 0
-2561 -2603 0
-6 -30 0
-858 -882 0
-1710 -1734 0
-2562 -2586 0
-7 -262 0
-859 -1114 0
-1711 -1966 0
-2563 -2818 0
-9 -832 0
-861 -1684 0
-1713 -2536 0
-2565 -3388 0
-11 -636 0
-863 -1488 0
-1715 -2340 0
-2567 -3192 0
-20 -88 0
-872 -940 0
-1724 -1792 0
-2576 -2644 0
-27 -567 0
-879 -1419 0
-1731 -2271 0
-2583 -3123 0
-43 -72 0
-895 -924 0
-1747 -1776 0
-2599 -2628 0
-44 -783 0
-896 -1635 0
-1748 -2487 0
-2600 -3339 0
-45 -125 0
-897 -977 0
-1749 -1829 0
-2601 -2681 0
-49 -820 0
-901 -1672 0
-1753 -2524 0
-2605 -3376 0
-74 -162 0
-926 -1014 0
-1778 -1866 0
-2630 -2718 0
-76 -818 0
-928 -1670 0
-1780 -2522 0
-2632 -3374 0
-78 -583 0
-930 -1435 0
-1782 -2287 0
-2634 -3139 0
-81 -376 0
-933 -1228 0
-1785 -2080 0
-2637 -2932 0
-105 -129 0
-957 -981 0
-1809 -1833 0
-2661 -2685 0
-123 -719 0
-975 -1571 0
-1827 -2423 0
-2679 -3275 0
-138 -182 0
-990 -1034 0
-1842 -1886 0
-2694 -2738 0
-139 -340 0
-991 -1192 0
-1843 -2044 0
-2695 -2896 0
-150 -332 0
-1002 -1184 0
-1854 -2036 0
-2706 -2888 0
-166 -245 0
-1018 -1097 0
-1870 -1949 0
-2722 -2801 0
-186 -441 0
-1038 -1293 0
-1890 -2145 0
-2742 -2997 0
-192 -214 0
-1044 -1066 0
-1896 -1918 0
-2748 -2770 0
-217 -497 0
-1069 -1349 0
-1921 -2201 0
-2773 -3053 0
-227 -552 0
-1079 -1404 0
-1931 -2256 0
-2783 -3108 0
-236 -416 0
-1088 -1268 0
-1940 -2120 0
-2792 -2972 0
-239 -356 0
-1091 -1208 0
-1943 -2060 0
-2795 -2912 0
-240 -695 0
-1092 -1547 0
-1944 -2399 0
-2796 -3251 0
-261 -284 0
-1113 -1136 0
-1965 -1988 0
-2817 -2840 0
-286 -817 0
-1138 -1669 0
-1990 -2521 0
-2842 -3373 0
-314 -424 0
-1166 -1276 0
-2018 -2128 0
-2870 -2980 0
-316 -651 0
-1168 -1503 0
-2020 -2355 0
-2872 -3207 0
-322 -436 0
-1174 -1288 0
-2026 -2140 0
-2878 -2992 0
-338 -836 0
-1190 -1688 0
-2042 -2540 0
-2894 -3392 0
-344 -789 0
-1196 -1641 0
-2048 -2493 0
-2900 -3345 0
-351 -828 0
-1203 -1680 0
-2055 -2532 0
-2907 -3384 0
-355 -503 0
-1207 -1355 0
-2059 -2207 0
-2911 -3059 0
-370 -507 0
-1222 -1359 0
-2074 -2211 0
-2926 -3063 0
-383 -452 0
-1235 -1304 0
-2087 -2156 0
-2939 -3008 0
-387 -398 0
-1239 -1250 0
-2091 -2102 0
-2943 -2954 0
-392 -760 0
-1244 -1612 0
-2096 -2464 0
-2948 -3316 0
-403 -590 0
-1255 -1442 0
-2107 -2294 0
-2959 -3146 0
-434 -808 0
-1286 -1660 0
-2138 -2512 0
-2990 -3364 0
-440 -697 0
-1292 -1549 0
-2144 -2401 0
-2996 -3253 0
-457 -693 0
-1309 -1545 0
-2161 -2397 0
-3013 -3249 0
-468 -733 0
-1320 -1585 0
-2172 -2437 0
-3024 -3289 0
-481 -570 0
-1333 -1422 0
-2185 -2274 0
-3037 -3126 0
-483 -663 0
-1335 -1515 0
-2187 -2367 0
-3039 -3219 0
-489 -518 0
-1341 -1370 0
-2193 -2222 0
-3045 -3074 0
-504 -753 0
-1356 -1605 0
-2208 -2457 0
-3060 -3309 0
-559 -810 0
-1411 -1662 0
-2263 -2514 0
-3115 -3366 0
-592 -751 0
-1444 -1603 0
-2296 -2455 0
-3148 -3307 0
-616 -691 0
-1468 -1543 0
-2320 -2395 0
-3172 -3247 0
-659 -726 0
-1511 -1578 0
-2363 -2430 0
-3215 -3282 0
-785 -819 0
-1637 -1671 0
-2489 -2523 0
-3341 -3375 0
-22 -32 0
-874 -884 0
-1726 -1736 0
-2578 -2588 0
-26 -337 0
-878 -1189 0
-1730 -2041 0
-2582 -2893 0
-27 -541 0
-879 -1393 0
-1731 -2245 0
-2583 -3097 0
-34 -432 0
-886 -1284 0
-1738 -2136 0
-2590 -2988 0
-49 -565 0
-901 -1417 0
-1753 -2269 0
-2605 -3121 0
-55 -145 0
-907 -997 0
-1759 -1849 0
-2611 -2701 0
-58 -83 0
-910 -935 0
-1762 -1787 0
-2614 -2639 0
-71 -547 0
-923 -1399 0
-1775 -2251 0
-2627 -3103 0
-87 -194 0
-939 -1046 0
-1791 -1898 0
-2643 -2750 0
-90 -287 0
-942 -1139 0
-1794 -1991 0
-2646 -2843 0
-91 -366 0
-943 -1218 0
-1795 -2070 0
-2647 -2922 0
-105 -391 0
-957 -1243 0
-1809 -2095 0
-2661 -2947 0
-112 -463 0
-964 -1315 0
-1816 -2167 0
-2668 -3019 0
-126 -388 0
-978 -1240 0
-1830 -2092 0
-2682 -2944 0
-127 -134 0
-979 -986 0
-1831 -1838 0
-2683 -2690 0
-129 -177 0
-981 -1029 0
-1833 -1881 0
-2685 -2733 0
-146 -345 0
-998 -1197 0
-1850 -2049 0
-2702 -2901 0
-155 -171 0
-1007 -1023 0
-1859 -1875 0
-2711 -2727 0
-158 -450 0
-1010 -1302 0
-1862 -2154 0
-2714 -3006 0
-175 -595 0
-1027 -1447 0
-1879 -2299 0
-2731 -3151 0
-187 -702 0
-1039 -1554 0
-1891 -2406 0
-2743 -3258 0
-191 -720 0
-1043 -1572 0
-1895 -2424 0
-2747 -3276 0
-199 -585 0
-1051 -1437 0
-1903 -2289 0
-2755 -3141 0
-225 -543 0
-1077 -1395 0
-1929 -2247 0
-2781 -3099 0
-226 -608 0
-1078 -1460 0
-1930 -2312 0
-2782 -3164 0
-338 -435 0
-1190 -1287 0
-2042 -2139 0
-2894 -2991 0
-339 -343 0
-1191 -1195 0
-2043 -2047 0
-2895 -2899 0
-356 -497 0
-1208 -1349 0
-2060 -2201 0
-2912 -3053 0
-377 -655 0
-1229 -1507 0
-2081 -2359 0
-2933 -3211 0
-392 -440 0
-1244 -1292 0
-2096 -2144 0
-2948 -2996 0
-415 -456 0
-1267 -1308 0
-2119 -2160 0
-2971 -3012 0
-420 -502 0
-1272 -1354 0
-2124 -2206 0
-2976 -3058 0
-424 -766 0
-1276 -1618 0
-2128 -2470 0
-2980 -3322 0
-439 -516 0
-1291 -1368 0
-2143 -2220 0
-2995 -3072 0
-455 -535 0
-1307 -1387 0
-2159 -2239 0
-3011 -3091 0
-462 -833 0
-1314 -1685 0
-2166 -2537 0
-3018 -3389 0
-471 -690 0
-1323 -1542 0
-2175 -2394 0
-3027 -3246 0
-525 -707 0
-1377 -1559 0
-2229 -2411 0
-3081 -3263 0
-534 -578 0
-1386 -1430 0
-2238 -2282 0
-3090 -3134 0
-566 -610 0
-1418 -1462 0
-2270 -2314 0
-3122 -3166 0
-583 -710 0
-1435 -1562 0
-2287 -2414 0
-3139 -3266 0
-590 -662 0
-1442 -1514 0
-2294 -2366 0
-3146 -3218 0
-618 -779 0
-1470 -1631 0
-2322 -2483 0
-3174 -3335 0
-654 -787 0
-1506 -1639 0
-2358 -2491 0
-3210 -3343 0
-667 -674 0
-1519 -1526 0
-2371 -2378 0
-3223 -3230 0
-700 -769 0
-1552 -1621 0
-2404 -2473 0
-3256 -3325 0
-711 -823 0
-1563 -1675 0
-2415 -2527 0
-3267 -3379 0
-4 -300 0
-856 -1152 0
-1708 -2004 0
-2560 -2856 0
-7 -74 0
-859 -926 0
-1711 -1778 0
-2563 -2630 0
-10 -170 0
-862 -1022 0
-1714 -1874 0
-2566 -2726 0
-14 -396 0
-866 -1248 0
-1718 -2100 0
-2570 -2952 0
-25 -135 0
-877 -987 0
-1729 -1839 0
-2581 -2691 0
-37 -613 0
-889 -1465 0
-1741 -2317 0
-2593 -3169 0
-38 -100 0
-890 -952 0
-1742 -1804 0
-2594 -2656 0
-50 -215 0
-902 -1067 0
-1754 -1919 0
-2606 -2771 0
-51 -117 0
-903 -969 0
-1755 -1821 0
-2607 -2673 0
-55 -71 0
-907 -923 0
-1759 -1775 0
-2611 -2627 0
-56 -104 0
-908 -956 0
-1760 -1808 0
-2612 -2660 0
-62 -179 0
-914 -1031 0
-1766 -1883 0
-2618 -2735 0
-67 -110 0
-919 -962 0
-1771 -1814 0
-2623 -2666 0
-70 -154 0
-922 -1006 0
-1774 -1858 0
-2626 -2710 0
-75 -116 0
-927 -968 0
-1779 -1820 0
-2631 -2672 0
-92 -107 0
-944 -959 0
-1796 -1811 0
-2648 -2663 0
-93 -689 0
-945 -1541 0
-1797 -2393 0
-2649 -3245 0
-96 -249 0
-948 -1101 0
-1800 -1953 0
-2652 -2805 0
-111 -389 0
-963 -1241 0
-1815 -2093 0
-2667 -2945 0
-132 -344 0
-984 -1196 0
-1836 -2048 0
-2688 -2900 0
-134 -572 0
-986 -1424 0
-1838 -2276 0
-2690 -3128 0
-136 -151 0
-988 -1003 0
-1840 -1855 0
-2692 -2707 0
-140 -183 0
-992 -1035 0
-1844 -1887 0
-2696 -2739 0
-142 -234 0
-994 -1086 0
-1846 -1938 0
-2698 -2790 0
-144 -189 0
-996 -1041 0
-1848 -1893 0
-2700 -2745 0
-145 -547 0
-997 -1399 0
-1849 -2251 0
-2701 -3103 0
-163 -281 0
-1015 -1133 0
-1867 -1985 0
-2719 -2837 0
-175 -191 0
-1027 -1043 0
-1879 -1895 0
-2731 -2747 0
-193 -632 0
-1045 -1484 0
-1897 -2336 0
-2749 -3188 0
-196 -451 0
-1048 -1303 0
-1900 -2155 0
-2752 -3007 0
-259 -426 0
-1111 -1278 0
-1963 -2130 0
-2815 -2982 0
-297 -301 0
-1149 -1153 0
-2001 -2005 0
-2853 -2857 0
-325 -361 0
-1177 -1213 0
-2029 -2065 0
-2881 -2917 0
-349 -394 0
-1201 -1246 0
-2053 -2098 0
-2905 -2950 0
-373 -484 0
-1225 -1336 0
-2077 -2188 0
-2929 -3040 0
-383 -599 0
-1235 -1451 0
-2087 -2303 0
-2939 -3155 0
-392 -403 0
-1244 -1255 0
-2096 -2107 0
-2948 -2959 0
-399 -420 0
-1251 -1272 0
-2103 -2124 0
-2955 -2976 0
-438 -669 0
-1290 -1521 0
-2142 -2373 0
-2994 -3225 0
-459 -465 0
-1311 -1317 0
-2163 -2169 0
-3015 -3021 0
-483 -609 0
-1335 -1461 0
-2187 -2313 0
-3039 -3165 0
-500 -696 0
-1352 -1548 0
-2204 -2400 0
-3056 -3252 0
-504 -844 0
-1356 -1696 0
-2208 -2548 0
-3060 -3400 0
-509 -747 0
-1361 -1599 0
-2213 -2451 0
-3065 -3303 0
-522 -617 0
-1374 -1469 0
-2226 -2321 0
-3078 -3173 0
-525 -648 0
-1377 -1500 0
-2229 -2352 0
-3081 -3204 0
-579 -603 0
-1431 -1455 0
-2283 -2307 0
-3135 -3159 0
-589 -602 0
-1441 -1454 0
-2293 -2306 0
-3145 -3158 0
-595 -720 0
-1447 -1572 0
-2299 -2424 0
-3151 -3276 0
-714 -739 0
-1566 -1591 0
-2418 -2443 0
-3270 -3295 0
-734 -822 0
-1586 -1674 0
-2438 -2526 0
-3290 -3378 0
-737 -775 0
-1589 -1627 0
-2441 -2479 0
-3293 -3331 0
-1 -8 0
-853 -860 0
-1705 -1712 0
-2557 -2564 0
-7 -325 0
-859 -1177 0
-1711 -2029 0
-2563 -2881 0
-27 -159 0
-879 -1011 0
-1731 -1863 0
-2583 -2715 0
-38 -92 0
-890 -944 0
-1742 -1796 0
-2594 -2648 0
-39 -72 0
-891 -924 0
-1743 -1776 0
-2595 -2628 0
-50 -75 0
-902 -927 0
-1754 -1779 0
-2606 -2631 0
-61 -120 0
-913 -972 0
-1765 -1824 0
-2617 -2676 0
-69 -762 0
-921 -1614 0
-1773 -2466 0
-2625 -3318 0
-74 -361 0
-926 -1213 0
-1778 -2065 0
-2630 -2917 0
-79 -385 0
-931 -1237 0
-1783 -2089 0
-2635 -2941 0
-86 -340 0
-938 -1192 0
-1790 -2044 0
-2642 -2896 0
-100 -107 0
-952 -959 0
-1804 -1811 0
-2656 -2663 0
-109 -289 0
-961 -1141 0
-1813 -1993 0
-2665 -2845 0
-113 -131 0
-965 -983 0
-1817 -1835 0
-2669 -2687 0
-123 -165 0
-975 -1017 0
-1827 -1869 0
-2679 -2721 0
-130 -232 0
-982 -1084 0
-1834 -1936 0
-2686 -2788 0
-133 -172 0
-985 -1024 0
-1837 -1876 0
-2689 -2728 0
-156 -404 0
-1008 -1256 0
-1860 -2108 0
-2712 -2960 0
-174 -195 0
-1026 -1047 0
-1878 -1899 0
-2730 -2751 0
-176 -713 0
-1028 -1565 0
-1880 -2417 0
-2732 -3269 0
-198 -681 0
-1050 -1533 0
-1902 -2385 0
-2754 -3237 0
-212 -310 0
-1064 -1162 0
-1916 -2014 0
-2768 -2866 0
-222 -313 0
-1074 -1165 0
-1926 -2017 0
-2778 -2869 0
-224 -608 0
-1076 -1460 0
-1928 -2312 0
-2780 -3164 0
-244 -646 0
-1096 -1498 0
-1948 -2350 0
-2800 -3202 0
-261 -813 0
-1113 -1665 0
-1965 -2517 0
-2817 -3369 0
-266 -554 0
-1118 -1406 0
-1970 -2258 0
-2822 -3110 0
-299 -419 0
-1151 -1271 0
-2003 -2123 0
-2855 -2975 0
-317 -477 0
-1169 -1329 0
-2021 -2181 0
-2873 -3033 0
-324 -590 0
-1176 -1442 0
-2028 -2294 0
-2880 -3146 0
-339 -657 0
-1191 -1509 0
-2043 -2361 0
-2895 -3213 0
-359 -492 0
-1211 -1344 0
-2063 -2196 0
-2915 -3048 0
-378 -417 0
-1230 -1269 0
-2082 -2121 0
-2934 -2973 0
-411 -584 0
-1263 -1436 0
-2115 -2288 0
-2967 -3140 0
-421 -519 0
-1273 -1371 0
-2125 -2223 0
-2977 -3075 0
-472 -828 0
-1324 -1680 0
-2176 -2532 0
-3028 -3384 0
-473 -557 0
-1325 -1409 0
-2177 -2261 0
-3029 -3113 0
-523 -583 0
-1375 -1435 0
-2227 -2287 0
-3079 -3139 0
-629 -695 0
-1481 -1547 0
-2333 -2399 0
-3185 -3251 0
-654 -760 0
-1506 -1612 0
-2358 -2464 0
-3210 -3316 0
-674 -751 0
-1526 -1603 0
-2378 -2455 0
-3230 -3307 0
-707 -800 0
-1559 -1652 0
-2411 -2504 0
-3263 -3356 0
-765 -843 0
-1617 -1695 0
-2469 -2547 0
-3321 -3399 0
-774 -836 0
-1626 -1688 0
-2478 -2540 0
-3330 -3392 0
-1 -89 0
-853 -941 0
-1705 -1793 0
-2557 -2645 0
-2 -124 0
-854 -976 0
-1706 -1828 0
-2558 -2680 0
-5 -94 0
-857 -946 0
-1709 -1798 0
-2561 -2650 0
-7 -421 0
-859 -1273 0
-1711 -2125 0
-2563 -2977 0
-8 -53 0
-860 -905 0
-1712 -1757 0
-2564 -2609 0
-9 -37 0
-861 -889 0
-1713 -1741 0
-2565 -2593 0
-15 -409 0
-867 -1261 0
-1719 -2113 0
-2571 -2965 0
-19 -52 0
-871 -904 0
-1723 -1756 0
-2575 -2608 0
-20 -42 0
-872 -894 0
-1724 -1746 0
-2576 -2598 0
-34 -484 0
-886 -1336 0
-1738 -2188 0
-2590 -3040 0
-35 -373 0
-887 -1225 0
-1739 -2077 0
-2591 -2929 0
-67 -144 0
-919 -996 0
-1771 -1848 0
-2623 -2700 0
-78 -704 0
-930 -1556 0
-1782 -2408 0
-2634 -3260 0
-91 -386 0
-943 -1238 0
-1795 -2090 0
-2647 -2942 0
-96 -672 0
-948 -1524 0
-1800 -2376 0
-2652 -3228 0
-108 -121 0
-960 -973 0
-1812 -1825 0
-2664 -2677 0
-110 -189 0
-962 -1041 0
-1814 -1893 0
-2666 -2745 0
-119 -223 0
-971 -1075 0
-1823 -1927 0
-2675 -2779 0
-123 -539 0
-975 -1391 0
-1827 -2243 0
-2679 -3095 0
-160 -242 0
-1012 -1094 0
-1864 -1946 0
-2716 -2798 0
-165 -358 0
-1017 -1210 0
-1869 -2062 0
-2721 -2914 0
-172 -289 0
-1024 -1141 0
-1876 -1993 0
-2728 -2845 0
-200 -671 0
-1052 -1523 0
-1904 -2375 0
-2756 -3227 0
-232 -379 0
-1084 -1231 0
-1936 -2083 0
-2788 -2935 0
-244 -549 0
-1096 -1401 0
-1948 -2253 0
-2800 -3105 0
-249 -499 0
-1101 -1351 0
-1953 -2203 0
-2805 -3055 0
-260 -561 0
-1112 -1413 0
-1964 -2265 0
-2816 -3117 0
-266 -837 0
-1118 -1689 0
-1970 -2541 0
-2822 -3393 0
-293 -298 0
-1145 -1150 0
-1997 -2002 0
-2849 -2854 0
-294 -448 0
-1146 -1300 0
-1998 -2152 0
-2850 -3004 0
-301 -451 0
-1153 -1303 0
-2005 -2155 0
-2857 -3007 0
-311 -716 0
-1163 -1568 0
-2015 -2420 0
-2867 -3272 0
-325 -519 0
-1177 -1371 0
-2029 -2223 0
-2881 -3075 0
-369 -758 0
-1221 -1610 0
-2073 -2462 0
-2925 -3314 0
-475 -808 0
-1327 -1660 0
-2179 -2512 0
-3031 -3364 0
-483 -589 0
-1335 -1441 0
-2187 -2293 0
-3039 -3145 0
-566 -605 0
-1418 -1457 0
-2270 -2309 0
-3122 -3161 0
-573 -796 0
-1425 -1648 0
-2277 -2500 0
-3129 -3352 0
-638 -703 0
-1490 -1555 0
-2342 -2407 0
-3194 -3259 0
-813 -826 0
-1665 -1678 0
-2517 -2530 0
-3369 -3382 0
-4 -10 0
-856 -862 0
-1708 -1714 0
-2560 -2566 0
-7 -630 0
-859 -1482 0
-1711 -2334 0
-2563 -3186 0
-8 -407 0
-860 -1259 0
-1712 -2111 0
-2564 -2963 0
-9 -423 0
-861 -1275 0
-1713 -2127 0
-2565 -2979 0
-22 -730 0
-874 -1582 0
-1726 -2434 0
-2578 -3286 0
-24 -507 0
-876 -1359 0
-1728 -2211 0
-2580 -3063 0
-25 -819 0
-877 -1671 0
-1729 -2523 0
-2581 -3375 0
-27 -625 0
-879 -1477 0
-1731 -2329 0
-2583 -3181 0
-35 -733 0
-887 -1585 0
-1739 -2437 0
-2591 -3289 0
-38 -808 0
-890 -1660 0
-1742 -2512 0
-2594 -3364 0
-43 -104 0
-895 -956 0
-1747 -1808 0
-2599 -2660 0
-45 -151 0
-897 -1003 0
-1749 -1855 0
-2601 -2707 0
-61 -475 0
-913 -1327 0
-1765 -2179 0
-2617 -3031 0
-65 -80 0
-917 -932 0
-1769 -1784 0
-2621 -2636 0
-67 -214 0
-919 -1066 0
-1771 -1918 0
-2623 -2770 0
-68 -745 0
-920 -1597 0
-1772 -2449 0
-2624 -3301 0
-75 -636 0
-927 -1488 0
-1779 -2340 0
-2631 -3192 0
-97 -603 0
-949 -1455 0
-1801 -2307 0
-2653 -3159 0
-101 -572 0
-953 -1424 0
-1805 -2276 0
-2657 -3128 0
-112 -753 0
-964 -1605 0
-1816 -2457 0
-2668 -3309 0
-114 -619 0
-966 -1471 0
-1818 -2323 0
-2670 -3175 0
-128 -436 0
-980 -1288 0
-1832 -2140 0
-2684 -2992 0
-139 -705 0
-991 -1557 0
-1843 -2409 0
-2695 -3261 0
-142 -155 0
-994 -1007 0
-1846 -1859 0
-2698 -2711 0
-161 -363 0
-1013 -1215 0
-1865 -2067 0
-2717 -2919 0
-167 -460 0
-1019 -1312 0
-1871 -2164 0
-2723 -3016 0
-239 -268 0
-1091 -1120 0
-1943 -1972 0
-2795 -2824 0
-255 -696 0
-1107 -1548 0
-1959 -2400 0
-2811 -3252 0
-257 -348 0
-1109 -1200 0
-1961 -2052 0
-2813 -2904 0
-261 -317 0
-1113 -1169 0
-1965 -2021 0
-2817 -2873 0
-297 -332 0
-1149 -1184 0
-2001 -2036 0
-2853 -2888 0
-310 -789 0
-1162 -1641 0
-2014 -2493 0
-2866 -3345 0
-311 -369 0
-1163 -1221 0
-2015 -2073 0
-2867 -2925 0
-314 -647 0
-1166 -1499 0
-2018 -2351 0
-2870 -3203 0
-325 -518 0
-1177 -1370 0
-2029 -2222 0
-2881 -3074 0
-328 -645 0
-1180 -1497 0
-2032 -2349 0
-2884 -3201 0
-330 -500 0
-1182 -1352 0
-2034 -2204 0
-2886 -3056 0
-351 -368 0
-1203 -1220 0
-2055 -2072 0
-2907 -2924 0
-352 -468 0
-1204 -1320 0
-2056 -2172 0
-2908 -3024 0
-355 -533 0
-1207 -1385 0
-2059 -2237 0
-2911 -3089 0
-399 -820 0
-1251 -1672 0
-2103 -2524 0
-2955 -3376 0
-435 -547 0
-1287 -1399 0
-2139 -2251 0
-2991 -3103 0
-453 -735 0
-1305 -1587 0
-2157 -2439 0
-3009 -3291 0
-480 -685 0
-1332 -1537 0
-2184 -2389 0
-3036 -3241 0
-483 -653 0
-1335 -1505 0
-2187 -2357 0
-3039 -3209 0
-486 -633 0
-1338 -1485 0
-2190 -2337 0
-3042 -3189 0
-492 -675 0
-1344 -1527 0
-2196 -2379 0
-3048 -3231 0
-496 -752 0
-1348 -1604 0
-2200 -2456 0
-3052 -3308 0
-607 -848 0
-1459 -1700 0
-2311 -2552 0
-3163 -3404 0
-661 -810 0
-1513 -1662 0
-2365 -2514 0
-3217 -3366 0
-716 -758 0
-1568 -1610 0
-2420 -2462 0
-3272 -3314 0
-717 -790 0
-1569 -1642 0
-2421 -2494 0
-3273 -3346 0
-738 -739 0
-1590 -1591 0
-2442 -2443 0
-3294 -3295 0
-794 -825 0
-1646 -1677 0
-2498 -2529 0
-3350 -3381 0
-10 -622 0
-862 -1474 0
-1714 -2326 0
-2566 -3178 0
-11 -210 0
-863 -1062 0
-1715 -1914 0
-2567 -2766 0
-17 -296 0
-869 -1148 0
-1721 -2000 0
-2573 -2852 0
-21 -77 0
-873 -929 0
-1725 -1781 0
-2577 -2633 0
-22 -58 0
-874 -910 0
-1726 -1762 0
-2578 -2614 0
-26 -581 0
-878 -1433 0
-1730 -2285 0
-2582 -3137 0
-30 -47 0
-882 -899 0
-1734 -1751 0
-2586 -2603 0
-32 -83 0
-884 -935 0
-1736 -1787 0
-2588 -2639 0
-45 -616 0
-897 -1468 0
-1749 -2320 0
-2601 -3172 0
-49 -606 0
-901 -1458 0
-1753 -2310 0
-2605 -3162 0
-56 -715 0
-908 -1567 0
-1760 -2419 0
-2612 -3271 0
-60 -372 0
-912 -1224 0
-1764 -2076 0
-2616 -2928 0
-62 -141 0
-914 -993 0
-1766 -1845 0
-2618 -2697 0
-78 -119 0
-930 -971 0
-1782 -1823 0
-2634 -2675 0
-81 -769 0
-933 -1621 0
-1785 -2473 0
-2637 -3325 0
-112 -128 0
-964 -980 0
-1816 -1832 0
-2668 -2684 0
-123 -133 0
-975 -985 0
-1827 -1837 0
-2679 -2689 0
-125 -691 0
-977 -1543 0
-1829 -2395 0
-2681 -3247 0
-165 -172 0
-1017 -1024 0
-1869 -1876 0
-2721 -2728 0
-201 -772 0
-1053 -1624 0
-1905 -2476 0
-2757 -3328 0
-250 -425 0
-1102 -1277 0
-1954 -2129 0
-2806 -2981 0
-263 -318 0
-1115 -1170 0
-1967 -2022 0
-2819 -2874 0
-266 -412 0
-1118 -1264 0
-1970 -2116 0
-2822 -2968 0
-354 -700 0
-1206 -1552 0
-2058 -2404 0
-2910 -3256 0
-365 -506 0
-1217 -1358 0
-2069 -2210 0
-2921 -3062 0
-390 -817 0
-1242 -1669 0
-2094 -2521 0
-2946 -3373 0
-393 -687 0
-1245 -1539 0
-2097 -2391 0
-2949 -3243 0
-430 -822 0
-1282 -1674 0
-2134 -2526 0
-2986 -3378 0
-455 -570 0
-1307 -1422 0
-2159 -2274 0
-3011 -3126 0
-468 -746 0
-1320 -1598 0
-2172 -2450 0
-3024 -3302 0
-529 -803 0
-1381 -1655 0
-2233 -2507 0
-3085 -3359 0
-560 -751 0
-1412 -1603 0
-2264 -2455 0
-3116 -3307 0
-598 -634 0
-1450 -1486 0
-2302 -2338 0
-3154 -3190 0
-638 -651 0
-1490 -1503 0
-2342 -2355 0
-3194 -3207 0
-655 -702 0
-1507 -1554 0
-2359 -2406 0
-3211 -3258 0
-4 -114 0
-856 -966 0
-1708 -1818 0
-2560 -2670 0
-7 -27 0
-859 -879 0
-1711 -1731 0
-2563 -2583 0
-10 -619 0
-862 -1471 0
-1714 -2323 0
-2566 -3175 0
-24 -310 0
-876 -1162 0
-1728 -2014 0
-2580 -2866 0
-25 -701 0
-877 -1553 0
-1729 -2405 0
-2581 -3257 0
-35 -784 0
-887 -1636 0
-1739 -2488 0
-2591 -3340 0
-65 -101 0
-917 -953 0
-1769 -1805 0
-2621 -2657 0
-70 -220 0
-922 -1072 0
-1774 -1924 0
-2626 -2776 0
-78 -403 0
-930 -1255 0
-1782 -2107 0
-2634 -2959 0
-80 -572 0
-932 -1424 0
-1784 -2276 0
-2636 -3128 0
-136 -491 0
-988 -1343 0
-1840 -2195 0
-2692 -3047 0
-143 -450 0
-995 -1302 0
-1847 -2154 0
-2699 -3006 0
-155 -484 0
-1007 -1336 0
-1859 -2188 0
-2711 -3040 0
-202 -432 0
-1054 -1284 0
-1906 -2136 0
-2758 -2988 0
-209 -237 0
-1061 -1089 0
-1913 -1941 0
-2765 -2793 0
-231 -289 0
-1083 -1141 0
-1935 -1993 0
-2787 -2845 0
-256 -366 0
-1108 -1218 0
-1960 -2070 0
-2812 -2922 0
-257 -480 0
-1109 -1332 0
-1961 -2184 0
-2813 -3036 0
-258 -285 0
-1110 -1137 0
-1962 -1989 0
-2814 -2841 0
-262 -567 0
-1114 -1419 0
-1966 -2271 0
-2818 -3123 0
-263 -354 0
-1115 -1206 0
-1967 -2058 0
-2819 -2910 0
-277 -375 0
-1129 -1227 0
-1981 -2079 0
-2833 -2931 0
-305 -386 0
-1157 -1238 0
-2009 -2090 0
-2861 -2942 0
-312 -358 0
-1164 -1210 0
-2016 -2062 0
-2868 -2914 0
-318 -700 0
-1170 -1552 0
-2022 -2404 0
-2874 -3256 0
-348 -685 0
-1200 -1537 0
-2052 -2389 0
-2904 -3241 0
-351 -546 0
-1203 -1398 0
-2055 -2250 0
-2907 -3102 0
-355 -650 0
-1207 -1502 0
-2059 -2354 0
-2911 -3206 0
-436 -441 0
-1288 -1293 0
-2140 -2145 0
-2992 -2997 0
-437 -493 0
-1289 -1345 0
-2141 -2197 0
-2993 -3049 0
-447 -461 0
-1299 -1313 0
-2151 -2165 0
-3003 -3017 0
-503 -531 0
-1355 -1383 0
-2207 -2235 0
-3059 -3087 0
-504 -786 0
-1356 -1638 0
-2208 -2490 0
-3060 -3342 0
-507 -789 0
-1359 -1641 0
-2211 -2493 0
-3063 -3345 0
-515 -796 0
-1367 -1648 0
-2219 -2500 0
-3071 -3352 0
-521 -791 0
-1373 -1643 0
-2225 -2495 0
-3077 -3347 0
-532 -661 0
-1384 -1513 0
-2236 -2365 0
-3088 -3217 0
-550 -618 0
-1402 -1470 0
-2254 -2322 0
-3106 -3174 0
-564 -725 0
-1416 -1577 0
-2268 -2429 0
-3120 -3281 0
-583 -590 0
-1435 -1442 0
-2287 -2294 0
-3139 -3146 0
-627 -699 0
-1479 -1551 0
-2331 -2403 0
-3183 -3255 0
-643 -659 0
-1495 -1511 0
-2347 -2363 0
-3199 -3215 0
-732 -754 0
-1584 -1606 0
-2436 -2458 0
-3288 -3310 0
-761 -802 0
-1613 -1654 0
-2465 -2506 0
-3317 -3358 0
-2 -18 0
-854 -870 0
-1706 -1722 0
-2558 -2574 0
-15 -416 0
-867 -1268 0
-1719 -2120 0
-2571 -2972 0
-36 -662 0
-888 -1514 0
-1740 -2366 0
-2592 -3218 0
-41 -182 0
-893 -1034 0
-1745 -1886 0
-2597 -2738 0
-67 -178 0
-919 -1030 0
-1771 -1882 0
-2623 -2734 0
-371 -518 0
-1223 -1370 0
-2075 -2222 0
-2927 -3074 0
-454 -575 0
-1306 -1427 0
-2158 -2279 0
-3010 -3131 0
-15 -466 0
-867 -1318 0
-1719 -2170 0
-2571 -3022 0
-16 -181 0
-868 -1033 0
-1720 -1885 0
-2572 -2737 0
-17 -84 0
-869 -936 0
-1721 -1788 0
-2573 -2640 0
-19 -108 0
-871 -960 0
-1723 -1812 0
-2575 -2664 0
-28 -36 0
-880 -888 0
-1732 -1740 0
-2584 -2592 0
-42 -544 0
-894 -1396 0
-1746 -2248 0
-2598 -3100 0
-52 -121 0
-904 -973 0
-1756 -1825 0
-2608 -2677 0
-85 -169 0
-937 -1021 0
-1789 -1873 0
-2641 -2725 0
-12 -694 0
-864 -1546 0
-1716 -2398 0
-2568 -3250 0
-21 -40 0
-873 -892 0
-1725 -1744 0
-2577 -2596 0
-78 -260 0
-930 -1112 0
-1782 -1964 0
-2634 -2816 0
-193 -323 0
-1045 -1175 0
-1897 -2027 0
-2749 -2879 0
-247 -623 0
-1099 -1475 0
-1951 -2327 0
-2803 -3179 0
-401 -757 0
-1253 -1609 0
-2105 -2461 0
-2957 -3313 0
-422 -649 0
-1274 -1501 0
-2126 -2353 0
-2978 -3205 0
-428 -776 0
-1280 -1628 0
-2132 -2480 0
-2984 -3332 0
-513 -803 0
-1365 -1655 0
-2217 -2507 0
-3069 -3359 0
-571 -651 0
-1423 -1503 0
-2275 -2355 0
-3127 -3207 0
-759 -799 0
-1611 -1651 0
-2463 -2503 0
-3315 -3355 0
-6 -429 0
-858 -1281 0
-1710 -2133 0
-2562 -2985 0
-28 -63 0
-880 -915 0
-1732 -1767 0
-2584 -2619 0
-29 -223 0
-881 -1075 0
-1733 -1927 0
-2585 -2779 0
-30 -363 0
-882 -1215 0
-1734 -2067 0
-2586 -2919 0
-31 -51 0
-883 -903 0
-1735 -1755 0
-2587 -2607 0
-42 -94 0
-894 -946 0
-1746 -1798 0
-2598 -2650 0
-46 -174 0
-898 -1026 0
-1750 -1878 0
-2602 -2730 0
-50 -66 0
-902 -918 0
-1754 -1770 0
-2606 -2622 0
-57 -617 0
-909 -1469 0
-1761 -2321 0
-2613 -3173 0
-123 -166 0
-975 -1018 0
-1827 -1870 0
-2679 -2722 0
-246 -522 0
-1098 -1374 0
-1950 -2226 0
-2802 -3078 0
-15 -29 0
-867 -881 0
-1719 -1733 0
-2571 -2585 0
-66 -124 0
-918 -976 0
-1770 -1828 0
-2622 -2680 0
-85 -561 0
-937 -1413 0
-1789 -2265 0
-2641 -3117 0
-341 -465 0
-1193 -1317 0
-2045 -2169 0
-2897 -3021 0
-374 -782 0
-1226 -1634 0
-2078 -2486 0
-2930 -3338 0
-397 -431 0
-1249 -1283 0
-2101 -2135 0
-2953 -2987 0
-14 -19 0
-866 -871 0
-1718 -1723 0
-2570 -2575 0
-16 -270 0
-868 -1122 0
-1720 -1974 0
-2572 -2826 0
-54 -803 0
-906 -1655 0
-1758 -2507 0
-2610 -3359 0
-295 -780 0
-1147 -1632 0
-1999 -2484 0
-2851 -3336 0
-347 -422 0
-1199 -1274 0
-2051 -2126 0
-2903 -2978 0
-392 -528 0
-1244 -1380 0
-2096 -2232 0
-2948 -3084 0
-650 -694 0
-1502 -1546 0
-2354 -2398 0
-3206 -3250 0
-762 -842 0
-1614 -1694 0
-2466 -2546 0
-3318 -3398 0
-6 -16 0
-858 -868 0
-1710 -1720 0
-2562 -2572 0
-12 -451 0
-864 -1303 0
-1716 -2155 0
-2568 -3007 0
-13 -196 0
-865 -1048 0
-1717 -1900 0
-2569 -2752 0
-14 -452 0
-866 -1304 0
-1718 -2156 0
-2570 -3008 0
-20 -536 0
-872 -1388 0
-1724 -2240 0
-2576 -3092 0
-21 -494 0
-873 -1346 0
-1725 -2198 0
-2577 -3050 0
-40 -441 0
-892 -1293 0
-1744 -2145 0
-2596 -2997 0
-41 -98 0
-893 -950 0
-1745 -1802 0
-2597 -2654 0
-46 -295 0
-898 -1147 0
-1750 -1999 0
-2602 -2851 0
-60 -92 0
-912 -944 0
-1764 -1796 0
-2616 -2648 0
-396 -417 0
-1248 -1269 0
-2100 -2121 0
-2952 -2973 0
-401 -587 0
-1253 -1439 0
-2105 -2291 0
-2957 -3143 0
-487 -568 0
-1339 -1420 0
-2191 -2272 0
-3043 -3124 0
-2 -12 0
-854 -864 0
-1706 -1716 0
-2558 -2568 0
-17 -242 0
-869 -1094 0
-1721 -1946 0
-2573 -2798 0
-20 -81 0
-872 -933 0
-1724 -1785 0
-2576 -2637 0
-41 -529 0
-893 -1381 0
-1745 -2233 0
-2597 -3085 0
-48 -283 0
-900 -1135 0
-1752 -1987 0
-2604 -2839 0
-67 -307 0
-919 -1159 0
-1771 -2011 0
-2623 -2863 0
-77 -117 0
-929 -969 0
-1781 -1821 0
-2633 -2673 0
-88 -376 0
-940 -1228 0
-1792 -2080 0
-2644 -2932 0
-141 -270 0
-993 -1122 0
-1845 -1974 0
-2697 -2826 0
-308 -396 0
-1160 -1248 0
-2012 -2100 0
-2864 -2952 0
-431 -539 0
-1283 -1391 0
-2135 -2243 0
-2987 -3095 0
-490 -524 0
-1342 -1376 0
-2194 -2228 0
-3046 -3080 0
-570 -601 0
-1422 -1453 0
-2274 -2305 0
-3126 -3157 0
-15 -571 0
-867 -1423 0
-1719 -2275 0
-2571 -3127 0
-41 -548 0
-893 -1400 0
-1745 -2252 0
-2597 -3104 0
-207 -323 0
-1059 -1175 0
-1911 -2027 0
-2763 -2879 0
-271 -301 0
-1123 -1153 0
-1975 -2005 0
-2827 -2857 0
-292 -776 0
-1144 -1628 0
-1996 -2480 0
-2848 -3332 0
-328 -466 0
-1180 -1318 0
-2032 -2170 0
-2884 -3022 0
-409 -494 0
-1261 -1346 0
-2113 -2198 0
-2965 -3050 0
-2 -67 0
-854 -919 0
-1706 -1771 0
-2558 -2623 0
-5 -734 0
-857 -1586 0
-1709 -2438 0
-2561 -3290 0
-6 -755 0
-858 -1607 0
-1710 -2459 0
-2562 -3311 0
-12 -307 0
-864 -1159 0
-1716 -2011 0
-2568 -2863 0
-17 -246 0
-869 -1098 0
-1721 -1950 0
-2573 -2802 0
-18 -178 0
-870 -1030 0
-1722 -1882 0
-2574 -2734 0
-21 -30 0
-873 -882 0
-1725 -1734 0
-2577 -2586 0
-29 -92 0
-881 -944 0
-1733 -1796 0
-2585 -2648 0
-45 -60 0
-897 -912 0
-1749 -1764 0
-2601 -2616 0
-46 -530 0
-898 -1382 0
-1750 -2234 0
-2602 -3086 0
-54 -557 0
-906 -1409 0
-1758 -2261 0
-2610 -3113 0
-124 -144 0
-976 -996 0
-1828 -1848 0
-2680 -2700 0
-406 -531 0
-1258 -1383 0
-2110 -2235 0
-2962 -3087 0
-95 -211 0
-947 -1063 0
-1799 -1915 0
-2651 -2767 0
-228 -271 0
-1080 -1123 0
-1932 -1975 0
-2784 -2827 0
-390 -418 0
-1242 -1270 0
-2094 -2122 0
-2946 -2974 0
-455 -490 0
-1307 -1342 0
-2159 -2194 0
-3011 -3046 0
-5 -799 0
-857 -1651 0
-1709 -2503 0
-2561 -3355 0
-14 -782 0
-866 -1634 0
-1718 -2486 0
-2570 -3338 0
-15 -17 0
-867 -869 0
-1719 -1721 0
-2571 -2573 0
-19 -501 0
-871 -1353 0
-1723 -2205 0
-2575 -3057 0
-54 -561 0
-906 -1413 0
-1758 -2265 0
-2610 -3117 0
-152 -206 0
-1004 -1058 0
-1856 -1910 0
-2708 -2762 0
-271 -327 0
-1123 -1179 0
-1975 -2031 0
-2827 -2883 0
-529 -671 0
-1381 -1523 0
-2233 -2375 0
-3085 -3227 0
-13 -453 0
-865 -1305 0
-1717 -2157 0
-2569 -3009 0
-14 -395 0
-866 -1247 0
-1718 -2099 0
-2570 -2951 0
-15 -318 0
-867 -1170 0
-1719 -2022 0
-2571 -2874 0
-36 -110 0
-888 -962 0
-1740 -1814 0
-2592 -2666 0
-40 -184 0
-892 -1036 0
-1744 -1888 0
-2596 -2740 0
-41 -634 0
-893 -1486 0
-1745 -2338 0
-2597 -3190 0
-66 -253 0
-918 -1105 0
-1770 -1957 0
-2622 -2809 0
-243 -598 0
-1095 -1450 0
-1947 -2302 0
-2799 -3154 0
-6 -13 0
-858 -865 0
-1710 -1717 0
-2562 -2569 0
-16 -196 0
-868 -1048 0
-1720 -1900 0
-2572 -2752 0
-17 -259 0
-869 -1111 0
-1721 -1963 0
-2573 -2815 0
-20 -96 0
-872 -948 0
-1724 -1800 0
-2576 -2652 0
-21 -193 0
-873 -1045 0
-1725 -1897 0
-2577 -2749 0
-40 -323 0
-892 -1175 0
-1744 -2027 0
-2596 -2879 0
-41 -152 0
-893 -1004 0
-1745 -1856 0
-2597 -2708 0
-42 -672 0
-894 -1524 0
-1746 -2376 0
-2598 -3228 0
-60 -604 0
-912 -1456 0
-1764 -2308 0
-2616 -3160 0
-85 -118 0
-937 -970 0
-1789 -1822 0
-2641 -2674 0
-200 -501 0
-1052 -1353 0
-1904 -2205 0
-2756 -3057 0
-243 -459 0
-1095 -1311 0
-1947 -2163 0
-2799 -3015 0
-275 -780 0
-1127 -1632 0
-1979 -2484 0
-2831 -3336 0
-47 -270 0
-899 -1122 0
-1751 -1974 0
-2603 -2826 0
-48 -327 0
-900 -1179 0
-1752 -2031 0
-2604 -2883 0
-125 -465 0
-977 -1317 0
-1829 -2169 0
-2681 -3021 0
-178 -307 0
-1030 -1159 0
-1882 -2011 0
-2734 -2863 0
-182 -529 0
-1034 -1381 0
-1886 -2233 0
-2738 -3085 0
-188 -623 0
-1040 -1475 0
-1892 -2327 0
-2744 -3179 0
-2 -652 0
-854 -1504 0
-1706 -2356 0
-2558 -3208 0
-5 -102 0
-857 -954 0
-1709 -1806 0
-2561 -2658 0
-6 -160 0
-858 -1012 0
-1710 -1864 0
-2562 -2716 0
-29 -458 0
-881 -1310 0
-1733 -2162 0
-2585 -3014 0
-41 -635 0
-893 -1487 0
-1745 -2339 0
-2597 -3191 0
-43 -396 0
-895 -1248 0
-1747 -2100 0
-2599 -2952 0
-46 -130 0
-898 -982 0
-1750 -1834 0
-2602 -2686 0
-54 -126 0
-906 -978 0
-1758 -1830 0
-2610 -2682 0
-124 -426 0
-976 -1278 0
-1828 -2130 0
-2680 -2982 0
-171 -245 0
-1023 -1097 0
-1875 -1949 0
-2727 -2801 0
-211 -301 0
-1063 -1153 0
-1915 -2005 0
-2767 -2857 0
-326 -719 0
-1178 -1571 0
-2030 -2423 0
-2882 -3275 0
-466 -571 0
-1318 -1423 0
-2170 -2275 0
-3022 -3127 0
-166 -241 0
-1018 -1093 0
-1870 -1945 0
-2722 -2797 0
-248 -341 0
-1100 -1193 0
-1952 -2045 0
-2804 -2897 0
-316 -490 0
-1168 -1342 0
-2020 -2194 0
-2872 -3046 0
-344 -418 0
-1196 -1270 0
-2048 -2122 0
-2900 -2974 0
-431 -459 0
-1283 -1311 0
-2135 -2163 0
-2987 -3015 0
-98 -536 0
-950 -1388 0
-1802 -2240 0
-2654 -3092 0
-146 -600 0
-998 -1452 0
-1850 -2304 0
-2702 -3156 0
-149 -694 0
-1001 -1546 0
-1853 -2398 0
-2705 -3250 0
-155 -528 0
-1007 -1380 0
-1859 -2232 0
-2711 -3084 0
-173 -271 0
-1025 -1123 0
-1877 -1975 0
-2729 -2827 0
-199 -422 0
-1051 -1274 0
-1903 -2126 0
-2755 -2978 0
-208 -757 0
-1060 -1609 0
-1912 -2461 0
-2764 -3313 0
-260 -688 0
-1112 -1540 0
-1964 -2392 0
-2816 -3244 0
-371 -490 0
-1223 -1342 0
-2075 -2194 0
-2927 -3046 0
-466 -831 0
-1318 -1683 0
-2170 -2535 0
-3022 -3387 0
-561 -650 0
-1413 -1502 0
-2265 -2354 0
-3117 -3206 0
-623 -641 0
-1475 -1493 0
-2327 -2345 0
-3179 -3197 0
-817 -842 0
-1669 -1694 0
-2521 -2546 0
-3373 -3398 0
-12 -299 0
-864 -1151 0
-1716 -2003 0
-2568 -2855 0
-14 -374 0
-866 -1226 0
-1718 -2078 0
-2570 -2930 0
-15 -380 0
-867 -1232 0
-1719 -2084 0
-2571 -2936 0
-36 -637 0
-888 -1489 0
-1740 -2341 0
-2592 -3193 0
-41 -564 0
-893 -1416 0
-1745 -2268 0
-2597 -3120 0
-54 -85 0
-906 -937 0
-1758 -1789 0
-2610 -2641 0
-60 -267 0
-912 -1119 0
-1764 -1971 0
-2616 -2823 0
-92 -246 0
-944 -1098 0
-1796 -1950 0
-2648 -2802 0
-286 -824 0
-1138 -1676 0
-1990 -2528 0
-2842 -3380 0
-308 -801 0
-1160 -1653 0
-2012 -2505 0
-2864 -3357 0
-18 -180 0
-870 -1032 0
-1722 -1884 0
-2574 -2736 0
-19 -395 0
-871 -1247 0
-1723 -2099 0
-2575 -2951 0
-20 -821 0
-872 -1673 0
-1724 -2525 0
-2576 -3377 0
-21 -78 0
-873 -930 0
-1725 -1782 0
-2577 -2634 0
-40 -260 0
-892 -1112 0
-1744 -1964 0
-2596 -2816 0
-42 -309 0
-894 -1161 0
-1746 -2013 0
-2598 -2865 0
-52 -257 0
-904 -1109 0
-1756 -1961 0
-2608 -2813 0
-77 -119 0
-929 -971 0
-1781 -1823 0
-2633 -2675 0
-88 -120 0
-940 -972 0
-1792 -1824 0
-2644 -2676 0
-295 -383 0
-1147 -1235 0
-1999 -2087 0
-2851 -2939 0
-57 -501 0
-909 -1353 0
-1761 -2205 0
-2613 -3057 0
-92 -604 0
-944 -1456 0
-1796 -2308 0
-2648 -3160 0
-98 -152 0
-950 -1004 0
-1802 -1856 0
-2654 -2708 0
-127 -459 0
-979 -1311 0
-1831 -2163 0
-2683 -3015 0
-271 -773 0
-1123 -1625 0
-1975 -2477 0
-2827 -3329 0
-371 -756 0
-1223 -1608 0
-2075 -2460 0
-2927 -3312 0
-528 -707 0
-1380 -1559 0
-2232 -2411 0
-3084 -3263 0
-548 -569 0
-1400 -1421 0
-2252 -2273 0
-3104 -3125 0
-571 -627 0
-1423 -1479 0
-2275 -2331 0
-3127 -3183 0
-5 -384 0
-857 -1236 0
-1709 -2088 0
-2561 -2940 0
-6 -644 0
-858 -1496 0
-1710 -2348 0
-2562 -3200 0
-28 -597 0
-880 -1449 0
-1732 -2301 0
-2584 -3153 0
-30 -62 0
-882 -914 0
-1734 -1766 0
-2586 -2618 0
-31 -50 0
-883 -902 0
-1735 -1754 0
-2587 -2606 0
-47 -141 0
-899 -993 0
-1751 -1845 0
-2603 -2697 0
-51 -66 0
-903 -918 0
-1755 -1770 0
-2607 -2622 0
-54 -276 0
-906 -1128 0
-1758 -1980 0
-2610 -2832 0
-72 -95 0
-924 -947 0
-1776 -1799 0
-2628 -2651 0
-241 -258 0
-1093 -1110 0
-1945 -1962 0
-2797 -2814 0
-283 -327 0
-1135 -1179 0
-1987 -2031 0
-2839 -2883 0
-326 -664 0
-1178 -1516 0
-2030 -2368 0
-2882 -3220 0
-406 -498 0
-1258 -1350 0
-2110 -2202 0
-2962 -3054 0
-95 -228 0
-947 -1080 0
-1799 -1932 0
-2651 -2784 0
-205 -341 0
-1057 -1193 0
-1909 -2045 0
-2761 -2897 0
-211 -271 0
-1063 -1123 0
-1915 -1975 0
-2767 -2827 0
-235 -295 0
-1087 -1147 0
-1939 -1999 0
-2791 -2851 0
-548 -635 0
-1400 -1487 0
-2252 -2339 0
-3104 -3191 0
-152 -737 0
-1004 -1589 0
-1856 -2441 0
-2708 -3293 0
-256 -756 0
-1108 -1608 0
-1960 -2460 0
-2812 -3312 0
-366 -528 0
-1218 -1380 0
-2070 -2232 0
-2922 -3084 0
-441 -494 0
-1293 -1346 0
-2145 -2198 0
-2997 -3050 0
-493 -600 0
-1345 -1452 0
-2197 -2304 0
-3049 -3156 0
-561 -704 0
-1413 -1556 0
-2265 -2408 0
-3117 -3260 0
-5 -20 0
-857 -872 0
-1709 -1724 0
-2561 -2576 0
-12 -255 0
-864 -1107 0
-1716 -1959 0
-2568 -2811 0
-13 -330 0
-865 -1182 0
-1717 -2034 0
-2569 -2886 0
-47 -88 0
-899 -940 0
-1751 -1792 0
-2603 -2644 0
-77 -422 0
-929 -1274 0
-1781 -2126 0
-2633 -2978 0
-85 -757 0
-937 -1609 0
-1789 -2461 0
-2641 -3313 0
-118 -568 0
-970 -1420 0
-1822 -2272 0
-2674 -3124 0
-119 -308 0
-971 -1160 0
-1823 -2012 0
-2675 -2864 0
-171 -326 0
-1023 -1178 0
-1875 -2030 0
-2727 -2882 0
-173 -228 0
-1025 -1080 0
-1877 -1932 0
-2729 -2784 0
-245 -719 0
-1097 -1571 0
-1949 -2423 0
-2801 -3275 0
-327 -794 0
-1179 -1646 0
-2031 -2498 0
-2883 -3350 0
-371 -455 0
-1223 -1307 0
-2075 -2159 0
-2927 -3011 0
-409 -540 0
-1261 -1392 0
-2113 -2244 0
-2965 -3096 0
-17 -380 0
-869 -1232 0
-1721 -2084 0
-2573 -2936 0
-18 -143 0
-870 -995 0
-1722 -1847 0
-2574 -2699 0
-21 -653 0
-873 -1505 0
-1725 -2357 0
-2577 -3209 0
-36 -776 0
-888 -1628 0
-1740 -2480 0
-2592 -3332 0
-42 -292 0
-894 -1144 0
-1746 -1996 0
-2598 -2848 0
-48 -122 0
-900 -974 0
-1752 -1826 0
-2604 -2678 0
-52 -629 0
-904 -1481 0
-1756 -2333 0
-2608 -3185 0
-107 -601 0
-959 -1453 0
-1811 -2305 0
-2663 -3157 0
-189 -270 0
-1041 -1122 0
-1893 -1974 0
-2745 -2826 0
-191 -635 0
-1043 -1487 0
-1895 -2339 0
-2747 -3191 0
-499 -780 0
-1351 -1632 0
-2203 -2484 0
-3055 -3336 0
-149 -561 0
-1001 -1413 0
-1853 -2265 0
-2705 -3117 0
-184 -260 0
-1036 -1112 0
-1888 -1964 0
-2740 -2816 0
-271 -383 0
-1123 -1235 0
-1975 -2087 0
-2827 -2939 0
-341 -401 0
-1193 -1253 0
-2045 -2105 0
-2897 -2957 0
-501 -782 0
-1353 -1634 0
-2205 -2486 0
-3057 -3338 0
-5 -744 0
-857 -1596 0
-1709 -2448 0
-2561 -3300 0
-28 -123 0
-880 -975 0
-1732 -1827 0
-2584 -2679 0
-29 -45 0
-881 -897 0
-1733 -1749 0
-2585 -2601 0
-30 -254 0
-882 -1106 0
-1734 -1958 0
-2586 -2810 0
-47 -202 0
-899 -1054 0
-1751 -1906 0
-2603 -2758 0
-54 -138 0
-906 -990 0
-1758 -1842 0
-2610 -2694 0
-57 -200 0
-909 -1052 0
-1761 -1904 0
-2613 -2756 0
-63 -166 0
-915 -1018 0
-1767 -1870 0
-2619 -2722 0
-94 -527 0
-946 -1379 0
-1798 -2231 0
-2650 -3083 0
-127 -243 0
-979 -1095 0
-1831 -1947 0
-2683 -2799 0
-228 -266 0
-1080 -1118 0
-1932 -1970 0
-2784 -2822 0
-246 -267 0
-1098 -1119 0
-1950 -1971 0
-2802 -2823 0
-52 -152 0
-904 -1004 0
-1756 -1856 0
-2608 -2708 0
-63 -296 0
-915 -1148 0
-1767 -2000 0
-2619 -2852 0
-160 -801 0
-1012 -1653 0
-1864 -2505 0
-2716 -3357 0
-241 -756 0
-1093 -1608 0
-1945 -2460 0
-2797 -3312 0
-418 -466 0
-1270 -1318 0
-2122 -2170 0
-2974 -3022 0
-501 -532 0
-1353 -1384 0
-2205 -2236 0
-3057 -3088 0
-36 -42 0
-888 -894 0
-1740 -1746 0
-2592 -2598 0
-57 -623 0
-909 -1475 0
-1761 -2327 0
-2613 -3179 0
-260 -280 0
-1112 -1132 0
-1964 -1984 0
-2816 -2836 0
-369 -528 0
-1221 -1380 0
-2073 -2232 0
-2925 -3084 0
-422 -454 0
-1274 -1306 0
-2126 -2158 0
-2978 -3010 0
-465 -837 0
-1317 -1689 0
-2169 -2541 0
-3021 -3393 0
-638 -757 0
-1490 -1609 0
-2342 -2461 0
-3194 -3313 0
-13 -359 0
-865 -1211 0
-1717 -2063 0
-2569 -2915 0
-14 -314 0
-866 -1166 0
-1718 -2018 0
-2570 -2870 0
-36 -389 0
-888 -1241 0
-1740 -2093 0
-2592 -2945 0
-40 -400 0
-892 -1252 0
-1744 -2104 0
-2596 -2956 0
-41 -360 0
-893 -1212 0
-1745 -2064 0
-2597 -2916 0
-47 -77 0
-899 -929 0
-1751 -1781 0
-2603 -2633 0
-88 -422 0
-940 -1274 0
-1792 -2126 0
-2644 -2978 0
-95 -394 0
-947 -1246 0
-1799 -2098 0
-2651 -2950 0
-120 -308 0
-972 -1160 0
-1824 -2012 0
-2676 -2864 0
-371 -457 0
-1223 -1309 0
-2075 -2161 0
-2927 -3013 0
-372 -616 0
-1224 -1468 0
-2076 -2320 0
-2928 -3172 0
-740 -824 0
-1592 -1676 0
-2444 -2528 0
-3296 -3380 0
-5 -41 0
-857 -893 0
-1709 -1745 0
-2561 -2597 0
-6 -243 0
-858 -1095 0
-1710 -1947 0
-2562 -2799 0
-12 -465 0
-864 -1317 0
-1716 -2169 0
-2568 -3021 0
-13 -459 0
-865 -1311 0
-1717 -2163 0
-2569 -3015 0
-16 -127 0
-868 -979 0
-1720 -1831 0
-2572 -2683 0
-18 -125 0
-870 -977 0
-1722 -1829 0
-2574 -2681 0
-21 -748 0
-873 -1600 0
-1725 -2452 0
-2577 -3304 0
-48 -175 0
-900 -1027 0
-1752 -1879 0
-2604 -2731 0
-77 -199 0
-929 -1051 0
-1781 -1903 0
-2633 -2755 0
-85 -208 0
-937 -1060 0
-1789 -1912 0
-2641 -2764 0
-102 -635 0
-954 -1487 0
-1806 -2339 0
-2658 -3191 0
-295 -540 0
-1147 -1392 0
-1999 -2244 0
-2851 -3096 0
-36 -842 0
-888 -1694 0
-1740 -2546 0
-2592 -3398 0
-57 -601 0
-909 -1453 0
-1761 -2305 0
-2613 -3157 0
-84 -466 0
-936 -1318 0
-1788 -2170 0
-2640 -3022 0
-149 -803 0
-1001 -1655 0
-1853 -2507 0
-2705 -3359 0
-431 -454 0
-1283 -1306 0
-2135 -2158 0
-2987 -3010 0
-528 -563 0
-1380 -1415 0
-2232 -2267 0
-3084 -3119 0
-637 -776 0
-1489 -1628 0
-2341 -2480 0
-3193 -3332 0
-694 -769 0
-1546 -1621 0
-2398 -2473 0
-3250 -3325 0
-2 -111 0
-854 -963 0
-1706 -1815 0
-2558 -2667 0
-5 -132 0
-857 -984 0
-1709 -1836 0
-2561 -2688 0
-19 -31 0
-871 -883 0
-1723 -1735 0
-2575 -2587 0
-54 -796 0
-906 -1648 0
-1758 -2500 0
-2610 -3352 0
-57 -703 0
-909 -1555 0
-1761 -2407 0
-2613 -3259 0
-173 -409 0
-1025 -1261 0
-1877 -2113 0
-2729 -2965 0
-178 -697 0
-1030 -1549 0
-1882 -2401 0
-2734 -3253 0
-211 -235 0
-1063 -1087 0
-1915 -1939 0
-2767 -2791 0
-228 -540 0
-1080 -1392 0
-1932 -2244 0
-2784 -3096 0
-263 -401 0
-1115 -1253 0
-1967 -2105 0
-2819 -2957 0
-271 -295 0
-1123 -1147 0
-1975 -1999 0
-2827 -2851 0
-308 -347 0
-1160 -1199 0
-2012 -2051 0
-2864 -2903 0
-412 -454 0
-1264 -1306 0
-2116 -2158 0
-2968 -3010 0
-48 -260 0
-900 -1112 0
-1752 -1964 0
-2604 -2816 0
-52 -529 0
-904 -1381 0
-1756 -2233 0
-2608 -3085 0
-66 -824 0
-918 -1676 0
-1770 -2528 0
-2622 -3380 0
-222 -341 0
-1074 -1193 0
-1926 -2045 0
-2778 -2897 0
-230 -418 0
-1082 -1270 0
-1934 -2122 0
-2786 -2974 0
-297 -490 0
-1149 -1342 0
-2001 -2194 0
-2853 -3046 0
-307 -430 0
-1159 -1282 0
-2011 -2134 0
-2863 -2986 0
-568 -757 0
-1420 -1609 0
-2272 -2461 0
-3124 -3313 0
-658 -801 0
-1510 -1653 0
-2362 -2505 0
-3214 -3357 0
-12 -18 0
-864 -870 0
-1716 -1722 0
-2568 -2574 0
-179 -548 0
-1031 -1400 0
-1883 -2252 0
-2735 -3104 0
-215 -422 0
-1067 -1274 0
-1919 -2126 0
-2771 -2978 0
-258 -756 0
-1110 -1608 0
-1962 -2460 0
-2814 -3312 0
-285 -528 0
-1137 -1380 0
-1989 -2232 0
-2841 -3084 0
-320 -571 0
-1172 -1423 0
-2024 -2275 0
-2876 -3127 0
-14 -367 0
-866 -1219 0
-1718 -2071 0
-2570 -2923 0
-15 -328 0
-867 -1180 0
-1719 -2032 0
-2571 -2884 0
-28 -42 0
-880 -894 0
-1732 -1746 0
-2584 -2598 0
-36 -544 0
-888 -1396 0
-1740 -2248 0
-2592 -3100 0
-40 -221 0
-892 -1073 0
-1744 -1925 0
-2596 -2777 0
-63 -94 0
-915 -946 0
-1767 -1798 0
-2619 -2650 0
-166 -527 0
-1018 -1379 0
-1870 -2231 0
-2722 -3083 0
-317 -824 0
-1169 -1676 0
-2021 -2528 0
-2873 -3380 0
-16 -186 0
-868 -1038 0
-1720 -1890 0
-2572 -2742 0
-17 -576 0
-869 -1428 0
-1721 -2280 0
-2573 -3132 0
-19 -133 0
-871 -985 0
-1723 -1837 0
-2575 -2689 0
-21 -400 0
-873 -1252 0
-1725 -2104 0
-2577 -2956 0
-30 -40 0
-882 -892 0
-1734 -1744 0
-2586 -2596 0
-52 -109 0
-904 -961 0
-1756 -1813 0
-2608 -2665 0
-88 -649 0
-940 -1501 0
-1792 -2353 0
-2644 -3205 0
-307 -694 0
-1159 -1546 0
-2011 -2398 0
-2863 -3250 0
-20 -41 0
-872 -893 0
-1724 -1745 0
-2576 -2597 0
-81 -529 0
-933 -1381 0
-1785 -2233 0
-2637 -3085 0
-96 -152 0
-948 -1004 0
-1800 -1856 0
-2652 -2708 0
-255 -465 0
-1107 -1317 0
-1959 -2169 0
-2811 -3021 0
-295 -409 0
-1147 -1261 0
-1999 -2113 0
-2851 -2965 0
-330 -459 0
-1182 -1311 0
-2034 -2163 0
-2886 -3015 0
-571 -693 0
-1423 -1545 0
-2275 -2397 0
-3127 -3249 0
-769 -803 0
-1621 -1655 0
-2473 -2507 0
-3325 -3359 0
-6 -43 0
-858 -895 0
-1710 -1747 0
-2562 -2599 0
-17 -29 0
-869 -881 0
-1721 -1733 0
-2573 -2585 0
-28 -237 0
-880 -1089 0
-1732 -1941 0
-2584 -2793 0
-30 -72 0
-882 -924 0
-1734 -1776 0
-2586 -2628 0
-31 -449 0
-883 -1301 0
-1735 -2153 0
-2587 -3005 0
-46 -673 0
-898 -1525 0
-1750 -2377 0
-2602 -3229 0
-57 -107 0
-909 -959 0
-1761 -1811 0
-2613 -2663 0
-62 -95 0
-914 -947 0
-1766 -1799 0
-2618 -2651 0
-160 -396 0
-1012 -1248 0
-1864 -2100 0
-2716 -2952 0
-241 -640 0
-1093 -1492 0
-1945 -2344 0
-2797 -3196 0
-256 -372 0
-1108 -1224 0
-1960 -2076 0
-2812 -2928 0
-397 -454 0
-1249 -1306 0
-2101 -2158 0
-2953 -3010 0
-776 -842 0
-1628 -1694 0
-2480 -2546 0
-3332 -3398 0
-14 -31 0
-866 -883 0
-1718 -1735 0
-2570 -2587 0
-48 -323 0
-900 -1175 0
-1752 -2027 0
-2604 -2879 0
-60 -326 0
-912 -1178 0
-1764 -2030 0
-2616 -2882 0
-131 -418 0
-983 -1270 0
-1835 -2122 0
-2687 -2974 0
-233 -431 0
-1085 -1283 0
-1937 -2135 0
-2789 -2987 0
-263 -341 0
-1115 -1193 0
-1967 -2045 0
-2819 -2897 0
-271 -780 0
-1123 -1632 0
-1975 -2484 0
-2827 -3336 0
-308 -422 0
-1160 -1274 0
-2012 -2126 0
-2864 -2978 0
-490 -776 0
-1342 -1628 0
-2194 -2480 0
-3046 -3332 0
-13 -16 0
-865 -868 0
-1717 -1720 0
-2569 -2572 0
-19 -601 0
-871 -1453 0
-1723 -2305 0
-2575 -3157 0
-96 -536 0
-948 -1388 0
-1800 -2240 0
-2652 -3092 0
-193 -494 0
-1045 -1346 0
-1897 -2198 0
-2749 -3050 0
-323 -441 0
-1175 -1293 0
-2027 -2145 0
-2879 -2997 0
-487 -757 0
-1339 -1609 0
-2191 -2461 0
-3043 -3313 0
9 0
876 0
1739 0
