c core852a: 4-colourability of a unit-distance graph with 852 vertices and 4487 edges
c variable 4v+c+1 (v = 0..n-1, c = 0..3): vertex v has colour c
c clauses: one at-least-one clause per vertex, one clause per edge and colour, units fixing the triangle (8, 23, 34) to colours 0,1,2
p cnf 3408 18803
1 2 3 4 0
5 6 7 8 0
9 10 11 12 0
13 14 15 16 0
17 18 19 20 0
21 22 23 24 0
25 26 27 28 0
29 30 31 32 0
33 34 35 36 0
37 38 39 40 0
41 42 43 44 0
45 46 47 48 0
49 50 51 52 0
53 54 55 56 0
57 58 59 60 0
61 62 63 64 0
65 66 67 68 0
69 70 71 72 0
73 74 75 76 0
77 78 79 80 0
81 82 83 84 0
85 86 87 88 0
89 90 91 92 0
93 94 95 96 0
97 98 99 100 0
101 102 103 104 0
105 106 107 108 0
109 110 111 112 0
113 114 115 116 0
117 118 119 120 0
121 122 123 124 0
125 126 127 128 0
129 130 131 132 0
133 134 135 136 0
137 138 139 140 0
141 142 143 144 0
145 146 147 148 0
149 150 151 152 0
153 154 155 156 0
157 158 159 160 0
161 162 163 164 0
165 166 167 168 0
169 170 171 172 0
173 174 175 176 0
177 178 179 180 0
181 182 183 184 0
185 186 187 188 0
189 190 191 192 0
193 194 195 196 0
197 198 199 200 0
201 202 203 204 0
205 206 207 208 0
209 210 211 212 0
213 214 215 216 0
217 218 219 220 0
221 222 223 224 0
225 226 227 228 0
229 230 231 232 0
233 234 235 236 0
237 238 239 240 0
241 242 243 244 0
245 246 247 248 0
249 250 251 252 0
253 254 255 256 0
257 258 259 260 0
261 262 263 264 0
265 266 267 268 0
269 270 271 272 0
273 274 275 276 0
277 278 279 280 0
281 282 283 284 0
285 286 287 288 0
289 290 291 292 0
293 294 295 296 0
297 298 299 300 0
301 302 303 304 0
305 306 307 308 0
309 310 311 312 0
313 314 315 316 0
317 318 319 320 0
321 322 323 324 0
325 326 327 328 0
329 330 331 332 0
333 334 335 336 0
337 338 339 340 0
341 342 343 344 0
345 346 347 348 0
349 350 351 352 0
353 354 355 356 0
357 358 359 360 0
361 362 363 364 0
365 366 367 368 0
369 370 371 372 0
373 374 375 376 0
377 378 379 380 0
381 382 383 384 0
385 386 387 388 0
389 390 391 392 0
393 394 395 396 0
397 398 399 400 0
401 402 403 404 0
405 406 407 408 0
409 410 411 412 0
413 414 415 416 0
417 418 419 420 0
421 422 423 424 0
425 426 427 428 0
429 430 431 432 0
433 434 435 436 0
437 438 439 440 0
441 442 443 444 0
445 446 447 448 0
449 450 451 452 0
453 454 455 456 0
457 458 459 460 0
461 462 463 464 0
465 466 467 468 0
469 470 471 472 0
473 474 475 476 0
477 478 479 480 0
481 482 483 484 0
485 486 487 488 0
489 490 491 492 0
493 494 495 496 0
497 498 499 500 0
501 502 503 504 0
505 506 507 508 0
509 510 511 512 0
513 514 515 516 0
517 518 519 520 0
521 522 523 524 0
525 526 527 528 0
529 530 531 532 0
533 534 535 536 0
537 538 539 540 0
541 542 543 544 0
545 546 547 548 0
549 550 551 552 0
553 554 555 556 0
557 558 559 560 0
561 562 563 564 0
565 566 567 568 0
569 570 571 572 0
573 574 575 576 0
577 578 579 580 0
581 582 583 584 0
585 586 587 588 0
589 590 591 592 0
593 594 595 596 0
597 598 599 600 0
601 602 603 604 0
605 606 607 608 0
609 610 611 612 0
613 614 615 616 0
617 618 619 620 0
621 622 623 624 0
625 626 627 628 0
629 630 631 632 0
633 634 635 636 0
637 638 639 640 0
641 642 643 644 0
645 646 647 648 0
649 650 651 652 0
653 654 655 656 0
657 658 659 660 0
661 662 663 664 0
665 666 667 668 0
669 670 671 672 0
673 674 675 676 0
677 678 679 680 0
681 682 683 684 0
685 686 687 688 0
689 690 691 692 0
693 694 695 696 0
697 698 699 700 0
701 702 703 704 0
705 706 707 708 0
709 710 711 712 0
713 714 715 716 0
717 718 719 720 0
721 722 723 724 0
725 726 727 728 0
729 730 731 732 0
733 734 735 736 0
737 738 739 740 0
741 742 743 744 0
745 746 747 748 0
749 750 751 752 0
753 754 755 756 0
757 758 759 760 0
761 762 763 764 0
765 766 767 768 0
769 770 771 772 0
773 774 775 776 0
777 778 779 780 0
781 782 783 784 0
785 786 787 788 0
789 790 791 792 0
793 794 795 796 0
797 798 799 800 0
801 802 803 804 0
805 806 807 808 0
809 810 811 812 0
813 814 815 816 0
817 818 819 820 0
821 822 823 824 0
825 826 827 828 0
829 830 831 832 0
833 834 835 836 0
837 838 839 840 0
841 842 843 844 0
845 846 847 848 0
849 850 851 852 0
853 854 855 856 0
857 858 859 860 0
861 862 863 864 0
865 866 867 868 0
869 870 871 872 0
873 874 875 876 0
877 878 879 880 0
881 882 883 884 0
885 886 887 888 0
889 890 891 892 0
893 894 895 896 0
897 898 899 900 0
901 902 903 904 0
905 906 907 908 0
909 910 911 912 0
913 914 915 916 0
917 918 919 920 0
921 922 923 924 0
925 926 927 928 0
929 930 931 932 0
933 934 935 936 0
937 938 939 940 0
941 942 943 944 0
945 946 947 948 0
949 950 951 952 0
953 954 955 956 0
957 958 959 960 0
961 962 963 964 0
965 966 967 968 0
969 970 971 972 0
973 974 975 976 0
977 978 979 980 0
981 982 983 984 0
985 986 987 988 0
989 990 991 992 0
993 994 995 996 0
997 998 999 1000 0
1001 1002 1003 1004 0
1005 1006 1007 1008 0
1009 1010 1011 1012 0
1013 1014 1015 1016 0
1017 1018 1019 1020 0
1021 1022 1023 1024 0
1025 1026 1027 1028 0
1029 1030 1031 1032 0
1033 1034 1035 1036 0
1037 1038 1039 1040 0
1041 1042 1043 1044 0
1045 1046 1047 1048 0
1049 1050 1051 1052 0
1053 1054 1055 1056 0
1057 1058 1059 1060 0
1061 1062 1063 1064 0
1065 1066 1067 1068 0
1069 1070 1071 1072 0
1073 1074 1075 1076 0
1077 1078 1079 1080 0
1081 1082 1083 1084 0
1085 1086 1087 1088 0
1089 1090 1091 1092 0
1093 1094 1095 1096 0
1097 1098 1099 1100 0
1101 1102 1103 1104 0
1105 1106 1107 1108 0
1109 1110 1111 1112 0
1113 1114 1115 1116 0
1117 1118 1119 1120 0
1121 1122 1123 1124 0
1125 1126 1127 1128 0
1129 1130 1131 1132 0
1133 1134 1135 1136 0
1137 1138 1139 1140 0
1141 1142 1143 1144 0
1145 1146 1147 1148 0
1149 1150 1151 1152 0
1153 1154 1155 1156 0
1157 1158 1159 1160 0
1161 1162 1163 1164 0
1165 1166 1167 1168 0
1169 1170 1171 1172 0
1173 1174 1175 1176 0
1177 1178 1179 1180 0
1181 1182 1183 1184 0
1185 1186 1187 1188 0
1189 1190 1191 1192 0
1193 1194 1195 1196 0
1197 1198 1199 1200 0
1201 1202 1203 1204 0
1205 1206 1207 1208 0
1209 1210 1211 1212 0
1213 1214 1215 1216 0
1217 1218 1219 1220 0
1221 1222 1223 1224 0
1225 1226 1227 1228 0
1229 1230 1231 1232 0
1233 1234 1235 1236 0
1237 1238 1239 1240 0
1241 1242 1243 1244 0
1245 1246 1247 1248 0
1249 1250 1251 1252 0
1253 1254 1255 1256 0
1257 1258 1259 1260 0
1261 1262 1263 1264 0
1265 1266 1267 1268 0
1269 1270 1271 1272 0
1273 1274 1275 1276 0
1277 1278 1279 1280 0
1281 1282 1283 1284 0
1285 1286 1287 1288 0
1289 1290 1291 1292 0
1293 1294 1295 1296 0
1297 1298 1299 1300 0
1301 1302 1303 1304 0
1305 1306 1307 1308 0
1309 1310 1311 1312 0
1313 1314 1315 1316 0
1317 1318 1319 1320 0
1321 1322 1323 1324 0
1325 1326 1327 1328 0
1329 1330 1331 1332 0
1333 1334 1335 1336 0
1337 1338 1339 1340 0
1341 1342 1343 1344 0
1345 1346 1347 1348 0
1349 1350 1351 1352 0
1353 1354 1355 1356 0
1357 1358 1359 1360 0
1361 1362 1363 1364 0
1365 1366 1367 1368 0
1369 1370 1371 1372 0
1373 1374 1375 1376 0
1377 1378 1379 1380 0
1381 1382 1383 1384 0
1385 1386 1387 1388 0
1389 1390 1391 1392 0
1393 1394 1395 1396 0
1397 1398 1399 1400 0
1401 1402 1403 1404 0
1405 1406 1407 1408 0
1409 1410 1411 1412 0
1413 1414 1415 1416 0
1417 1418 1419 1420 0
1421 1422 1423 1424 0
1425 1426 1427 1428 0
1429 1430 1431 1432 0
1433 1434 1435 1436 0
1437 1438 1439 1440 0
1441 1442 1443 1444 0
1445 1446 1447 1448 0
1449 1450 1451 1452 0
1453 1454 1455 1456 0
1457 1458 1459 1460 0
1461 1462 1463 1464 0
1465 1466 1467 1468 0
1469 1470 1471 1472 0
1473 1474 1475 1476 0
1477 1478 1479 1480 0
1481 1482 1483 1484 0
1485 1486 1487 1488 0
1489 1490 1491 1492 0
1493 1494 1495 1496 0
1497 1498 1499 1500 0
1501 1502 1503 1504 0
1505 1506 1507 1508 0
1509 1510 1511 1512 0
1513 1514 1515 1516 0
1517 1518 1519 1520 0
1521 1522 1523 1524 0
1525 1526 1527 1528 0
1529 1530 1531 1532 0
1533 1534 1535 1536 0
1537 1538 1539 1540 0
1541 1542 1543 1544 0
1545 1546 1547 1548 0
1549 1550 1551 1552 0
1553 1554 1555 1556 0
1557 1558 1559 1560 0
1561 1562 1563 1564 0
1565 1566 1567 1568 0
1569 1570 1571 1572 0
1573 1574 1575 1576 0
1577 1578 1579 1580 0
1581 1582 1583 1584 0
1585 1586 1587 1588 0
1589 1590 1591 1592 0
1593 1594 1595 1596 0
1597 1598 1599 1600 0
1601 1602 1603 1604 0
1605 1606 1607 1608 0
1609 1610 1611 1612 0
1613 1614 1615 1616 0
1617 1618 1619 1620 0
1621 1622 1623 1624 0
1625 1626 1627 1628 0
1629 1630 1631 1632 0
1633 1634 1635 1636 0
1637 1638 1639 1640 0
1641 1642 1643 1644 0
1645 1646 1647 1648 0
1649 1650 1651 1652 0
1653 1654 1655 1656 0
1657 1658 1659 1660 0
1661 1662 1663 1664 0
1665 1666 1667 1668 0
1669 1670 1671 1672 0
1673 1674 1675 1676 0
1677 1678 1679 1680 0
1681 1682 1683 1684 0
1685 1686 1687 1688 0
1689 1690 1691 1692 0
1693 1694 1695 1696 0
1697 1698 1699 1700 0
1701 1702 1703 1704 0
1705 1706 1707 1708 0
1709 1710 1711 1712 0
1713 1714 1715 1716 0
1717 1718 1719 1720 0
1721 1722 1723 1724 0
1725 1726 1727 1728 0
1729 1730 1731 1732 0
1733 1734 1735 1736 0
1737 1738 1739 1740 0
1741 1742 1743 1744 0
1745 1746 1747 1748 0
1749 1750 1751 1752 0
1753 1754 1755 1756 0
1757 1758 1759 1760 0
1761 1762 1763 1764 0
1765 1766 1767 1768 0
1769 1770 1771 1772 0
1773 1774 1775 1776 0
1777 1778 1779 1780 0
1781 1782 1783 1784 0
1785 1786 1787 1788 0
1789 1790 1791 1792 0
1793 1794 1795 1796 0
1797 1798 1799 1800 0
1801 1802 1803 1804 0
1805 1806 1807 1808 0
1809 1810 1811 1812 0
1813 1814 1815 1816 0
1817 1818 1819 1820 0
1821 1822 1823 1824 0
1825 1826 1827 1828 0
1829 1830 1831 1832 0
1833 1834 1835 1836 0
1837 1838 1839 1840 0
1841 1842 1843 1844 0
1845 1846 1847 1848 0
1849 1850 1851 1852 0
1853 1854 1855 1856 0
1857 1858 1859 1860 0
1861 1862 1863 1864 0
1865 1866 1867 1868 0
1869 1870 1871 1872 0
1873 1874 1875 1876 0
1877 1878 1879 1880 0
1881 1882 1883 1884 0
1885 1886 1887 1888 0
1889 1890 1891 1892 0
1893 1894 1895 1896 0
1897 1898 1899 1900 0
1901 1902 1903 1904 0
1905 1906 1907 1908 0
1909 1910 1911 1912 0
1913 1914 1915 1916 0
1917 1918 1919 1920 0
1921 1922 1923 1924 0
1925 1926 1927 1928 0
1929 1930 1931 1932 0
1933 1934 1935 1936 0
1937 1938 1939 1940 0
1941 1942 1943 1944 0
1945 1946 1947 1948 0
1949 1950 1951 1952 0
1953 1954 1955 1956 0
1957 1958 1959 1960 0
1961 1962 1963 1964 0
1965 1966 1967 1968 0
1969 1970 1971 1972 0
1973 1974 1975 1976 0
1977 1978 1979 1980 0
1981 1982 1983 1984 0
1985 1986 1987 1988 0
1989 1990 1991 1992 0
1993 1994 1995 1996 0
1997 1998 1999 2000 0
2001 2002 2003 2004 0
2005 2006 2007 2008 0
2009 2010 2011 2012 0
2013 2014 2015 2016 0
2017 2018 2019 2020 0
2021 2022 2023 2024 0
2025 2026 2027 2028 0
2029 2030 2031 2032 0
2033 2034 2035 2036 0
2037 2038 2039 2040 0
2041 2042 2043 2044 0
2045 2046 2047 2048 0
2049 2050 2051 2052 0
2053 2054 2055 2056 0
2057 2058 2059 2060 0
2061 2062 2063 2064 0
2065 2066 2067 2068 0
2069 2070 2071 2072 0
2073 2074 2075 2076 0
2077 2078 2079 2080 0
2081 2082 2083 2084 0
2085 2086 2087 2088 0
2089 2090 2091 2092 0
2093 2094 2095 2096 0
2097 2098 2099 2100 0
2101 2102 2103 2104 0
2105 2106 2107 2108 0
2109 2110 2111 2112 0
2113 2114 2115 2116 0
2117 2118 2119 2120 0
2121 2122 2123 2124 0
2125 2126 2127 2128 0
2129 2130 2131 2132 0
2133 2134 2135 2136 0
2137 2138 2139 2140 0
2141 2142 2143 2144 0
2145 2146 2147 2148 0
2149 2150 2151 2152 0
2153 2154 2155 2156 0
2157 2158 2159 2160 0
2161 2162 2163 2164 0
2165 2166 2167 2168 0
2169 2170 2171 2172 0
2173 2174 2175 2176 0
2177 2178 2179 2180 0
2181 2182 2183 2184 0
2185 2186 2187 2188 0
2189 2190 2191 2192 0
2193 2194 2195 2196 0
2197 2198 2199 2200 0
2201 2202 2203 2204 0
2205 2206 2207 2208 0
2209 2210 2211 2212 0
2213 2214 2215 2216 0
2217 2218 2219 2220 0
2221 2222 2223 2224 0
2225 2226 2227 2228 0
2229 2230 2231 2232 0
2233 2234 2235 2236 0
2237 2238 2239 2240 0
2241 2242 2243 2244 0
2245 2246 2247 2248 0
2249 2250 2251 2252 0
2253 2254 2255 2256 0
2257 2258 2259 2260 0
2261 2262 2263 2264 0
2265 2266 2267 2268 0
2269 2270 2271 2272 0
2273 2274 2275 2276 0
2277 2278 2279 2280 0
2281 2282 2283 2284 0
2285 2286 2287 2288 0
2289 2290 2291 2292 0
2293 2294 2295 2296 0
2297 2298 2299 2300 0
2301 2302 2303 2304 0
2305 2306 2307 2308 0
2309 2310 2311 2312 0
2313 2314 2315 2316 0
2317 2318 2319 2320 0
2321 2322 2323 2324 0
2325 2326 2327 2328 0
2329 2330 2331 2332 0
2333 2334 2335 2336 0
2337 2338 2339 2340 0
2341 2342 2343 2344 0
2345 2346 2347 2348 0
2349 2350 2351 2352 0
2353 2354 2355 2356 0
2357 2358 2359 2360 0
2361 2362 2363 2364 0
2365 2366 2367 2368 0
2369 2370 2371 2372 0
2373 2374 2375 2376 0
2377 2378 2379 2380 0
2381 2382 2383 2384 0
2385 2386 2387 2388 0
2389 2390 2391 2392 0
2393 2394 2395 2396 0
2397 2398 2399 2400 0
2401 2402 2403 2404 0
2405 2406 2407 2408 0
2409 2410 2411 2412 0
2413 2414 2415 2416 0
2417 2418 2419 2420 0
2421 2422 2423 2424 0
2425 2426 2427 2428 0
2429 2430 2431 2432 0
2433 2434 2435 2436 0
2437 2438 2439 2440 0
2441 2442 2443 2444 0
2445 2446 2447 2448 0
2449 2450 2451 2452 0
2453 2454 2455 2456 0
2457 2458 2459 2460 0
2461 2462 2463 2464 0
2465 2466 2467 2468 0
2469 2470 2471 2472 0
2473 2474 2475 2476 0
2477 2478 2479 2480 0
2481 2482 2483 2484 0
2485 2486 2487 2488 0
2489 2490 2491 2492 0
2493 2494 2495 2496 0
2497 2498 2499 2500 0
2501 2502 2503 2504 0
2505 2506 2507 2508 0
2509 2510 2511 2512 0
2513 2514 2515 2516 0
2517 2518 2519 2520 0
2521 2522 2523 2524 0
2525 2526 2527 2528 0
2529 2530 2531 2532 0
2533 2534 2535 2536 0
2537 2538 2539 2540 0
2541 2542 2543 2544 0
2545 2546 2547 2548 0
2549 2550 2551 2552 0
2553 2554 2555 2556 0
2557 2558 2559 2560 0
2561 2562 2563 2564 0
2565 2566 2567 2568 0
2569 2570 2571 2572 0
2573 2574 2575 2576 0
2577 2578 2579 2580 0
2581 2582 2583 2584 0
2585 2586 2587 2588 0
2589 2590 2591 2592 0
2593 2594 2595 2596 0
2597 2598 2599 2600 0
2601 2602 2603 2604 0
2605 2606 2607 2608 0
2609 2610 2611 2612 0
2613 2614 2615 2616 0
2617 2618 2619 2620 0
2621 2622 2623 2624 0
2625 2626 2627 2628 0
2629 2630 2631 2632 0
2633 2634 2635 2636 0
2637 2638 2639 2640 0
2641 2642 2643 2644 0
2645 2646 2647 2648 0
2649 2650 2651 2652 0
2653 2654 2655 2656 0
2657 2658 2659 2660 0
2661 2662 2663 2664 0
2665 2666 2667 2668 0
2669 2670 2671 2672 0
2673 2674 2675 2676 0
2677 2678 2679 2680 0
2681 2682 2683 2684 0
2685 2686 2687 2688 0
2689 2690 2691 2692 0
2693 2694 2695 2696 0
2697 2698 2699 2700 0
2701 2702 2703 2704 0
2705 2706 2707 2708 0
2709 2710 2711 2712 0
2713 2714 2715 2716 0
2717 2718 2719 2720 0
2721 2722 2723 2724 0
2725 2726 2727 2728 0
2729 2730 2731 2732 0
2733 2734 2735 2736 0
2737 2738 2739 2740 0
2741 2742 2743 2744 0
2745 2746 2747 2748 0
2749 2750 2751 2752 0
2753 2754 2755 2756 0
2757 2758 2759 2760 0
2761 2762 2763 2764 0
2765 2766 2767 2768 0
2769 2770 2771 2772 0
2773 2774 2775 2776 0
2777 2778 2779 2780 0
2781 2782 2783 2784 0
2785 2786 2787 2788 0
2789 2790 2791 2792 0
2793 2794 2795 2796 0
2797 2798 2799 2800 0
2801 2802 2803 2804 0
2805 2806 2807 2808 0
2809 2810 2811 2812 0
2813 2814 2815 2816 0
2817 2818 2819 2820 0
2821 2822 2823 2824 0
2825 2826 2827 2828 0
2829 2830 2831 2832 0
2833 2834 2835 2836 0
2837 2838 2839 2840 0
2841 2842 2843 2844 0
2845 2846 2847 2848 0
2849 2850 2851 2852 0
2853 2854 2855 2856 0
2857 2858 2859 2860 0
2861 2862 2863 2864 0
2865 2866 2867 2868 0
2869 2870 2871 2872 0
2873 2874 2875 2876 0
2877 2878 2879 2880 0
2881 2882 2883 2884 0
2885 2886 2887 2888 0
2889 2890 2891 2892 0
2893 2894 2895 2896 0
2897 2898 2899 2900 0
2901 2902 2903 2904 0
2905 2906 2907 2908 0
2909 2910 2911 2912 0
2913 2914 2915 2916 0
2917 2918 2919 2920 0
2921 2922 2923 2924 0
2925 2926 2927 2928 0
2929 2930 2931 2932 0
2933 2934 2935 2936 0
2937 2938 2939 2940 0
2941 2942 2943 2944 0
2945 2946 2947 2948 0
2949 2950 2951 2952 0
2953 2954 2955 2956 0
2957 2958 2959 2960 0
2961 2962 2963 2964 0
2965 2966 2967 2968 0
2969 2970 2971 2972 0
2973 2974 2975 2976 0
2977 2978 2979 2980 0
2981 2982 2983 2984 0
2985 2986 2987 2988 0
2989 2990 2991 2992 0
2993 2994 2995 2996 0
2997 2998 2999 3000 0
3001 3002 3003 3004 0
3005 3006 3007 3008 0
3009 3010 3011 3012 0
3013 3014 3015 3016 0
3017 3018 3019 3020 0
3021 3022 3023 3024 0
3025 3026 3027 3028 0
3029 3030 3031 3032 0
3033 3034 3035 3036 0
3037 3038 3039 3040 0
3041 3042 3043 3044 0
3045 3046 3047 3048 0
3049 3050 3051 3052 0
3053 3054 3055 3056 0
3057 3058 3059 3060 0
3061 3062 3063 3064 0
3065 3066 3067 3068 0
3069 3070 3071 3072 0
3073 3074 3075 3076 0
3077 3078 3079 3080 0
3081 3082 3083 3084 0
3085 3086 3087 3088 0
3089 3090 3091 3092 0
3093 3094 3095 3096 0
3097 3098 3099 3100 0
3101 3102 3103 3104 0
3105 3106 3107 3108 0
3109 3110 3111 3112 0
3113 3114 3115 3116 0
3117 3118 3119 3120 0
3121 3122 3123 3124 0
3125 3126 3127 3128 0
3129 3130 3131 3132 0
3133 3134 3135 3136 0
3137 3138 3139 3140 0
3141 3142 3143 3144 0
3145 3146 3147 3148 0
3149 3150 3151 3152 0
3153 3154 3155 3156 0
3157 3158 3159 3160 0
3161 3162 3163 3164 0
3165 3166 3167 3168 0
3169 3170 3171 3172 0
3173 3174 3175 3176 0
3177 3178 3179 3180 0
3181 3182 3183 3184 0
3185 3186 3187 3188 0
3189 3190 3191 3192 0
3193 3194 3195 3196 0
3197 3198 3199 3200 0
3201 3202 3203 3204 0
3205 3206 3207 3208 0
3209 3210 3211 3212 0
3213 3214 3215 3216 0
3217 3218 3219 3220 0
3221 3222 3223 3224 0
3225 3226 3227 3228 0
3229 3230 3231 3232 0
3233 3234 3235 3236 0
3237 3238 3239 3240 0
3241 3242 3243 3244 0
3245 3246 3247 3248 0
3249 3250 3251 3252 0
3253 3254 3255 3256 0
3257 3258 3259 3260 0
3261 3262 3263 3264 0
3265 3266 3267 3268 0
3269 3270 3271 3272 0
3273 3274 3275 3276 0
3277 3278 3279 3280 0
3281 3282 3283 3284 0
3285 3286 3287 3288 0
3289 3290 3291 3292 0
3293 3294 3295 3296 0
3297 3298 3299 3300 0
3301 3302 3303 3304 0
3305 3306 3307 3308 0
3309 3310 3311 3312 0
3313 3314 3315 3316 0
3317 3318 3319 3320 0
3321 3322 3323 3324 0
3325 3326 3327 3328 0
3329 3330 3331 3332 0
3333 3334 3335 3336 0
3337 3338 3339 3340 0
3341 3342 3343 3344 0
3345 3346 3347 3348 0
3349 3350 3351 3352 0
3353 3354 3355 3356 0
3357 3358 3359 3360 0
3361 3362 3363 3364 0
3365 3366 3367 3368 0
3369 3370 3371 3372 0
3373 3374 3375 3376 0
3377 3378 3379 3380 0
3381 3382 3383 3384 0
3385 3386 3387 3388 0
3389 3390 3391 3392 0
3393 3394 3395 3396 0
3397 3398 3399 3400 0
3401 3402 3403 3404 0
3405 3406 3407 3408 0
-1 -865 0
-2 -866 0
-3 -867 0
-4 -868 0
-9 -125 0
-10 -126 0
-11 -127 0
-12 -128 0
-13 -257 0
-14 -258 0
-15 -259 0
-16 -260 0
-25 -1053 0
-26 -1054 0
-27 -1055 0
-28 -1056 0
-37 -317 0
-38 -318 0
-39 -319 0
-40 -320 0
-41 -3257 0
-42 -3258 0
-43 -3259 0
-44 -3260 0
-53 -237 0
-54 -238 0
-55 -239 0
-56 -240 0
-57 -161 0
-58 -162 0
-59 -163 0
-60 -164 0
-89 -1985 0
-90 -1986 0
-91 -1987 0
-92 -1988 0
-105 -301 0
-106 -302 0
-107 -303 0
-108 -304 0
-121 -1301 0
-122 -1302 0
-123 -1303 0
-124 -1304 0
-197 -2653 0
-198 -2654 0
-199 -2655 0
-200 -2656 0
-201 -681 0
-202 -682 0
-203 -683 0
-204 -684 0
-217 -277 0
-218 -278 0
-219 -279 0
-220 -280 0
-249 -593 0
-250 -594 0
-251 -595 0
-252 -596 0
-281 -613 0
-282 -614 0
-283 -615 0
-284 -616 0
-313 -1341 0
-314 -1342 0
-315 -1343 0
-316 -1344 0
-393 -457 0
-394 -458 0
-395 -459 0
-396 -460 0
-405 -733 0
-406 -734 0
-407 -735 0
-408 -736 0
-449 -1781 0
-450 -1782 0
-451 -1783 0
-452 -1784 0
-469 -653 0
-470 -654 0
-471 -655 0
-472 -656 0
-485 -1021 0
-486 -1022 0
-487 -1023 0
-488 -1024 0
-501 -609 0
-502 -610 0
-503 -611 0
-504 -612 0
-525 -881 0
-526 -882 0
-527 -883 0
-528 -884 0
-569 -805 0
-570 -806 0
-571 -807 0
-572 -808 0
-597 -765 0
-598 -766 0
-599 -767 0
-600 -768 0
-637 -797 0
-638 -798 0
-639 -799 0
-640 -800 0
-693 -2105 0
-694 -2106 0
-695 -2107 0
-696 -2108 0
-701 -773 0
-702 -774 0
-703 -775 0
-704 -776 0
-769 -1149 0
-770 -1150 0
-771 -1151 0
-772 -1152 0
-937 -2173 0
-938 -2174 0
-939 -2175 0
-940 -2176 0
-957 -1453 0
-958 -1454 0
-959 -1455 0
-960 -1456 0
-965 -2681 0
-966 -2682 0
-967 -2683 0
-968 -2684 0
-1049 -2389 0
-1050 -2390 0
-1051 -2391 0
-1052 -2392 0
-1073 -2877 0
-1074 -2878 0
-1075 -2879 0
-1076 -2880 0
-1109 -2789 0
-1110 -2790 0
-1111 -2791 0
-1112 -2792 0
-1129 -3185 0
-1130 -3186 0
-1131 -3187 0
-1132 -3188 0
-1133 -1421 0
-1134 -1422 0
-1135 -1423 0
-1136 -1424 0
-1145 -1345 0
-1146 -1346 0
-1147 -1347 0
-1148 -1348 0
-1269 -2533 0
-1270 -2534 0
-1271 -2535 0
-1272 -2536 0
-1293 -2409 0
-1294 -2410 0
-1295 -2411 0
-1296 -2412 0
-1385 -2709 0
-1386 -2710 0
-1387 -2711 0
-1388 -2712 0
-1517 -2253 0
-1518 -2254 0
-1519 -2255 0
-1520 -2256 0
-1913 -2177 0
-1914 -2178 0
-1915 -2179 0
-1916 -2180 0
-1929 -1941 0
-1930 -1942 0
-1931 -1943 0
-1932 -1944 0
-2261 -2293 0
-2262 -2294 0
-2263 -2295 0
-2264 -2296 0
-2265 -3269 0
-2266 -3270 0
-2267 -3271 0
-2268 -3272 0
-2309 -2377 0
-2310 -2378 0
-2311 -2379 0
-2312 -2380 0
-2665 -3233 0
-2666 -3234 0
-2667 -3235 0
-2668 -3236 0
-1 -2805 0
-2 -2806 0
-3 -2807 0
-4 -2808 0
-9 -917 0
-10 -918 0
-11 -919 0
-12 -920 0
-33 -93 0
-34 -94 0
-35 -95 0
-36 -96 0
-85 -737 0
-86 -738 0
-87 -739 0
-88 -740 0
-125 -481 0
-126 -482 0
-127 -483 0
-128 -484 0
-133 -3265 0
-134 -3266 0
-135 -3267 0
-136 -3268 0
-177 -269 0
-178 -270 0
-179 -271 0
-180 -272 0
-193 -581 0
-194 -582 0
-195 -583 0
-196 -584 0
-241 -625 0
-242 -626 0
-243 -627 0
-244 -628 0
-293 -2049 0
-294 -2050 0
-295 -2051 0
-296 -2052 0
-309 -2553 0
-310 -2554 0
-311 -2555 0
-312 -2556 0
-313 -2249 0
-314 -2250 0
-315 -2251 0
-316 -2252 0
-345 -617 0
-346 -618 0
-347 -619 0
-348 -620 0
-361 -389 0
-362 -390 0
-363 -391 0
-364 -392 0
-405 -2485 0
-406 -2486 0
-407 -2487 0
-408 -2488 0
-417 -689 0
-418 -690 0
-419 -691 0
-420 -692 0
-601 -2977 0
-602 -2978 0
-603 -2979 0
-604 -2980 0
-665 -3369 0
-666 -3370 0
-667 -3371 0
-668 -3372 0
-925 -1357 0
-926 -1358 0
-927 -1359 0
-928 -1360 0
-1057 -2417 0
-1058 -2418 0
-1059 -2419 0
-1060 -2420 0
-1093 -1141 0
-1094 -1142 0
-1095 -1143 0
-1096 -1144 0
-1117 -1521 0
-1118 -1522 0
-1119 -1523 0
-1120 -1524 0
-1161 -2305 0
-1162 -2306 0
-1163 -2307 0
-1164 -2308 0
-1169 -2857 0
-1170 -2858 0
-1171 -2859 0
-1172 -2860 0
-1253 -3169 0
-1254 -3170 0
-1255 -3171 0
-1256 -3172 0
-1341 -1877 0
-1342 -1878 0
-1343 -1879 0
-1344 -1880 0
-1369 -2885 0
-1370 -2886 0
-1371 -2887 0
-1372 -2888 0
-1609 -1845 0
-1610 -1846 0
-1611 -1847 0
-1612 -1848 0
-1689 -2025 0
-1690 -2026 0
-1691 -2027 0
-1692 -2028 0
-1853 -2445 0
-1854 -2446 0
-1855 -2447 0
-1856 -2448 0
-1869 -2577 0
-1870 -2578 0
-1871 -2579 0
-1872 -2580 0
-1909 -3001 0
-1910 -3002 0
-1911 -3003 0
-1912 -3004 0
-2029 -3385 0
-2030 -3386 0
-2031 -3387 0
-2032 -3388 0
-2097 -2945 0
-2098 -2946 0
-2099 -2947 0
-2100 -2948 0
-2169 -2337 0
-2170 -2338 0
-2171 -2339 0
-2172 -2340 0
-2325 -2513 0
-2326 -2514 0
-2327 -2515 0
-2328 -2516 0
-2429 -2721 0
-2430 -2722 0
-2431 -2723 0
-2432 -2724 0
-2589 -3097 0
-2590 -3098 0
-2591 -3099 0
-2592 -3100 0
-2641 -2901 0
-2642 -2902 0
-2643 -2903 0
-2644 -2904 0
-2949 -3057 0
-2950 -3058 0
-2951 -3059 0
-2952 -3060 0
-3041 -3357 0
-3042 -3358 0
-3043 -3359 0
-3044 -3360 0
-13 -1965 0
-14 -1966 0
-15 -1967 0
-16 -1968 0
-25 -809 0
-26 -810 0
-27 -811 0
-28 -812 0
-37 -2697 0
-38 -2698 0
-39 -2699 0
-40 -2700 0
-89 -3289 0
-90 -3290 0
-91 -3291 0
-92 -3292 0
-109 -1621 0
-110 -1622 0
-111 -1623 0
-112 -1624 0
-153 -253 0
-154 -254 0
-155 -255 0
-156 -256 0
-197 -441 0
-198 -442 0
-199 -443 0
-200 -444 0
-217 -3253 0
-218 -3254 0
-219 -3255 0
-220 -3256 0
-245 -333 0
-246 -334 0
-247 -335 0
-248 -336 0
-397 -2449 0
-398 -2450 0
-399 -2451 0
-400 -2452 0
-589 -3217 0
-590 -3218 0
-591 -3219 0
-592 -3220 0
-689 -889 0
-690 -890 0
-691 -891 0
-692 -892 0
-857 -1553 0
-858 -1554 0
-859 -1555 0
-860 -1556 0
-985 -2813 0
-986 -2814 0
-987 -2815 0
-988 -2816 0
-989 -1597 0
-990 -1598 0
-991 -1599 0
-992 -1600 0
-1029 -3033 0
-1030 -3034 0
-1031 -3035 0
-1032 -3036 0
-1085 -1769 0
-1086 -1770 0
-1087 -1771 0
-1088 -1772 0
-1097 -1373 0
-1098 -1374 0
-1099 -1375 0
-1100 -1376 0
-1133 -2841 0
-1134 -2842 0
-1135 -2843 0
-1136 -2844 0
-1413 -1609 0
-1414 -1610 0
-1415 -1611 0
-1416 -1612 0
-1501 -2645 0
-1502 -2646 0
-1503 -2647 0
-1504 -2648 0
-1569 -1629 0
-1570 -1630 0
-1571 -1631 0
-1572 -1632 0
-1585 -1773 0
-1586 -1774 0
-1587 -1775 0
-1588 -1776 0
-1645 -2461 0
-1646 -2462 0
-1647 -2463 0
-1648 -2464 0
-2037 -2493 0
-2038 -2494 0
-2039 -2495 0
-2040 -2496 0
-2205 -2837 0
-2206 -2838 0
-2207 -2839 0
-2208 -2840 0
-2561 -2597 0
-2562 -2598 0
-2563 -2599 0
-2564 -2600 0
-2657 -3149 0
-2658 -3150 0
-2659 -3151 0
-2660 -3152 0
-1 -529 0
-2 -530 0
-3 -531 0
-4 -532 0
-9 -1073 0
-10 -1074 0
-11 -1075 0
-12 -1076 0
-13 -833 0
-14 -834 0
-15 -835 0
-16 -836 0
-25 -2521 0
-26 -2522 0
-27 -2523 0
-28 -2524 0
-29 -685 0
-30 -686 0
-31 -687 0
-32 -688 0
-37 -645 0
-38 -646 0
-39 -647 0
-40 -648 0
-41 -133 0
-42 -134 0
-43 -135 0
-44 -136 0
-85 -761 0
-86 -762 0
-87 -763 0
-88 -764 0
-93 -2761 0
-94 -2762 0
-95 -2763 0
-96 -2764 0
-97 -497 0
-98 -498 0
-99 -499 0
-100 -500 0
-101 -609 0
-102 -610 0
-103 -611 0
-104 -612 0
-105 -757 0
-106 -758 0
-107 -759 0
-108 -760 0
-125 -2877 0
-126 -2878 0
-127 -2879 0
-128 -2880 0
-193 -897 0
-194 -898 0
-195 -899 0
-196 -900 0
-197 -2845 0
-198 -2846 0
-199 -2847 0
-200 -2848 0
-209 -1153 0
-210 -1154 0
-211 -1155 0
-212 -1156 0
-217 -513 0
-218 -514 0
-219 -515 0
-220 -516 0
-221 -725 0
-222 -726 0
-223 -727 0
-224 -728 0
-245 -1421 0
-246 -1422 0
-247 -1423 0
-248 -1424 0
-273 -813 0
-274 -814 0
-275 -815 0
-276 -816 0
-289 -2149 0
-290 -2150 0
-291 -2151 0
-292 -2152 0
-325 -425 0
-326 -426 0
-327 -427 0
-328 -428 0
-345 -1125 0
-346 -1126 0
-347 -1127 0
-348 -1128 0
-353 -433 0
-354 -434 0
-355 -435 0
-356 -436 0
-357 -501 0
-358 -502 0
-359 -503 0
-360 -504 0
-441 -2501 0
-442 -2502 0
-443 -2503 0
-444 -2504 0
-445 -697 0
-446 -698 0
-447 -699 0
-448 -700 0
-453 -945 0
-454 -946 0
-455 -947 0
-456 -948 0
-457 -593 0
-458 -594 0
-459 -595 0
-460 -596 0
-521 -1441 0
-522 -1442 0
-523 -1443 0
-524 -1444 0
-525 -1865 0
-526 -1866 0
-527 -1867 0
-528 -1868 0
-533 -3269 0
-534 -3270 0
-535 -3271 0
-536 -3272 0
-545 -1209 0
-546 -1210 0
-547 -1211 0
-548 -1212 0
-577 -705 0
-578 -706 0
-579 -707 0
-580 -708 0
-581 -793 0
-582 -794 0
-583 -795 0
-584 -796 0
-621 -1213 0
-622 -1214 0
-623 -1215 0
-624 -1216 0
-641 -921 0
-642 -922 0
-643 -923 0
-644 -924 0
-745 -2745 0
-746 -2746 0
-747 -2747 0
-748 -2748 0
-777 -1821 0
-778 -1822 0
-779 -1823 0
-780 -1824 0
-905 -2677 0
-906 -2678 0
-907 -2679 0
-908 -2680 0
-937 -1237 0
-938 -1238 0
-939 -1239 0
-940 -1240 0
-997 -1677 0
-998 -1678 0
-999 -1679 0
-1000 -1680 0
-1029 -3233 0
-1030 -3234 0
-1031 -3235 0
-1032 -3236 0
-1109 -1293 0
-1110 -1294 0
-1111 -1295 0
-1112 -1296 0
-1145 -1549 0
-1146 -1550 0
-1147 -1551 0
-1148 -1552 0
-1165 -3109 0
-1166 -3110 0
-1167 -3111 0
-1168 -3112 0
-1185 -2021 0
-1186 -2022 0
-1187 -2023 0
-1188 -2024 0
-1193 -2953 0
-1194 -2954 0
-1195 -2955 0
-1196 -2956 0
-1377 -2337 0
-1378 -2338 0
-1379 -2339 0
-1380 -2340 0
-1381 -3317 0
-1382 -3318 0
-1383 -3319 0
-1384 -3320 0
-1393 -3349 0
-1394 -3350 0
-1395 -3351 0
-1396 -3352 0
-1405 -1881 0
-1406 -1882 0
-1407 -1883 0
-1408 -1884 0
-1445 -2321 0
-1446 -2322 0
-1447 -2323 0
-1448 -2324 0
-1505 -1569 0
-1506 -1570 0
-1507 -1571 0
-1508 -1572 0
-1605 -3313 0
-1606 -3314 0
-1607 -3315 0
-1608 -3316 0
-1673 -1837 0
-1674 -1838 0
-1675 -1839 0
-1676 -1840 0
-1757 -2429 0
-1758 -2430 0
-1759 -2431 0
-1760 -2432 0
-1849 -2377 0
-1850 -2378 0
-1851 -2379 0
-1852 -2380 0
-1929 -2261 0
-1930 -2262 0
-1931 -2263 0
-1932 -2264 0
-1937 -2821 0
-1938 -2822 0
-1939 -2823 0
-1940 -2824 0
-1941 -2293 0
-1942 -2294 0
-1943 -2295 0
-1944 -2296 0
-1969 -2593 0
-1970 -2594 0
-1971 -2595 0
-1972 -2596 0
-1997 -2873 0
-1998 -2874 0
-1999 -2875 0
-2000 -2876 0
-2053 -3225 0
-2054 -3226 0
-2055 -3227 0
-2056 -3228 0
-2353 -2417 0
-2354 -2418 0
-2355 -2419 0
-2356 -2420 0
-2545 -3237 0
-2546 -3238 0
-2547 -3239 0
-2548 -3240 0
-2829 -3325 0
-2830 -3326 0
-2831 -3327 0
-2832 -3328 0
-2865 -3401 0
-2866 -3402 0
-2867 -3403 0
-2868 -3404 0
-5 -17 0
-6 -18 0
-7 -19 0
-8 -20 0
-9 -1145 0
-10 -1146 0
-11 -1147 0
-12 -1148 0
-13 -957 0
-14 -958 0
-15 -959 0
-16 -960 0
-33 -1169 0
-34 -1170 0
-35 -1171 0
-36 -1172 0
-65 -337 0
-66 -338 0
-67 -339 0
-68 -340 0
-85 -101 0
-86 -102 0
-87 -103 0
-88 -104 0
-93 -2857 0
-94 -2858 0
-95 -2859 0
-96 -2860 0
-97 -221 0
-98 -222 0
-99 -223 0
-100 -224 0
-113 -213 0
-114 -214 0
-115 -215 0
-116 -216 0
-125 -1345 0
-126 -1346 0
-127 -1347 0
-128 -1348 0
-145 -1189 0
-146 -1190 0
-147 -1191 0
-148 -1192 0
-149 -1889 0
-150 -1890 0
-151 -1891 0
-152 -1892 0
-177 -549 0
-178 -550 0
-179 -551 0
-180 -552 0
-193 -1869 0
-194 -1870 0
-195 -1871 0
-196 -1872 0
-197 -1165 0
-198 -1166 0
-199 -1167 0
-200 -1168 0
-229 -2321 0
-230 -2322 0
-231 -2323 0
-232 -2324 0
-245 -2957 0
-246 -2958 0
-247 -2959 0
-248 -2960 0
-253 -2061 0
-254 -2062 0
-255 -2063 0
-256 -2064 0
-257 -1453 0
-258 -1454 0
-259 -1455 0
-260 -1456 0
-265 -2933 0
-266 -2934 0
-267 -2935 0
-268 -2936 0
-309 -1953 0
-310 -1954 0
-311 -1955 0
-312 -1956 0
-333 -673 0
-334 -674 0
-335 -675 0
-336 -676 0
-365 -2225 0
-366 -2226 0
-367 -2227 0
-368 -2228 0
-437 -3285 0
-438 -3286 0
-439 -3287 0
-440 -3288 0
-441 -525 0
-442 -526 0
-443 -527 0
-444 -528 0
-445 -801 0
-446 -802 0
-447 -803 0
-448 -804 0
-497 -725 0
-498 -726 0
-499 -727 0
-500 -728 0
-509 -3085 0
-510 -3086 0
-511 -3087 0
-512 -3088 0
-565 -1521 0
-566 -1522 0
-567 -1523 0
-568 -1524 0
-581 -2577 0
-582 -2578 0
-583 -2579 0
-584 -2580 0
-665 -1113 0
-666 -1114 0
-667 -1115 0
-668 -1116 0
-697 -749 0
-698 -750 0
-699 -751 0
-700 -752 0
-785 -1717 0
-786 -1718 0
-787 -1719 0
-788 -1720 0
-857 -1097 0
-858 -1098 0
-859 -1099 0
-860 -1100 0
-885 -2513 0
-886 -2514 0
-887 -2515 0
-888 -2516 0
-901 -2889 0
-902 -2890 0
-903 -2891 0
-904 -2892 0
-913 -2445 0
-914 -2446 0
-915 -2447 0
-916 -2448 0
-929 -1117 0
-930 -1118 0
-931 -1119 0
-932 -1120 0
-993 -3073 0
-994 -3074 0
-995 -3075 0
-996 -3076 0
-1073 -1549 0
-1074 -1550 0
-1075 -1551 0
-1076 -1552 0
-1205 -3017 0
-1206 -3018 0
-1207 -3019 0
-1208 -3020 0
-1249 -2777 0
-1250 -2778 0
-1251 -2779 0
-1252 -2780 0
-1293 -2497 0
-1294 -2498 0
-1295 -2499 0
-1296 -2500 0
-1317 -2117 0
-1318 -2118 0
-1319 -2119 0
-1320 -2120 0
-1349 -1525 0
-1350 -1526 0
-1351 -1527 0
-1352 -1528 0
-1369 -2161 0
-1370 -2162 0
-1371 -2163 0
-1372 -2164 0
-1385 -2289 0
-1386 -2290 0
-1387 -2291 0
-1388 -2292 0
-1401 -1445 0
-1402 -1446 0
-1403 -1447 0
-1404 -1448 0
-1473 -1625 0
-1474 -1626 0
-1475 -1627 0
-1476 -1628 0
-1569 -2833 0
-1570 -2834 0
-1571 -2835 0
-1572 -2836 0
-1589 -2729 0
-1590 -2730 0
-1591 -2731 0
-1592 -2732 0
-1629 -1753 0
-1630 -1754 0
-1631 -1755 0
-1632 -1756 0
-1857 -2113 0
-1858 -2114 0
-1859 -2115 0
-1860 -2116 0
-2017 -2913 0
-2018 -2914 0
-2019 -2915 0
-2020 -2916 0
-2037 -2325 0
-2038 -2326 0
-2039 -2327 0
-2040 -2328 0
-2089 -2517 0
-2090 -2518 0
-2091 -2519 0
-2092 -2520 0
-2197 -2965 0
-2198 -2966 0
-2199 -2967 0
-2200 -2968 0
-2317 -2373 0
-2318 -2374 0
-2319 -2375 0
-2320 -2376 0
-2385 -3013 0
-2386 -3014 0
-2387 -3015 0
-2388 -3016 0
-2421 -2981 0
-2422 -2982 0
-2423 -2983 0
-2424 -2984 0
-2845 -3109 0
-2846 -3110 0
-2847 -3111 0
-2848 -3112 0
-89 -129 0
-90 -130 0
-91 -131 0
-92 -132 0
-137 -3053 0
-138 -3054 0
-139 -3055 0
-140 -3056 0
-241 -953 0
-242 -954 0
-243 -955 0
-244 -956 0
-313 -1093 0
-314 -1094 0
-315 -1095 0
-316 -1096 0
-341 -2405 0
-342 -2406 0
-343 -2407 0
-344 -2408 0
-381 -2633 0
-382 -2634 0
-383 -2635 0
-384 -2636 0
-485 -1285 0
-486 -1286 0
-487 -1287 0
-488 -1288 0
-513 -949 0
-514 -950 0
-515 -951 0
-516 -952 0
-517 -2565 0
-518 -2566 0
-519 -2567 0
-520 -2568 0
-569 -1477 0
-570 -1478 0
-571 -1479 0
-572 -1480 0
-585 -1121 0
-586 -1122 0
-587 -1123 0
-588 -1124 0
-589 -649 0
-590 -650 0
-591 -651 0
-592 -652 0
-625 -669 0
-626 -670 0
-627 -671 0
-628 -672 0
-637 -3373 0
-638 -3374 0
-639 -3375 0
-640 -3376 0
-833 -933 0
-834 -934 0
-835 -935 0
-836 -936 0
-905 -1781 0
-906 -1782 0
-907 -1783 0
-908 -1784 0
-925 -1609 0
-926 -1610 0
-927 -1611 0
-928 -1612 0
-973 -2233 0
-974 -2234 0
-975 -2235 0
-976 -2236 0
-1005 -1397 0
-1006 -1398 0
-1007 -1399 0
-1008 -1400 0
-1073 -2449 0
-1074 -2450 0
-1075 -2451 0
-1076 -2452 0
-1185 -1401 0
-1186 -1402 0
-1187 -1403 0
-1188 -1404 0
-1321 -2477 0
-1322 -2478 0
-1323 -2479 0
-1324 -2480 0
-1325 -1469 0
-1326 -1470 0
-1327 -1471 0
-1328 -1472 0
-1329 -1653 0
-1330 -1654 0
-1331 -1655 0
-1332 -1656 0
-1357 -1845 0
-1358 -1846 0
-1359 -1847 0
-1360 -1848 0
-1493 -2013 0
-1494 -2014 0
-1495 -2015 0
-1496 -2016 0
-1501 -2285 0
-1502 -2286 0
-1503 -2287 0
-1504 -2288 0
-1661 -1753 0
-1662 -1754 0
-1663 -1755 0
-1664 -1756 0
-1745 -2961 0
-1746 -2962 0
-1747 -2963 0
-1748 -2964 0
-1805 -3301 0
-1806 -3302 0
-1807 -3303 0
-1808 -3304 0
-1873 -2029 0
-1874 -2030 0
-1875 -2031 0
-1876 -2032 0
-1997 -2789 0
-1998 -2790 0
-1999 -2791 0
-2000 -2792 0
-2033 -3137 0
-2034 -3138 0
-2035 -3139 0
-2036 -3140 0
-2137 -3257 0
-2138 -3258 0
-2139 -3259 0
-2140 -3260 0
-2441 -2813 0
-2442 -2814 0
-2443 -2815 0
-2444 -2816 0
-3105 -3261 0
-3106 -3262 0
-3107 -3263 0
-3108 -3264 0
-1 -1969 0
-2 -1970 0
-3 -1971 0
-4 -1972 0
-13 -297 0
-14 -298 0
-15 -299 0
-16 -300 0
-25 -137 0
-26 -138 0
-27 -139 0
-28 -140 0
-37 -2541 0
-38 -2542 0
-39 -2543 0
-40 -2544 0
-45 -141 0
-46 -142 0
-47 -143 0
-48 -144 0
-73 -349 0
-74 -350 0
-75 -351 0
-76 -352 0
-105 -3133 0
-106 -3134 0
-107 -3135 0
-108 -3136 0
-153 -3129 0
-154 -3130 0
-155 -3131 0
-156 -3132 0
-177 -2709 0
-178 -2710 0
-179 -2711 0
-180 -2712 0
-249 -1761 0
-250 -1762 0
-251 -1763 0
-252 -1764 0
-405 -2601 0
-406 -2602 0
-407 -2603 0
-408 -2604 0
-465 -3153 0
-466 -3154 0
-467 -3155 0
-468 -3156 0
-529 -2593 0
-530 -2594 0
-531 -2595 0
-532 -2596 0
-553 -3045 0
-554 -3046 0
-555 -3047 0
-556 -3048 0
-637 -2549 0
-638 -2550 0
-639 -2551 0
-640 -2552 0
-905 -2137 0
-906 -2138 0
-907 -2139 0
-908 -2140 0
-941 -2289 0
-942 -2290 0
-943 -2291 0
-944 -2292 0
-965 -2809 0
-966 -2810 0
-967 -2811 0
-968 -2812 0
-1049 -1817 0
-1050 -1818 0
-1051 -1819 0
-1052 -1820 0
-1081 -2141 0
-1082 -2142 0
-1083 -2143 0
-1084 -2144 0
-1105 -1173 0
-1106 -1174 0
-1107 -1175 0
-1108 -1176 0
-1129 -2121 0
-1130 -2122 0
-1131 -2123 0
-1132 -2124 0
-1193 -2545 0
-1194 -2546 0
-1195 -2547 0
-1196 -2548 0
-1213 -3269 0
-1214 -3270 0
-1215 -3271 0
-1216 -3272 0
-1253 -1385 0
-1254 -1386 0
-1255 -1387 0
-1256 -1388 0
-1269 -2277 0
-1270 -2278 0
-1271 -2279 0
-1272 -2280 0
-1733 -2897 0
-1734 -2898 0
-1735 -2899 0
-1736 -2900 0
-1781 -3257 0
-1782 -3258 0
-1783 -3259 0
-1784 -3260 0
-1909 -2581 0
-1910 -2582 0
-1911 -2583 0
-1912 -2584 0
-2049 -3265 0
-2050 -3266 0
-2051 -3267 0
-2052 -3268 0
-2089 -3277 0
-2090 -3278 0
-2091 -3279 0
-2092 -3280 0
-2177 -2653 0
-2178 -2654 0
-2179 -2655 0
-2180 -2656 0
-2441 -3037 0
-2442 -3038 0
-2443 -3039 0
-2444 -3040 0
-2509 -2969 0
-2510 -2970 0
-2511 -2971 0
-2512 -2972 0
-2517 -2929 0
-2518 -2930 0
-2519 -2931 0
-2520 -2932 0
-2701 -3325 0
-2702 -3326 0
-2703 -3327 0
-2704 -3328 0
-2953 -3237 0
-2954 -3238 0
-2955 -3239 0
-2956 -3240 0
-37 -201 0
-38 -202 0
-39 -203 0
-40 -204 0
-41 -525 0
-42 -526 0
-43 -527 0
-44 -528 0
-85 -145 0
-86 -146 0
-87 -147 0
-88 -148 0
-97 -1769 0
-98 -1770 0
-99 -1771 0
-100 -1772 0
-101 -1189 0
-102 -1190 0
-103 -1191 0
-104 -1192 0
-133 -1865 0
-134 -1866 0
-135 -1867 0
-136 -1868 0
-149 -825 0
-150 -826 0
-151 -827 0
-152 -828 0
-153 -789 0
-154 -790 0
-155 -791 0
-156 -792 0
-173 -1649 0
-174 -1650 0
-175 -1651 0
-176 -1652 0
-193 -1773 0
-194 -1774 0
-195 -1775 0
-196 -1776 0
-217 -469 0
-218 -470 0
-219 -471 0
-220 -472 0
-241 -1257 0
-242 -1258 0
-243 -1259 0
-244 -1260 0
-245 -289 0
-246 -290 0
-247 -291 0
-248 -292 0
-277 -653 0
-278 -654 0
-279 -655 0
-280 -656 0
-285 -2721 0
-286 -2722 0
-287 -2723 0
-288 -2724 0
-309 -809 0
-310 -810 0
-311 -811 0
-312 -812 0
-317 -681 0
-318 -682 0
-319 -683 0
-320 -684 0
-321 -2161 0
-322 -2162 0
-323 -2163 0
-324 -2164 0
-397 -433 0
-398 -434 0
-399 -435 0
-400 -436 0
-413 -2061 0
-414 -2062 0
-415 -2063 0
-416 -2064 0
-425 -1153 0
-426 -1154 0
-427 -1155 0
-428 -1156 0
-449 -693 0
-450 -694 0
-451 -695 0
-452 -696 0
-461 -1237 0
-462 -1238 0
-463 -1239 0
-464 -1240 0
-489 -893 0
-490 -894 0
-491 -895 0
-492 -896 0
-505 -1489 0
-506 -1490 0
-507 -1491 0
-508 -1492 0
-521 -777 0
-522 -778 0
-523 -779 0
-524 -780 0
-545 -641 0
-546 -642 0
-547 -643 0
-548 -644 0
-637 -701 0
-638 -702 0
-639 -703 0
-640 -704 0
-657 -2429 0
-658 -2430 0
-659 -2431 0
-660 -2432 0
-817 -1377 0
-818 -1378 0
-819 -1379 0
-820 -1380 0
-985 -1681 0
-986 -1682 0
-987 -1683 0
-988 -1684 0
-1017 -1369 0
-1018 -1370 0
-1019 -1371 0
-1020 -1372 0
-1029 -1381 0
-1030 -1382 0
-1031 -1383 0
-1032 -1384 0
-1061 -1337 0
-1062 -1338 0
-1063 -1339 0
-1064 -1340 0
-1197 -3225 0
-1198 -3226 0
-1199 -3227 0
-1200 -3228 0
-1205 -1849 0
-1206 -1850 0
-1207 -1851 0
-1208 -1852 0
-1341 -2757 0
-1342 -2758 0
-1343 -2759 0
-1344 -2760 0
-1349 -2245 0
-1350 -2246 0
-1351 -2247 0
-1352 -2248 0
-1421 -2149 0
-1422 -2150 0
-1423 -2151 0
-1424 -2152 0
-1425 -1757 0
-1426 -1758 0
-1427 -1759 0
-1428 -1760 0
-1441 -1821 0
-1442 -1822 0
-1443 -1823 0
-1444 -1824 0
-1457 -2309 0
-1458 -2310 0
-1459 -2311 0
-1460 -2312 0
-1473 -3289 0
-1474 -3290 0
-1475 -3291 0
-1476 -3292 0
-1505 -2353 0
-1506 -2354 0
-1507 -2355 0
-1508 -2356 0
-1557 -1789 0
-1558 -1790 0
-1559 -1791 0
-1560 -1792 0
-1569 -2417 0
-1570 -2418 0
-1571 -2419 0
-1572 -2420 0
-1677 -2501 0
-1678 -2502 0
-1679 -2503 0
-1680 -2504 0
-1765 -1961 0
-1766 -1962 0
-1767 -1963 0
-1768 -1964 0
-1781 -2105 0
-1782 -2106 0
-1783 -2107 0
-1784 -2108 0
-1905 -1949 0
-1906 -1950 0
-1907 -1951 0
-1908 -1952 0
-1997 -3145 0
-1998 -3146 0
-1999 -3147 0
-2000 -3148 0
-2201 -2437 0
-2202 -2438 0
-2203 -2439 0
-2204 -2440 0
-2317 -3061 0
-2318 -3062 0
-2319 -3063 0
-2320 -3064 0
-2381 -3181 0
-2382 -3182 0
-2383 -3183 0
-2384 -3184 0
-2445 -2857 0
-2446 -2858 0
-2447 -2859 0
-2448 -2860 0
-2481 -2909 0
-2482 -2910 0
-2483 -2911 0
-2484 -2912 0
-2753 -3329 0
-2754 -3330 0
-2755 -3331 0
-2756 -3332 0
-3233 -3317 0
-3234 -3318 0
-3235 -3319 0
-3236 -3320 0
-13 -2869 0
-14 -2870 0
-15 -2871 0
-16 -2872 0
-25 -1105 0
-26 -1106 0
-27 -1107 0
-28 -1108 0
-61 -1669 0
-62 -1670 0
-63 -1671 0
-64 -1672 0
-65 -81 0
-66 -82 0
-67 -83 0
-68 -84 0
-85 -537 0
-86 -538 0
-87 -539 0
-88 -540 0
-101 -413 0
-102 -414 0
-103 -415 0
-104 -416 0
-105 -1497 0
-106 -1498 0
-107 -1499 0
-108 -1500 0
-137 -1173 0
-138 -1174 0
-139 -1175 0
-140 -1176 0
-145 -253 0
-146 -254 0
-147 -255 0
-148 -256 0
-149 -153 0
-150 -154 0
-151 -155 0
-152 -156 0
-197 -1641 0
-198 -1642 0
-199 -1643 0
-200 -1644 0
-209 -3329 0
-210 -3330 0
-211 -3331 0
-212 -3332 0
-241 -2201 0
-242 -2202 0
-243 -2203 0
-244 -2204 0
-245 -817 0
-246 -818 0
-247 -819 0
-248 -820 0
-249 -465 0
-250 -466 0
-251 -467 0
-252 -468 0
-265 -429 0
-266 -430 0
-267 -431 0
-268 -432 0
-277 -317 0
-278 -318 0
-279 -319 0
-280 -320 0
-281 -677 0
-282 -678 0
-283 -679 0
-284 -680 0
-289 -1377 0
-290 -1378 0
-291 -1379 0
-292 -1380 0
-297 -2333 0
-298 -2334 0
-299 -2335 0
-300 -2336 0
-325 -2753 0
-326 -2754 0
-327 -2755 0
-328 -2756 0
-345 -601 0
-346 -602 0
-347 -603 0
-348 -604 0
-357 -2817 0
-358 -2818 0
-359 -2819 0
-360 -2820 0
-389 -3265 0
-390 -3266 0
-391 -3267 0
-392 -3268 0
-485 -569 0
-486 -570 0
-487 -571 0
-488 -572 0
-505 -1557 0
-506 -1558 0
-507 -1559 0
-508 -1560 0
-513 -645 0
-514 -646 0
-515 -647 0
-516 -648 0
-557 -581 0
-558 -582 0
-559 -583 0
-560 -584 0
-617 -2977 0
-618 -2978 0
-619 -2979 0
-620 -2980 0
-637 -2985 0
-638 -2986 0
-639 -2987 0
-640 -2988 0
-653 -681 0
-654 -682 0
-655 -683 0
-656 -684 0
-689 -2049 0
-690 -2050 0
-691 -2051 0
-692 -2052 0
-741 -1373 0
-742 -1374 0
-743 -1375 0
-744 -1376 0
-781 -917 0
-782 -918 0
-783 -919 0
-784 -920 0
-821 -1149 0
-822 -1150 0
-823 -1151 0
-824 -1152 0
-877 -2285 0
-878 -2286 0
-879 -2287 0
-880 -2288 0
-953 -1901 0
-954 -1902 0
-955 -1903 0
-956 -1904 0
-1005 -1661 0
-1006 -1662 0
-1007 -1663 0
-1008 -1664 0
-1025 -2557 0
-1026 -2558 0
-1027 -2559 0
-1028 -2560 0
-1041 -2433 0
-1042 -2434 0
-1043 -2435 0
-1044 -2436 0
-1049 -2993 0
-1050 -2994 0
-1051 -2995 0
-1052 -2996 0
-1061 -3405 0
-1062 -3406 0
-1063 -3407 0
-1064 -3408 0
-1101 -1141 0
-1102 -1142 0
-1103 -1143 0
-1104 -1144 0
-1185 -1321 0
-1186 -1322 0
-1187 -1323 0
-1188 -1324 0
-1189 -2061 0
-1190 -2062 0
-1191 -2063 0
-1192 -2064 0
-1205 -1281 0
-1206 -1282 0
-1207 -1283 0
-1208 -1284 0
-1221 -3189 0
-1222 -3190 0
-1223 -3191 0
-1224 -3192 0
-1257 -2437 0
-1258 -2438 0
-1259 -2439 0
-1260 -2440 0
-1285 -1477 0
-1286 -1478 0
-1287 -1479 0
-1288 -1480 0
-1329 -1709 0
-1330 -1710 0
-1331 -1711 0
-1332 -1712 0
-1397 -1753 0
-1398 -1754 0
-1399 -1755 0
-1400 -1756 0
-1401 -2477 0
-1402 -2478 0
-1403 -2479 0
-1404 -2480 0
-1405 -2101 0
-1406 -2102 0
-1407 -2103 0
-1408 -2104 0
-1457 -2317 0
-1458 -2318 0
-1459 -2319 0
-1460 -2320 0
-1461 -1725 0
-1462 -1726 0
-1463 -1727 0
-1464 -1728 0
-1489 -1789 0
-1490 -1790 0
-1491 -1791 0
-1492 -1792 0
-1493 -2033 0
-1494 -2034 0
-1495 -2035 0
-1496 -2036 0
-1517 -2609 0
-1518 -2610 0
-1519 -2611 0
-1520 -2612 0
-1541 -1933 0
-1542 -1934 0
-1543 -1935 0
-1544 -1936 0
-1565 -2705 0
-1566 -2706 0
-1567 -2707 0
-1568 -2708 0
-1593 -2881 0
-1594 -2882 0
-1595 -2883 0
-1596 -2884 0
-1701 -2525 0
-1702 -2526 0
-1703 -2527 0
-1704 -2528 0
-1705 -2341 0
-1706 -2342 0
-1707 -2343 0
-1708 -2344 0
-1741 -2025 0
-1742 -2026 0
-1743 -2027 0
-1744 -2028 0
-1761 -3153 0
-1762 -3154 0
-1763 -3155 0
-1764 -3156 0
-1777 -2585 0
-1778 -2586 0
-1779 -2587 0
-1780 -2588 0
-2009 -2837 0
-2010 -2838 0
-2011 -2839 0
-2012 -2840 0
-2013 -3137 0
-2014 -3138 0
-2015 -3139 0
-2016 -3140 0
-2097 -3165 0
-2098 -3166 0
-2099 -3167 0
-2100 -3168 0
-2121 -2645 0
-2122 -2646 0
-2123 -2647 0
-2124 -2648 0
-2125 -2273 0
-2126 -2274 0
-2127 -2275 0
-2128 -2276 0
-2141 -3365 0
-2142 -3366 0
-2143 -3367 0
-2144 -3368 0
-2149 -2337 0
-2150 -2338 0
-2151 -2339 0
-2152 -2340 0
-2221 -2833 0
-2222 -2834 0
-2223 -2835 0
-2224 -2836 0
-2245 -3225 0
-2246 -3226 0
-2247 -3227 0
-2248 -3228 0
-2253 -2529 0
-2254 -2530 0
-2255 -2531 0
-2256 -2532 0
-2309 -3061 0
-2310 -3062 0
-2311 -3063 0
-2312 -3064 0
-2685 -2885 0
-2686 -2886 0
-2687 -2887 0
-2688 -2888 0
-2893 -3065 0
-2894 -3066 0
-2895 -3067 0
-2896 -3068 0
-2925 -3005 0
-2926 -3006 0
-2927 -3007 0
-2928 -3008 0
-3009 -3273 0
-3010 -3274 0
-3011 -3275 0
-3012 -3276 0
-3217 -3289 0
-3218 -3290 0
-3219 -3291 0
-3220 -3292 0
-9 -29 0
-10 -30 0
-11 -31 0
-12 -32 0
-25 -2965 0
-26 -2966 0
-27 -2967 0
-28 -2968 0
-37 -2445 0
-38 -2446 0
-39 -2447 0
-40 -2448 0
-145 -3361 0
-146 -3362 0
-147 -3363 0
-148 -3364 0
-153 -1877 0
-154 -1878 0
-155 -1879 0
-156 -1880 0
-201 -2857 0
-202 -2858 0
-203 -2859 0
-204 -2860 0
-233 -837 0
-234 -838 0
-235 -839 0
-236 -840 0
-249 -2321 0
-250 -2322 0
-251 -2323 0
-252 -2324 0
-341 -2249 0
-342 -2250 0
-343 -2251 0
-344 -2252 0
-393 -1445 0
-394 -1446 0
-395 -1447 0
-396 -1448 0
-469 -3085 0
-470 -3086 0
-471 -3087 0
-472 -3088 0
-489 -1341 0
-490 -1342 0
-491 -1343 0
-492 -1344 0
-577 -2933 0
-578 -2934 0
-579 -2935 0
-580 -2936 0
-621 -1453 0
-622 -1454 0
-623 -1455 0
-624 -1456 0
-637 -1853 0
-638 -1854 0
-639 -1855 0
-640 -1856 0
-701 -1169 0
-702 -1170 0
-703 -1171 0
-704 -1172 0
-893 -2757 0
-894 -2758 0
-895 -2759 0
-896 -2760 0
-925 -1537 0
-926 -1538 0
-927 -1539 0
-928 -1540 0
-1041 -1921 0
-1042 -1922 0
-1043 -1923 0
-1044 -1924 0
-1057 -1881 0
-1058 -1882 0
-1059 -1883 0
-1060 -1884 0
-1133 -2277 0
-1134 -2278 0
-1135 -2279 0
-1136 -2280 0
-1353 -2469 0
-1354 -2470 0
-1355 -2471 0
-1356 -2472 0
-1369 -3113 0
-1370 -3114 0
-1371 -3115 0
-1372 -3116 0
-1509 -2797 0
-1510 -2798 0
-1511 -2799 0
-1512 -2800 0
-1777 -3245 0
-1778 -3246 0
-1779 -3247 0
-1780 -3248 0
-1913 -1981 0
-1914 -1982 0
-1915 -1983 0
-1916 -1984 0
-1977 -2213 0
-1978 -2214 0
-1979 -2215 0
-1980 -2216 0
-1997 -2137 0
-1998 -2138 0
-1999 -2139 0
-2000 -2140 0
-2097 -2197 0
-2098 -2198 0
-2099 -2199 0
-2100 -2200 0
-2185 -3285 0
-2186 -3286 0
-2187 -3287 0
-2188 -3288 0
-2425 -3249 0
-2426 -3250 0
-2427 -3251 0
-2428 -3252 0
-2585 -3081 0
-2586 -3082 0
-2587 -3083 0
-2588 -3084 0
-2789 -3257 0
-2790 -3258 0
-2791 -3259 0
-2792 -3260 0
-2893 -3281 0
-2894 -3282 0
-2895 -3283 0
-2896 -3284 0
-1 -105 0
-2 -106 0
-3 -107 0
-4 -108 0
-5 -113 0
-6 -114 0
-7 -115 0
-8 -116 0
-9 -1513 0
-10 -1514 0
-11 -1515 0
-12 -1516 0
-17 -213 0
-18 -214 0
-19 -215 0
-20 -216 0
-29 -633 0
-30 -634 0
-31 -635 0
-32 -636 0
-33 -901 0
-34 -902 0
-35 -903 0
-36 -904 0
-41 -2381 0
-42 -2382 0
-43 -2383 0
-44 -2384 0
-89 -2265 0
-90 -2266 0
-91 -2267 0
-92 -2268 0
-125 -1429 0
-126 -1430 0
-127 -1431 0
-128 -1432 0
-129 -1933 0
-130 -1934 0
-131 -1935 0
-132 -1936 0
-197 -2157 0
-198 -2158 0
-199 -2159 0
-200 -2160 0
-241 -1873 0
-242 -1874 0
-243 -1875 0
-244 -1876 0
-245 -505 0
-246 -506 0
-247 -507 0
-248 -508 0
-261 -1633 0
-262 -1634 0
-263 -1635 0
-264 -1636 0
-265 -365 0
-266 -366 0
-267 -367 0
-268 -368 0
-289 -1489 0
-290 -1490 0
-291 -1491 0
-292 -1492 0
-329 -1153 0
-330 -1154 0
-331 -1155 0
-332 -1156 0
-405 -501 0
-406 -502 0
-407 -503 0
-408 -504 0
-473 -1657 0
-474 -1658 0
-475 -1659 0
-476 -1660 0
-485 -1005 0
-486 -1006 0
-487 -1007 0
-488 -1008 0
-525 -3181 0
-526 -3182 0
-527 -3183 0
-528 -3184 0
-529 -757 0
-530 -758 0
-531 -759 0
-532 -760 0
-569 -1661 0
-570 -1662 0
-571 -1663 0
-572 -1664 0
-641 -2073 0
-642 -2074 0
-643 -2075 0
-644 -2076 0
-649 -1541 0
-650 -1542 0
-651 -1543 0
-652 -1544 0
-669 -3385 0
-670 -3386 0
-671 -3387 0
-672 -3388 0
-817 -1557 0
-818 -1558 0
-819 -1559 0
-820 -1560 0
-953 -2029 0
-954 -2030 0
-955 -2031 0
-956 -2032 0
-973 -2661 0
-974 -2662 0
-975 -2663 0
-976 -2664 0
-1169 -2889 0
-1170 -2890 0
-1171 -2891 0
-1172 -2892 0
-1185 -1805 0
-1186 -1806 0
-1187 -1807 0
-1188 -1808 0
-1201 -1665 0
-1202 -1666 0
-1203 -1667 0
-1204 -1668 0
-1241 -2625 0
-1242 -2626 0
-1243 -2627 0
-1244 -2628 0
-1285 -1397 0
-1286 -1398 0
-1287 -1399 0
-1288 -1400 0
-1321 -1357 0
-1322 -1358 0
-1323 -1359 0
-1324 -1360 0
-1329 -2345 0
-1330 -2346 0
-1331 -2347 0
-1332 -2348 0
-1377 -1789 0
-1378 -1790 0
-1379 -1791 0
-1380 -1792 0
-1381 -1681 0
-1382 -1682 0
-1383 -1683 0
-1384 -1684 0
-1401 -3301 0
-1402 -3302 0
-1403 -3303 0
-1404 -3304 0
-1417 -2077 0
-1418 -2078 0
-1419 -2079 0
-1420 -2080 0
-1473 -2357 0
-1474 -2358 0
-1475 -2359 0
-1476 -2360 0
-1477 -1753 0
-1478 -1754 0
-1479 -1755 0
-1480 -1756 0
-1729 -2417 0
-1730 -2418 0
-1731 -2419 0
-1732 -2420 0
-1737 -1917 0
-1738 -1918 0
-1739 -1919 0
-1740 -1920 0
-1893 -2289 0
-1894 -2290 0
-1895 -2291 0
-1896 -2292 0
-1941 -2637 0
-1942 -2638 0
-1943 -2639 0
-1944 -2640 0
-1969 -3133 0
-1970 -3134 0
-1971 -3135 0
-1972 -3136 0
-1985 -3269 0
-1986 -3270 0
-1987 -3271 0
-1988 -3272 0
-2177 -3345 0
-2178 -3346 0
-2179 -3347 0
-2180 -3348 0
-2185 -2737 0
-2186 -2738 0
-2187 -2739 0
-2188 -2740 0
-2365 -2741 0
-2366 -2742 0
-2367 -2743 0
-2368 -2744 0
-2481 -3241 0
-2482 -3242 0
-2483 -3243 0
-2484 -3244 0
-2545 -2809 0
-2546 -2810 0
-2547 -2811 0
-2548 -2812 0
-2573 -3261 0
-2574 -3262 0
-2575 -3263 0
-2576 -3264 0
-2829 -3037 0
-2830 -3038 0
-2831 -3039 0
-2832 -3040 0
-2961 -3053 0
-2962 -3054 0
-2963 -3055 0
-2964 -3056 0
-1 -2257 0
-2 -2258 0
-3 -2259 0
-4 -2260 0
-13 -97 0
-14 -98 0
-15 -99 0
-16 -100 0
-25 -541 0
-26 -542 0
-27 -543 0
-28 -544 0
-37 -3273 0
-38 -3274 0
-39 -3275 0
-40 -3276 0
-105 -1961 0
-106 -1962 0
-107 -1963 0
-108 -1964 0
-149 -2313 0
-150 -2314 0
-151 -2315 0
-152 -2316 0
-217 -3009 0
-218 -3010 0
-219 -3011 0
-220 -3012 0
-281 -2917 0
-282 -2918 0
-283 -2919 0
-284 -2920 0
-293 -601 0
-294 -602 0
-295 -603 0
-296 -604 0
-397 -2409 0
-398 -2410 0
-399 -2411 0
-400 -2412 0
-405 -1689 0
-406 -1690 0
-407 -1691 0
-408 -1692 0
-449 -3137 0
-450 -3138 0
-451 -3139 0
-452 -3140 0
-453 -2801 0
-454 -2802 0
-455 -2803 0
-456 -2804 0
-529 -2169 0
-530 -2170 0
-531 -2171 0
-532 -2172 0
-553 -2705 0
-554 -2706 0
-555 -2707 0
-556 -2708 0
-585 -3237 0
-586 -3238 0
-587 -3239 0
-588 -3240 0
-905 -1013 0
-906 -1014 0
-907 -1015 0
-908 -1016 0
-993 -2005 0
-994 -2006 0
-995 -2007 0
-996 -2008 0
-1009 -2145 0
-1010 -2146 0
-1011 -2147 0
-1012 -2148 0
-1025 -1245 0
-1026 -1246 0
-1027 -1247 0
-1028 -1248 0
-1049 -2065 0
-1050 -2066 0
-1051 -2067 0
-1052 -2068 0
-1081 -2109 0
-1082 -2110 0
-1083 -2111 0
-1084 -2112 0
-1101 -3053 0
-1102 -3054 0
-1103 -3055 0
-1104 -3056 0
-1133 -3277 0
-1134 -3278 0
-1135 -3279 0
-1136 -3280 0
-1137 -2789 0
-1138 -2790 0
-1139 -2791 0
-1140 -2792 0
-1185 -2829 0
-1186 -2830 0
-1187 -2831 0
-1188 -2832 0
-1201 -1473 0
-1202 -1474 0
-1203 -1475 0
-1204 -1476 0
-1269 -1365 0
-1270 -1366 0
-1271 -1367 0
-1272 -1368 0
-1413 -1765 0
-1414 -1766 0
-1415 -1767 0
-1416 -1768 0
-1529 -1565 0
-1530 -1566 0
-1531 -1567 0
-1532 -1568 0
-1533 -2961 0
-1534 -2962 0
-1535 -2963 0
-1536 -2964 0
-1569 -2989 0
-1570 -2990 0
-1571 -2991 0
-1572 -2992 0
-1605 -1997 0
-1606 -1998 0
-1607 -1999 0
-1608 -2000 0
-1645 -2293 0
-1646 -2294 0
-1647 -2295 0
-1648 -2296 0
-1665 -2357 0
-1666 -2358 0
-1667 -2359 0
-1668 -2360 0
-1801 -3029 0
-1802 -3030 0
-1803 -3031 0
-1804 -3032 0
-1805 -3037 0
-1806 -3038 0
-1807 -3039 0
-1808 -3040 0
-1913 -3121 0
-1914 -3122 0
-1915 -3123 0
-1916 -3124 0
-2021 -3325 0
-2022 -3326 0
-2023 -3327 0
-2024 -3328 0
-2049 -2977 0
-2050 -2978 0
-2051 -2979 0
-2052 -2980 0
-2453 -2881 0
-2454 -2882 0
-2455 -2883 0
-2456 -2884 0
-2469 -2709 0
-2470 -2710 0
-2471 -2711 0
-2472 -2712 0
-9 -233 0
-10 -234 0
-11 -235 0
-12 -236 0
-13 -745 0
-14 -746 0
-15 -747 0
-16 -748 0
-21 -3293 0
-22 -3294 0
-23 -3295 0
-24 -3296 0
-29 -837 0
-30 -838 0
-31 -839 0
-32 -840 0
-33 -2421 0
-34 -2422 0
-35 -2423 0
-36 -2424 0
-49 -261 0
-50 -262 0
-51 -263 0
-52 -264 0
-53 -57 0
-54 -58 0
-55 -59 0
-56 -60 0
-69 -305 0
-70 -306 0
-71 -307 0
-72 -308 0
-85 -729 0
-86 -730 0
-87 -731 0
-88 -732 0
-97 -581 0
-98 -582 0
-99 -583 0
-100 -584 0
-125 -129 0
-126 -130 0
-127 -131 0
-128 -132 0
-169 -1141 0
-170 -1142 0
-171 -1143 0
-172 -1144 0
-177 -1437 0
-178 -1438 0
-179 -1439 0
-180 -1440 0
-189 -1181 0
-190 -1182 0
-191 -1183 0
-192 -1184 0
-221 -2577 0
-222 -2578 0
-223 -2579 0
-224 -2580 0
-257 -669 0
-258 -670 0
-259 -671 0
-260 -672 0
-265 -561 0
-266 -562 0
-267 -563 0
-268 -564 0
-285 -3265 0
-286 -3266 0
-287 -3267 0
-288 -3268 0
-309 -1825 0
-310 -1826 0
-311 -1827 0
-312 -1828 0
-321 -1097 0
-322 -1098 0
-323 -1099 0
-324 -1100 0
-365 -389 0
-366 -390 0
-367 -391 0
-368 -392 0
-445 -557 0
-446 -558 0
-447 -559 0
-448 -560 0
-477 -2277 0
-478 -2278 0
-479 -2279 0
-480 -2280 0
-489 -989 0
-490 -990 0
-491 -991 0
-492 -992 0
-497 -793 0
-498 -794 0
-499 -795 0
-500 -796 0
-637 -1265 0
-638 -1266 0
-639 -1267 0
-640 -1268 0
-797 -1069 0
-798 -1070 0
-799 -1071 0
-800 -1072 0
-833 -2745 0
-834 -2746 0
-835 -2747 0
-836 -2748 0
-905 -3005 0
-906 -3006 0
-907 -3007 0
-908 -3008 0
-1013 -2529 0
-1014 -2530 0
-1015 -2531 0
-1016 -2532 0
-1065 -2253 0
-1066 -2254 0
-1067 -2255 0
-1068 -2256 0
-1113 -2321 0
-1114 -2322 0
-1115 -2323 0
-1116 -2324 0
-1169 -2981 0
-1170 -2982 0
-1171 -2983 0
-1172 -2984 0
-1241 -1697 0
-1242 -1698 0
-1243 -1699 0
-1244 -1700 0
-1409 -1885 0
-1410 -1886 0
-1411 -1887 0
-1412 -1888 0
-1429 -1933 0
-1430 -1934 0
-1431 -1935 0
-1432 -1936 0
-1493 -1517 0
-1494 -1518 0
-1495 -1519 0
-1496 -1520 0
-2033 -2609 0
-2034 -2610 0
-2035 -2611 0
-2036 -2612 0
-2081 -3357 0
-2082 -3358 0
-2083 -3359 0
-2084 -3360 0
-2329 -2769 0
-2330 -2770 0
-2331 -2771 0
-2332 -2772 0
-2561 -3013 0
-2562 -3014 0
-2563 -3015 0
-2564 -3016 0
-2581 -2601 0
-2582 -2602 0
-2583 -2603 0
-2584 -2604 0
-2621 -2925 0
-2622 -2926 0
-2623 -2927 0
-2624 -2928 0
-2645 -3153 0
-2646 -3154 0
-2647 -3155 0
-2648 -3156 0
-2829 -2969 0
-2830 -2970 0
-2831 -2971 0
-2832 -2972 0
-13 -553 0
-14 -554 0
-15 -555 0
-16 -556 0
-25 -941 0
-26 -942 0
-27 -943 0
-28 -944 0
-37 -2817 0
-38 -2818 0
-39 -2819 0
-40 -2820 0
-85 -1609 0
-86 -1610 0
-87 -1611 0
-88 -1612 0
-89 -1797 0
-90 -1798 0
-91 -1799 0
-92 -1800 0
-97 -2705 0
-98 -2706 0
-99 -2707 0
-100 -2708 0
-129 -1373 0
-130 -1374 0
-131 -1375 0
-132 -1376 0
-137 -2289 0
-138 -2290 0
-139 -2291 0
-140 -2292 0
-153 -1497 0
-154 -1498 0
-155 -1499 0
-156 -1500 0
-197 -273 0
-198 -274 0
-199 -275 0
-200 -276 0
-217 -357 0
-218 -358 0
-219 -359 0
-220 -360 0
-241 -313 0
-242 -314 0
-243 -315 0
-244 -316 0
-289 -525 0
-290 -526 0
-291 -527 0
-292 -528 0
-297 -3045 0
-298 -3046 0
-299 -3047 0
-300 -3048 0
-317 -413 0
-318 -414 0
-319 -415 0
-320 -416 0
-365 -633 0
-366 -634 0
-367 -635 0
-368 -636 0
-445 -1565 0
-446 -1566 0
-447 -1567 0
-448 -1568 0
-477 -1537 0
-478 -1538 0
-479 -1539 0
-480 -1540 0
-481 -3329 0
-482 -3330 0
-483 -3331 0
-484 -3332 0
-505 -2381 0
-506 -2382 0
-507 -2383 0
-508 -2384 0
-561 -837 0
-562 -838 0
-563 -839 0
-564 -840 0
-577 -1145 0
-578 -1146 0
-579 -1147 0
-580 -1148 0
-617 -1753 0
-618 -1754 0
-619 -1755 0
-620 -1756 0
-625 -2249 0
-626 -2250 0
-627 -2251 0
-628 -2252 0
-641 -777 0
-642 -778 0
-643 -779 0
-644 -780 0
-649 -741 0
-650 -742 0
-651 -743 0
-652 -744 0
-653 -1189 0
-654 -1190 0
-655 -1191 0
-656 -1192 0
-669 -1141 0
-670 -1142 0
-671 -1143 0
-672 -1144 0
-681 -2061 0
-682 -2062 0
-683 -2063 0
-684 -2064 0
-697 -901 0
-698 -902 0
-699 -903 0
-700 -904 0
-705 -1549 0
-706 -1550 0
-707 -1551 0
-708 -1552 0
-737 -1845 0
-738 -1846 0
-739 -1847 0
-740 -1848 0
-749 -2889 0
-750 -2890 0
-751 -2891 0
-752 -2892 0
-849 -2689 0
-850 -2690 0
-851 -2691 0
-852 -2692 0
-853 -1625 0
-854 -1626 0
-855 -1627 0
-856 -1628 0
-913 -2041 0
-914 -2042 0
-915 -2043 0
-916 -2044 0
-921 -1821 0
-922 -1822 0
-923 -1823 0
-924 -1824 0
-953 -1093 0
-954 -1094 0
-955 -1095 0
-956 -1096 0
-1021 -1169 0
-1022 -1170 0
-1023 -1171 0
-1024 -1172 0
-1025 -2741 0
-1026 -2742 0
-1027 -2743 0
-1028 -2744 0
-1045 -1661 0
-1046 -1662 0
-1047 -1663 0
-1048 -1664 0
-1065 -2913 0
-1066 -2914 0
-1067 -2915 0
-1068 -2916 0
-1157 -1261 0
-1158 -1262 0
-1159 -1263 0
-1160 -1264 0
-1205 -1425 0
-1206 -1426 0
-1207 -1427 0
-1208 -1428 0
-1209 -1441 0
-1210 -1442 0
-1211 -1443 0
-1212 -1444 0
-1217 -1397 0
-1218 -1398 0
-1219 -1399 0
-1220 -1400 0
-1249 -1357 0
-1250 -1358 0
-1251 -1359 0
-1252 -1360 0
-1329 -1617 0
-1330 -1618 0
-1331 -1619 0
-1332 -1620 0
-1333 -1953 0
-1334 -1954 0
-1335 -1955 0
-1336 -1956 0
-1349 -2393 0
-1350 -2394 0
-1351 -2395 0
-1352 -2396 0
-1365 -3081 0
-1366 -3082 0
-1367 -3083 0
-1368 -3084 0
-1489 -3181 0
-1490 -3182 0
-1491 -3183 0
-1492 -3184 0
-1741 -1949 0
-1742 -1950 0
-1743 -1951 0
-1744 -1952 0
-1745 -1893 0
-1746 -1894 0
-1747 -1895 0
-1748 -1896 0
-1749 -3049 0
-1750 -3050 0
-1751 -3051 0
-1752 -3052 0
-1809 -2365 0
-1810 -2366 0
-1811 -2367 0
-1812 -2368 0
-1913 -3177 0
-1914 -3178 0
-1915 -3179 0
-1916 -3180 0
-1937 -2093 0
-1938 -2094 0
-1939 -2095 0
-1940 -2096 0
-1941 -2101 0
-1942 -2102 0
-1943 -2103 0
-1944 -2104 0
-2009 -2849 0
-2010 -2850 0
-2011 -2851 0
-2012 -2852 0
-2089 -2585 0
-2090 -2586 0
-2091 -2587 0
-2092 -2588 0
-2205 -2373 0
-2206 -2374 0
-2207 -2375 0
-2208 -2376 0
-2377 -2429 0
-2378 -2430 0
-2379 -2431 0
-2380 -2432 0
-2725 -2797 0
-2726 -2798 0
-2727 -2799 0
-2728 -2800 0
-2945 -3169 0
-2946 -3170 0
-2947 -3171 0
-2948 -3172 0
-3057 -3225 0
-3058 -3226 0
-3059 -3227 0
-3060 -3228 0
-9 -1369 0
-10 -1370 0
-11 -1371 0
-12 -1372 0
-13 -849 0
-14 -850 0
-15 -851 0
-16 -852 0
-25 -1337 0
-26 -1338 0
-27 -1339 0
-28 -1340 0
-29 -3113 0
-30 -3114 0
-31 -3115 0
-32 -3116 0
-37 -153 0
-38 -154 0
-39 -155 0
-40 -156 0
-41 -173 0
-42 -174 0
-43 -175 0
-44 -176 0
-57 -1813 0
-58 -1814 0
-59 -1815 0
-60 -1816 0
-61 -165 0
-62 -166 0
-63 -167 0
-64 -168 0
-65 -1721 0
-66 -1722 0
-67 -1723 0
-68 -1724 0
-85 -385 0
-86 -386 0
-87 -387 0
-88 -388 0
-101 -301 0
-102 -302 0
-103 -303 0
-104 -304 0
-117 -1301 0
-118 -1302 0
-119 -1303 0
-120 -1304 0
-201 -789 0
-202 -790 0
-203 -791 0
-204 -792 0
-233 -845 0
-234 -846 0
-235 -847 0
-236 -848 0
-245 -2653 0
-246 -2654 0
-247 -2655 0
-248 -2656 0
-249 -433 0
-250 -434 0
-251 -435 0
-252 -436 0
-281 -397 0
-282 -398 0
-283 -399 0
-284 -400 0
-325 -401 0
-326 -402 0
-327 -403 0
-328 -404 0
-405 -529 0
-406 -530 0
-407 -531 0
-408 -532 0
-421 -3161 0
-422 -3162 0
-423 -3163 0
-424 -3164 0
-469 -825 0
-470 -826 0
-471 -827 0
-472 -828 0
-473 -2461 0
-474 -2462 0
-475 -2463 0
-476 -2464 0
-485 -1257 0
-486 -1258 0
-487 -1259 0
-488 -1260 0
-501 -757 0
-502 -758 0
-503 -759 0
-504 -760 0
-525 -1649 0
-526 -1650 0
-527 -1651 0
-528 -1652 0
-553 -2689 0
-554 -2690 0
-555 -2691 0
-556 -2692 0
-569 -2437 0
-570 -2438 0
-571 -2439 0
-572 -2440 0
-629 -813 0
-630 -814 0
-631 -815 0
-632 -816 0
-673 -881 0
-674 -882 0
-675 -883 0
-676 -884 0
-701 -893 0
-702 -894 0
-703 -895 0
-704 -896 0
-721 -2173 0
-722 -2174 0
-723 -2175 0
-724 -2176 0
-765 -865 0
-766 -866 0
-767 -867 0
-768 -868 0
-781 -2685 0
-782 -2686 0
-783 -2687 0
-784 -2688 0
-853 -1985 0
-854 -1986 0
-855 -1987 0
-856 -1988 0
-917 -2885 0
-918 -2886 0
-919 -2887 0
-920 -2888 0
-965 -2153 0
-966 -2154 0
-967 -2155 0
-968 -2156 0
-985 -3345 0
-986 -3346 0
-987 -3347 0
-988 -3348 0
-1029 -2177 0
-1030 -2178 0
-1031 -2179 0
-1032 -2180 0
-1049 -1061 0
-1050 -1062 0
-1051 -1063 0
-1052 -1064 0
-1133 -2845 0
-1134 -2846 0
-1135 -2847 0
-1136 -2848 0
-1145 -2161 0
-1146 -2162 0
-1147 -2163 0
-1148 -2164 0
-1169 -2757 0
-1170 -2758 0
-1171 -2759 0
-1172 -2760 0
-1193 -3077 0
-1194 -3078 0
-1195 -3079 0
-1196 -3080 0
-1269 -1645 0
-1270 -1646 0
-1271 -1647 0
-1272 -1648 0
-1357 -1793 0
-1358 -1794 0
-1359 -1795 0
-1360 -1796 0
-1365 -2293 0
-1366 -2294 0
-1367 -2295 0
-1368 -2296 0
-1401 -2633 0
-1402 -2634 0
-1403 -2635 0
-1404 -2636 0
-1473 -2005 0
-1474 -2006 0
-1475 -2007 0
-1476 -2008 0
-1493 -1945 0
-1494 -1946 0
-1495 -1947 0
-1496 -1948 0
-1517 -1585 0
-1518 -1586 0
-1519 -1587 0
-1520 -1588 0
-1625 -1725 0
-1626 -1726 0
-1627 -1727 0
-1628 -1728 0
-1661 -2297 0
-1662 -2298 0
-1663 -2299 0
-1664 -2300 0
-1689 -2169 0
-1690 -2170 0
-1691 -2171 0
-1692 -2172 0
-1713 -2105 0
-1714 -2106 0
-1715 -2107 0
-1716 -2108 0
-1741 -2149 0
-1742 -2150 0
-1743 -2151 0
-1744 -2152 0
-1801 -1993 0
-1802 -1994 0
-1803 -1995 0
-1804 -1996 0
-1837 -2877 0
-1838 -2878 0
-1839 -2879 0
-1840 -2880 0
-2009 -2377 0
-2010 -2378 0
-2011 -2379 0
-2012 -2380 0
-2025 -2337 0
-2026 -2338 0
-2027 -2339 0
-2028 -2340 0
-2209 -2261 0
-2210 -2262 0
-2211 -2263 0
-2212 -2264 0
-2541 -3129 0
-2542 -3130 0
-2543 -3131 0
-2544 -3132 0
-2993 -3405 0
-2994 -3406 0
-2995 -3407 0
-2996 -3408 0
-1 -1165 0
-2 -1166 0
-3 -1167 0
-4 -1168 0
-33 -137 0
-34 -138 0
-35 -139 0
-36 -140 0
-85 -505 0
-86 -506 0
-87 -507 0
-88 -508 0
-125 -533 0
-126 -534 0
-127 -535 0
-128 -536 0
-145 -1489 0
-146 -1490 0
-147 -1491 0
-148 -1492 0
-177 -2637 0
-178 -2638 0
-179 -2639 0
-180 -2640 0
-229 -389 0
-230 -390 0
-231 -391 0
-232 -392 0
-253 -1789 0
-254 -1790 0
-255 -1791 0
-256 -1792 0
-293 -2833 0
-294 -2834 0
-295 -2835 0
-296 -2836 0
-309 -3241 0
-310 -3242 0
-311 -3243 0
-312 -3244 0
-345 -829 0
-346 -830 0
-347 -831 0
-348 -832 0
-417 -2221 0
-418 -2222 0
-419 -2223 0
-420 -2224 0
-529 -3109 0
-530 -3110 0
-531 -3111 0
-532 -3112 0
-537 -1557 0
-538 -1558 0
-539 -1559 0
-540 -1560 0
-717 -1297 0
-718 -1298 0
-719 -1299 0
-720 -1300 0
-765 -2957 0
-766 -2958 0
-767 -2959 0
-768 -2960 0
-809 -2057 0
-810 -2058 0
-811 -2059 0
-812 -2060 0
-929 -2941 0
-930 -2942 0
-931 -2943 0
-932 -2944 0
-933 -3385 0
-934 -3386 0
-935 -3387 0
-936 -3388 0
-1001 -2305 0
-1002 -2306 0
-1003 -2307 0
-1004 -2308 0
-1073 -2265 0
-1074 -2266 0
-1075 -2267 0
-1076 -2268 0
-1113 -2225 0
-1114 -2226 0
-1115 -2227 0
-1116 -2228 0
-1353 -2157 0
-1354 -2158 0
-1355 -2159 0
-1356 -2160 0
-1433 -2353 0
-1434 -2354 0
-1435 -2355 0
-1436 -2356 0
-1473 -2541 0
-1474 -2542 0
-1475 -2543 0
-1476 -2544 0
-1477 -2577 0
-1478 -2578 0
-1479 -2579 0
-1480 -2580 0
-1561 -1889 0
-1562 -1890 0
-1563 -1891 0
-1564 -1892 0
-1609 -2381 0
-1610 -2382 0
-1611 -2383 0
-1612 -2384 0
-1689 -2929 0
-1690 -2930 0
-1691 -2931 0
-1692 -2932 0
-1737 -1841 0
-1738 -1842 0
-1739 -1843 0
-1740 -1844 0
-2005 -3129 0
-2006 -3130 0
-2007 -3131 0
-2008 -3132 0
-2097 -2657 0
-2098 -2658 0
-2099 -2659 0
-2100 -2660 0
-2233 -2897 0
-2234 -2898 0
-2235 -2899 0
-2236 -2900 0
-2493 -2613 0
-2494 -2614 0
-2495 -2615 0
-2496 -2616 0
-2505 -2649 0
-2506 -2650 0
-2507 -2651 0
-2508 -2652 0
-2569 -3357 0
-2570 -3358 0
-2571 -3359 0
-2572 -3360 0
-2877 -3269 0
-2878 -3270 0
-2879 -3271 0
-2880 -3272 0
-2893 -3105 0
-2894 -3106 0
-2895 -3107 0
-2896 -3108 0
-2953 -3229 0
-2954 -3230 0
-2955 -3231 0
-2956 -3232 0
-9 -1965 0
-10 -1966 0
-11 -1967 0
-12 -1968 0
-37 -2553 0
-38 -2554 0
-39 -2555 0
-40 -2556 0
-89 -93 0
-90 -94 0
-91 -95 0
-92 -96 0
-109 -113 0
-110 -114 0
-111 -115 0
-112 -116 0
-149 -565 0
-150 -566 0
-151 -567 0
-152 -568 0
-153 -269 0
-154 -270 0
-155 -271 0
-156 -272 0
-197 -1393 0
-198 -1394 0
-199 -1395 0
-200 -1396 0
-241 -2197 0
-242 -2198 0
-243 -2199 0
-244 -2200 0
-249 -889 0
-250 -890 0
-251 -891 0
-252 -892 0
-341 -3169 0
-342 -3170 0
-343 -3171 0
-344 -3172 0
-397 -933 0
-398 -934 0
-399 -935 0
-400 -936 0
-405 -473 0
-406 -474 0
-407 -475 0
-408 -476 0
-501 -1657 0
-502 -1658 0
-503 -1659 0
-504 -1660 0
-517 -1253 0
-518 -1254 0
-519 -1255 0
-520 -1256 0
-529 -2461 0
-530 -2462 0
-531 -2463 0
-532 -2464 0
-577 -641 0
-578 -642 0
-579 -643 0
-580 -644 0
-701 -809 0
-702 -810 0
-703 -811 0
-704 -812 0
-705 -921 0
-706 -922 0
-707 -923 0
-708 -924 0
-857 -1573 0
-858 -1574 0
-859 -1575 0
-860 -1576 0
-869 -2569 0
-870 -2570 0
-871 -2571 0
-872 -2572 0
-885 -2945 0
-886 -2946 0
-887 -2947 0
-888 -2948 0
-965 -2813 0
-966 -2814 0
-967 -2815 0
-968 -2816 0
-989 -1437 0
-990 -1438 0
-991 -1439 0
-992 -1440 0
-1017 -2457 0
-1018 -2458 0
-1019 -2459 0
-1020 -2460 0
-1097 -1141 0
-1098 -1142 0
-1099 -1143 0
-1100 -1144 0
-1165 -1309 0
-1166 -1310 0
-1167 -1311 0
-1168 -1312 0
-1193 -3033 0
-1194 -3034 0
-1195 -3035 0
-1196 -3036 0
-1265 -1825 0
-1266 -1826 0
-1267 -1827 0
-1268 -1828 0
-1293 -1629 0
-1294 -1630 0
-1295 -1631 0
-1296 -1632 0
-1409 -3069 0
-1410 -3070 0
-1411 -3071 0
-1412 -3072 0
-1461 -3361 0
-1462 -3362 0
-1463 -3363 0
-1464 -3364 0
-1549 -1821 0
-1550 -1822 0
-1551 -1823 0
-1552 -1824 0
-2037 -2097 0
-2038 -2098 0
-2039 -2099 0
-2040 -2100 0
-2613 -3149 0
-2614 -3150 0
-2615 -3151 0
-2616 -3152 0
-2845 -3349 0
-2846 -3350 0
-2847 -3351 0
-2848 -3352 0
-2897 -3053 0
-2898 -3054 0
-2899 -3055 0
-2900 -3056 0
-9 -2793 0
-10 -2794 0
-11 -2795 0
-12 -2796 0
-13 -2453 0
-14 -2454 0
-15 -2455 0
-16 -2456 0
-25 -2261 0
-26 -2262 0
-27 -2263 0
-28 -2264 0
-85 -1677 0
-86 -1678 0
-87 -1679 0
-88 -1680 0
-97 -2881 0
-98 -2882 0
-99 -2883 0
-100 -2884 0
-101 -133 0
-102 -134 0
-103 -135 0
-104 -136 0
-105 -813 0
-106 -814 0
-107 -815 0
-108 -816 0
-125 -2005 0
-126 -2006 0
-127 -2007 0
-128 -2008 0
-145 -2501 0
-146 -2502 0
-147 -2503 0
-148 -2504 0
-149 -2845 0
-150 -2846 0
-151 -2847 0
-152 -2848 0
-209 -1237 0
-210 -1238 0
-211 -1239 0
-212 -1240 0
-217 -1133 0
-218 -1134 0
-219 -1135 0
-220 -1136 0
-221 -1173 0
-222 -1174 0
-223 -1175 0
-224 -1176 0
-277 -1421 0
-278 -1422 0
-279 -1423 0
-280 -1424 0
-325 -461 0
-326 -462 0
-327 -463 0
-328 -464 0
-345 -897 0
-346 -898 0
-347 -899 0
-348 -900 0
-353 -845 0
-354 -846 0
-355 -847 0
-356 -848 0
-357 -629 0
-358 -630 0
-359 -631 0
-360 -632 0
-369 -2333 0
-370 -2334 0
-371 -2335 0
-372 -2336 0
-445 -1593 0
-446 -1594 0
-447 -1595 0
-448 -1596 0
-449 -2433 0
-450 -2434 0
-451 -2435 0
-452 -2436 0
-521 -2041 0
-522 -2042 0
-523 -2043 0
-524 -2044 0
-533 -3129 0
-534 -3130 0
-535 -3131 0
-536 -3132 0
-545 -913 0
-546 -914 0
-547 -915 0
-548 -916 0
-565 -3349 0
-566 -3350 0
-567 -3351 0
-568 -3352 0
-573 -2901 0
-574 -2902 0
-575 -2903 0
-576 -2904 0
-617 -793 0
-618 -794 0
-619 -795 0
-620 -796 0
-653 -2149 0
-654 -2150 0
-655 -2151 0
-656 -2152 0
-681 -2337 0
-682 -2338 0
-683 -2339 0
-684 -2340 0
-689 -2745 0
-690 -2746 0
-691 -2747 0
-692 -2748 0
-701 -2369 0
-702 -2370 0
-703 -2371 0
-704 -2372 0
-765 -1089 0
-766 -1090 0
-767 -1091 0
-768 -1092 0
-773 -2169 0
-774 -2170 0
-775 -2171 0
-776 -2172 0
-905 -2201 0
-906 -2202 0
-907 -2203 0
-908 -2204 0
-921 -2761 0
-922 -2762 0
-923 -2763 0
-924 -2764 0
-957 -2249 0
-958 -2250 0
-959 -2251 0
-960 -2252 0
-965 -1293 0
-966 -1294 0
-967 -1295 0
-968 -1296 0
-985 -1569 0
-986 -1570 0
-987 -1571 0
-988 -1572 0
-1053 -2293 0
-1054 -2294 0
-1055 -2295 0
-1056 -2296 0
-1117 -1881 0
-1118 -1882 0
-1119 -1883 0
-1120 -1884 0
-1145 -1797 0
-1146 -1798 0
-1147 -1799 0
-1148 -1800 0
-1189 -1865 0
-1190 -1866 0
-1191 -1867 0
-1192 -1868 0
-1221 -2521 0
-1222 -2522 0
-1223 -2523 0
-1224 -2524 0
-1233 -2469 0
-1234 -2470 0
-1235 -2471 0
-1236 -2472 0
-1285 -2421 0
-1286 -2422 0
-1287 -2423 0
-1288 -2424 0
-1313 -2649 0
-1314 -2650 0
-1315 -2651 0
-1316 -2652 0
-1333 -1365 0
-1334 -1366 0
-1335 -1367 0
-1336 -1368 0
-1345 -1725 0
-1346 -1726 0
-1347 -1727 0
-1348 -1728 0
-1381 -1729 0
-1382 -1730 0
-1383 -1731 0
-1384 -1732 0
-1401 -1697 0
-1402 -1698 0
-1403 -1699 0
-1404 -1700 0
-1449 -2025 0
-1450 -2026 0
-1451 -2027 0
-1452 -2028 0
-1453 -1877 0
-1454 -1878 0
-1455 -1879 0
-1456 -1880 0
-1461 -2593 0
-1462 -2594 0
-1463 -2595 0
-1464 -2596 0
-1525 -2797 0
-1526 -2798 0
-1527 -2799 0
-1528 -2800 0
-1681 -2417 0
-1682 -2418 0
-1683 -2419 0
-1684 -2420 0
-1781 -1901 0
-1782 -1902 0
-1783 -1903 0
-1784 -1904 0
-1809 -3305 0
-1810 -3306 0
-1811 -3307 0
-1812 -3308 0
-1889 -3109 0
-1890 -3110 0
-1891 -3111 0
-1892 -3112 0
-1953 -3081 0
-1954 -3082 0
-1955 -3083 0
-1956 -3084 0
-2009 -3325 0
-2010 -3326 0
-2011 -3327 0
-2012 -3328 0
-2217 -2969 0
-2218 -2970 0
-2219 -2971 0
-2220 -2972 0
-2237 -2317 0
-2238 -2318 0
-2239 -2319 0
-2240 -2320 0
-3009 -3277 0
-3010 -3278 0
-3011 -3279 0
-3012 -3280 0
-3157 -3237 0
-3158 -3238 0
-3159 -3239 0
-3160 -3240 0
-3213 -3393 0
-3214 -3394 0
-3215 -3395 0
-3216 -3396 0
-9 -701 0
-10 -702 0
-11 -703 0
-12 -704 0
-13 -25 0
-14 -26 0
-15 -27 0
-16 -28 0
-29 -1169 0
-30 -1170 0
-31 -1171 0
-32 -1172 0
-37 -2517 0
-38 -2518 0
-39 -2519 0
-40 -2520 0
-41 -1869 0
-42 -1870 0
-43 -1871 0
-44 -1872 0
-45 -661 0
-46 -662 0
-47 -663 0
-48 -664 0
-61 -337 0
-62 -338 0
-63 -339 0
-64 -340 0
-85 -345 0
-86 -346 0
-87 -347 0
-88 -348 0
-97 -541 0
-98 -542 0
-99 -543 0
-100 -544 0
-125 -773 0
-126 -774 0
-127 -775 0
-128 -776 0
-141 -157 0
-142 -158 0
-143 -159 0
-144 -160 0
-169 -549 0
-170 -550 0
-171 -551 0
-172 -552 0
-197 -1585 0
-198 -1586 0
-199 -1587 0
-200 -1588 0
-209 -1189 0
-210 -1190 0
-211 -1191 0
-212 -1192 0
-245 -2253 0
-246 -2254 0
-247 -2255 0
-248 -2256 0
-257 -1053 0
-258 -1054 0
-259 -1055 0
-260 -1056 0
-265 -1021 0
-266 -1022 0
-267 -1023 0
-268 -1024 0
-285 -725 0
-286 -726 0
-287 -727 0
-288 -728 0
-365 -749 0
-366 -750 0
-367 -751 0
-368 -752 0
-381 -1257 0
-382 -1258 0
-383 -1259 0
-384 -1260 0
-421 -801 0
-422 -802 0
-423 -803 0
-424 -804 0
-425 -609 0
-426 -610 0
-427 -611 0
-428 -612 0
-429 -805 0
-430 -806 0
-431 -807 0
-432 -808 0
-437 -733 0
-438 -734 0
-439 -735 0
-440 -736 0
-441 -1773 0
-442 -1774 0
-443 -1775 0
-444 -1776 0
-445 -1161 0
-446 -1162 0
-447 -1163 0
-448 -1164 0
-481 -681 0
-482 -682 0
-483 -683 0
-484 -684 0
-505 -829 0
-506 -830 0
-507 -831 0
-508 -832 0
-521 -1953 0
-522 -1954 0
-523 -1955 0
-524 -1956 0
-537 -601 0
-538 -602 0
-539 -603 0
-540 -604 0
-545 -1333 0
-546 -1334 0
-547 -1335 0
-548 -1336 0
-553 -941 0
-554 -942 0
-555 -943 0
-556 -944 0
-573 -653 0
-574 -654 0
-575 -655 0
-576 -656 0
-633 -2889 0
-634 -2890 0
-635 -2891 0
-636 -2892 0
-665 -1273 0
-666 -1274 0
-667 -1275 0
-668 -1276 0
-713 -1069 0
-714 -1070 0
-715 -1071 0
-716 -1072 0
-761 -1125 0
-762 -1126 0
-763 -1127 0
-764 -1128 0
-785 -797 0
-786 -798 0
-787 -799 0
-788 -800 0
-817 -2529 0
-818 -2530 0
-819 -2531 0
-820 -2532 0
-833 -2521 0
-834 -2522 0
-835 -2523 0
-836 -2524 0
-837 -2981 0
-838 -2982 0
-839 -2983 0
-840 -2984 0
-849 -1337 0
-850 -1338 0
-851 -1339 0
-852 -1340 0
-857 -989 0
-858 -990 0
-859 -991 0
-860 -992 0
-913 -1365 0
-914 -1366 0
-915 -1367 0
-916 -1368 0
-1025 -1221 0
-1026 -1222 0
-1027 -1223 0
-1028 -1224 0
-1137 -1733 0
-1138 -1734 0
-1139 -1735 0
-1140 -1736 0
-1237 -1865 0
-1238 -1866 0
-1239 -1867 0
-1240 -1868 0
-1317 -1945 0
-1318 -1946 0
-1319 -1947 0
-1320 -1948 0
-1329 -1517 0
-1330 -1518 0
-1331 -1519 0
-1332 -1520 0
-1357 -1661 0
-1358 -1662 0
-1359 -1663 0
-1360 -1664 0
-1409 -2853 0
-1410 -2854 0
-1411 -2855 0
-1412 -2856 0
-1425 -2913 0
-1426 -2914 0
-1427 -2915 0
-1428 -2916 0
-1473 -1689 0
-1474 -1690 0
-1475 -1691 0
-1476 -1692 0
-1553 -1597 0
-1554 -1598 0
-1555 -1599 0
-1556 -1600 0
-1589 -1897 0
-1590 -1898 0
-1591 -1899 0
-1592 -1900 0
-1605 -2325 0
-1606 -2326 0
-1607 -2327 0
-1608 -2328 0
-1673 -2129 0
-1674 -2130 0
-1675 -2131 0
-1676 -2132 0
-1697 -2421 0
-1698 -2422 0
-1699 -2423 0
-1700 -2424 0
-1709 -2609 0
-1710 -2610 0
-1711 -2611 0
-1712 -2612 0
-1793 -2297 0
-1794 -2298 0
-1795 -2299 0
-1796 -2300 0
-1841 -1889 0
-1842 -1890 0
-1843 -1891 0
-1844 -1892 0
-1989 -2301 0
-1990 -2302 0
-1991 -2303 0
-1992 -2304 0
-2005 -2169 0
-2006 -2170 0
-2007 -2171 0
-2008 -2172 0
-2041 -3081 0
-2042 -3082 0
-2043 -3083 0
-2044 -3084 0
-2473 -2497 0
-2474 -2498 0
-2475 -2499 0
-2476 -2500 0
-2541 -2929 0
-2542 -2930 0
-2543 -2931 0
-2544 -2932 0
-2557 -3189 0
-2558 -3190 0
-2559 -3191 0
-2560 -3192 0
-3057 -3317 0
-3058 -3318 0
-3059 -3319 0
-3060 -3320 0
-1 -409 0
-2 -410 0
-3 -411 0
-4 -412 0
-29 -169 0
-30 -170 0
-31 -171 0
-32 -172 0
-33 -177 0
-34 -178 0
-35 -179 0
-36 -180 0
-89 -153 0
-90 -154 0
-91 -155 0
-92 -156 0
-93 -269 0
-94 -270 0
-95 -271 0
-96 -272 0
-137 -2637 0
-138 -2638 0
-139 -2639 0
-140 -2640 0
-149 -3345 0
-150 -3346 0
-151 -3347 0
-152 -3348 0
-217 -985 0
-218 -986 0
-219 -987 0
-220 -988 0
-229 -933 0
-230 -934 0
-231 -935 0
-232 -936 0
-233 -2405 0
-234 -2406 0
-235 -2407 0
-236 -2408 0
-241 -1061 0
-242 -1062 0
-243 -1063 0
-244 -1064 0
-361 -2029 0
-362 -2030 0
-363 -2031 0
-364 -2032 0
-381 -849 0
-382 -850 0
-383 -851 0
-384 -852 0
-389 -3385 0
-390 -3386 0
-391 -3387 0
-392 -3388 0
-469 -1681 0
-470 -1682 0
-471 -1683 0
-472 -1684 0
-477 -2213 0
-478 -2214 0
-479 -2215 0
-480 -2216 0
-509 -565 0
-510 -566 0
-511 -567 0
-512 -568 0
-561 -669 0
-562 -670 0
-563 -671 0
-564 -672 0
-569 -1105 0
-570 -1106 0
-571 -1107 0
-572 -1108 0
-577 -621 0
-578 -622 0
-579 -623 0
-580 -624 0
-705 -1213 0
-706 -1214 0
-707 -1215 0
-708 -1216 0
-765 -1781 0
-766 -1782 0
-767 -1783 0
-768 -1784 0
-837 -1141 0
-838 -1142 0
-839 -1143 0
-840 -1144 0
-869 -2177 0
-870 -2178 0
-871 -2179 0
-872 -2180 0
-1021 -1053 0
-1022 -1054 0
-1023 -1055 0
-1024 -1056 0
-1089 -1901 0
-1090 -1902 0
-1091 -1903 0
-1092 -1904 0
-1133 -1569 0
-1134 -1570 0
-1135 -1571 0
-1136 -1572 0
-1241 -2457 0
-1242 -2458 0
-1243 -2459 0
-1244 -2460 0
-1257 -1337 0
-1258 -1338 0
-1259 -1339 0
-1260 -1340 0
-1321 -2869 0
-1322 -2870 0
-1323 -2871 0
-1324 -2872 0
-1329 -1505 0
-1330 -1506 0
-1331 -1507 0
-1332 -1508 0
-1457 -1977 0
-1458 -1978 0
-1459 -1979 0
-1460 -1980 0
-1589 -2673 0
-1590 -2674 0
-1591 -2675 0
-1592 -2676 0
-1745 -1941 0
-1746 -1942 0
-1747 -1943 0
-1748 -1944 0
-1761 -1933 0
-1762 -1934 0
-1763 -1935 0
-1764 -1936 0
-1893 -2101 0
-1894 -2102 0
-1895 -2103 0
-1896 -2104 0
-2025 -2977 0
-2026 -2978 0
-2027 -2979 0
-2028 -2980 0
-2201 -3405 0
-2202 -3406 0
-2203 -3407 0
-2204 -3408 0
-2209 -2765 0
-2210 -2766 0
-2211 -2767 0
-2212 -2768 0
-2505 -3165 0
-2506 -3166 0
-2507 -3167 0
-2508 -3168 0
-2545 -2789 0
-2546 -2790 0
-2547 -2791 0
-2548 -2792 0
-2669 -3333 0
-2670 -3334 0
-2671 -3335 0
-2672 -3336 0
-2733 -2993 0
-2734 -2994 0
-2735 -2995 0
-2736 -2996 0
-3221 -3233 0
-3222 -3234 0
-3223 -3235 0
-3224 -3236 0
-25 -1405 0
-26 -1406 0
-27 -1407 0
-28 -1408 0
-37 -41 0
-38 -42 0
-39 -43 0
-40 -44 0
-73 -77 0
-74 -78 0
-75 -79 0
-76 -80 0
-89 -1969 0
-90 -1970 0
-91 -1971 0
-92 -1972 0
-149 -3205 0
-150 -3206 0
-151 -3207 0
-152 -3208 0
-153 -173 0
-154 -174 0
-155 -175 0
-156 -176 0
-201 -525 0
-202 -526 0
-203 -527 0
-204 -528 0
-249 -741 0
-250 -742 0
-251 -743 0
-252 -744 0
-293 -1093 0
-294 -1094 0
-295 -1095 0
-296 -1096 0
-317 -3257 0
-318 -3258 0
-319 -3259 0
-320 -3260 0
-405 -1261 0
-406 -1262 0
-407 -1263 0
-408 -1264 0
-465 -1373 0
-466 -1374 0
-467 -1375 0
-468 -1376 0
-481 -2173 0
-482 -2174 0
-483 -2175 0
-484 -2176 0
-497 -2709 0
-498 -2710 0
-499 -2711 0
-500 -2712 0
-569 -1893 0
-570 -1894 0
-571 -1895 0
-572 -1896 0
-617 -3053 0
-618 -3054 0
-619 -3055 0
-620 -3056 0
-681 -881 0
-682 -882 0
-683 -883 0
-684 -884 0
-689 -1101 0
-690 -1102 0
-691 -1103 0
-692 -1104 0
-705 -1461 0
-706 -1462 0
-707 -1463 0
-708 -1464 0
-789 -1649 0
-790 -1650 0
-791 -1651 0
-792 -1652 0
-833 -2469 0
-834 -2470 0
-835 -2471 0
-836 -2472 0
-917 -937 0
-918 -938 0
-919 -939 0
-920 -940 0
-921 -3361 0
-922 -3362 0
-923 -3363 0
-924 -3364 0
-965 -3141 0
-966 -3142 0
-967 -3143 0
-968 -3144 0
-985 -3261 0
-986 -3262 0
-987 -3263 0
-988 -3264 0
-1009 -1533 0
-1010 -1534 0
-1011 -1535 0
-1012 -1536 0
-1025 -1233 0
-1026 -1234 0
-1027 -1235 0
-1028 -1236 0
-1029 -2573 0
-1030 -2574 0
-1031 -2575 0
-1032 -2576 0
-1105 -2101 0
-1106 -2102 0
-1107 -2103 0
-1108 -2104 0
-1129 -2597 0
-1130 -2598 0
-1131 -2599 0
-1132 -2600 0
-1269 -1921 0
-1270 -1922 0
-1271 -1923 0
-1272 -1924 0
-1321 -3321 0
-1322 -3322 0
-1323 -3323 0
-1324 -3324 0
-1357 -3045 0
-1358 -3046 0
-1359 -3047 0
-1360 -3048 0
-1577 -3281 0
-1578 -3282 0
-1579 -3283 0
-1580 -3284 0
-1661 -2289 0
-1662 -2290 0
-1663 -2291 0
-1664 -2292 0
-1701 -1989 0
-1702 -1990 0
-1703 -1991 0
-1704 -1992 0
-1801 -2181 0
-1802 -2182 0
-1803 -2183 0
-1804 -2184 0
-1909 -2749 0
-1910 -2750 0
-1911 -2751 0
-1912 -2752 0
-2145 -2961 0
-2146 -2962 0
-2147 -2963 0
-2148 -2964 0
-2265 -3133 0
-2266 -3134 0
-2267 -3135 0
-2268 -3136 0
-2505 -2669 0
-2506 -2670 0
-2507 -2671 0
-2508 -2672 0
-3165 -3333 0
-3166 -3334 0
-3167 -3335 0
-3168 -3336 0
-97 -3149 0
-98 -3150 0
-99 -3151 0
-100 -3152 0
-101 -1397 0
-102 -1398 0
-103 -1399 0
-104 -1400 0
-125 -145 0
-126 -146 0
-127 -147 0
-128 -148 0
-153 -2417 0
-154 -2418 0
-155 -2419 0
-156 -2420 0
-221 -2057 0
-222 -2058 0
-223 -2059 0
-224 -2060 0
-245 -557 0
-246 -558 0
-247 -559 0
-248 -560 0
-257 -565 0
-258 -566 0
-259 -567 0
-260 -568 0
-265 -509 0
-266 -510 0
-267 -511 0
-268 -512 0
-277 -1217 0
-278 -1218 0
-279 -1219 0
-280 -1220 0
-317 -617 0
-318 -618 0
-319 -619 0
-320 -620 0
-325 -3301 0
-326 -3302 0
-327 -3303 0
-328 -3304 0
-413 -1753 0
-414 -1754 0
-415 -1755 0
-416 -1756 0
-489 -1057 0
-490 -1058 0
-491 -1059 0
-492 -1060 0
-533 -1489 0
-534 -1490 0
-535 -1491 0
-536 -1492 0
-537 -1629 0
-538 -1630 0
-539 -1631 0
-540 -1632 0
-613 -949 0
-614 -950 0
-615 -951 0
-616 -952 0
-621 -1681 0
-622 -1682 0
-623 -1683 0
-624 -1684 0
-637 -1777 0
-638 -1778 0
-639 -1779 0
-640 -1780 0
-657 -901 0
-658 -902 0
-659 -903 0
-660 -904 0
-713 -729 0
-714 -730 0
-715 -731 0
-716 -732 0
-765 -1285 0
-766 -1286 0
-767 -1287 0
-768 -1288 0
-853 -1741 0
-854 -1742 0
-855 -1743 0
-856 -1744 0
-873 -2305 0
-874 -2306 0
-875 -2307 0
-876 -2308 0
-877 -1541 0
-878 -1542 0
-879 -1543 0
-880 -1544 0
-1017 -1353 0
-1018 -1354 0
-1019 -1355 0
-1020 -1356 0
-1065 -1161 0
-1066 -1162 0
-1067 -1163 0
-1068 -1164 0
-1089 -2421 0
-1090 -2422 0
-1091 -2423 0
-1092 -2424 0
-1341 -1881 0
-1342 -1882 0
-1343 -1883 0
-1344 -1884 0
-1425 -1565 0
-1426 -1566 0
-1427 -1567 0
-1428 -1568 0
-1441 -1657 0
-1442 -1658 0
-1443 -1659 0
-1444 -1660 0
-1453 -1521 0
-1454 -1522 0
-1455 -1523 0
-1456 -1524 0
-1457 -2133 0
-1458 -2134 0
-1459 -2135 0
-1460 -2136 0
-1473 -2841 0
-1474 -2842 0
-1475 -2843 0
-1476 -2844 0
-1501 -2265 0
-1502 -2266 0
-1503 -2267 0
-1504 -2268 0
-1613 -2073 0
-1614 -2074 0
-1615 -2075 0
-1616 -2076 0
-1625 -1949 0
-1626 -1950 0
-1627 -1951 0
-1628 -1952 0
-1673 -3253 0
-1674 -3254 0
-1675 -3255 0
-1676 -3256 0
-1725 -1865 0
-1726 -1866 0
-1727 -1867 0
-1728 -1868 0
-1737 -2245 0
-1738 -2246 0
-1739 -2247 0
-1740 -2248 0
-1749 -2657 0
-1750 -2658 0
-1751 -2659 0
-1752 -2660 0
-1853 -3245 0
-1854 -3246 0
-1855 -3247 0
-1856 -3248 0
-1985 -2149 0
-1986 -2150 0
-1987 -2151 0
-1988 -2152 0
-1997 -2613 0
-1998 -2614 0
-1999 -2615 0
-2000 -2616 0
-2005 -2501 0
-2006 -2502 0
-2007 -2503 0
-2008 -2504 0
-2201 -2261 0
-2202 -2262 0
-2203 -2263 0
-2204 -2264 0
-2233 -2301 0
-2234 -2302 0
-2235 -2303 0
-2236 -2304 0
-2237 -2441 0
-2238 -2442 0
-2239 -2443 0
-2240 -2444 0
-2713 -3217 0
-2714 -3218 0
-2715 -3219 0
-2716 -3220 0
-2869 -3169 0
-2870 -3170 0
-2871 -3171 0
-2872 -3172 0
-2933 -3085 0
-2934 -3086 0
-2935 -3087 0
-2936 -3088 0
-85 -97 0
-86 -98 0
-87 -99 0
-88 -100 0
-101 -221 0
-102 -222 0
-103 -223 0
-104 -224 0
-109 -121 0
-110 -122 0
-111 -123 0
-112 -124 0
-129 -1377 0
-130 -1378 0
-131 -1379 0
-132 -1380 0
-133 -1173 0
-134 -1174 0
-135 -1175 0
-136 -1176 0
-145 -1769 0
-146 -1770 0
-147 -1771 0
-148 -1772 0
-149 -1085 0
-150 -1086 0
-151 -1087 0
-152 -1088 0
-217 -1313 0
-218 -1314 0
-219 -1315 0
-220 -1316 0
-277 -873 0
-278 -874 0
-279 -875 0
-280 -876 0
-293 -1105 0
-294 -1106 0
-295 -1107 0
-296 -1108 0
-325 -369 0
-326 -370 0
-327 -371 0
-328 -372 0
-345 -541 0
-346 -542 0
-347 -543 0
-348 -544 0
-405 -569 0
-406 -570 0
-407 -571 0
-408 -572 0
-433 -789 0
-434 -790 0
-435 -791 0
-436 -792 0
-461 -2333 0
-462 -2334 0
-463 -2335 0
-464 -2336 0
-501 -1661 0
-502 -1662 0
-503 -1663 0
-504 -1664 0
-513 -1045 0
-514 -1046 0
-515 -1047 0
-516 -1048 0
-529 -2437 0
-530 -2438 0
-531 -2439 0
-532 -2440 0
-593 -681 0
-594 -682 0
-595 -683 0
-596 -684 0
-609 -725 0
-610 -726 0
-611 -727 0
-612 -728 0
-637 -2033 0
-638 -2034 0
-639 -2035 0
-640 -2036 0
-665 -3197 0
-666 -3198 0
-667 -3199 0
-668 -3200 0
-713 -817 0
-714 -818 0
-715 -819 0
-716 -820 0
-733 -805 0
-734 -806 0
-735 -807 0
-736 -808 0
-757 -2297 0
-758 -2298 0
-759 -2299 0
-760 -2300 0
-785 -1281 0
-786 -1282 0
-787 -1283 0
-788 -1284 0
-797 -1013 0
-798 -1014 0
-799 -1015 0
-800 -1016 0
-857 -1641 0
-858 -1642 0
-859 -1643 0
-860 -1644 0
-945 -1793 0
-946 -1794 0
-947 -1795 0
-948 -1796 0
-953 -1941 0
-954 -1942 0
-955 -1943 0
-956 -1944 0
-1041 -1929 0
-1042 -1930 0
-1043 -1931 0
-1044 -1932 0
-1069 -2529 0
-1070 -2530 0
-1071 -2531 0
-1072 -2532 0
-1073 -3061 0
-1074 -3062 0
-1075 -3063 0
-1076 -3064 0
-1093 -2101 0
-1094 -2102 0
-1095 -2103 0
-1096 -2104 0
-1101 -1309 0
-1102 -1310 0
-1103 -1311 0
-1104 -1312 0
-1133 -2649 0
-1134 -2650 0
-1135 -2651 0
-1136 -2652 0
-1137 -2617 0
-1138 -2618 0
-1139 -2619 0
-1140 -2620 0
-1153 -2721 0
-1154 -2722 0
-1155 -2723 0
-1156 -2724 0
-1157 -1745 0
-1158 -1746 0
-1159 -1747 0
-1160 -1748 0
-1197 -2869 0
-1198 -2870 0
-1199 -2871 0
-1200 -2872 0
-1201 -1321 0
-1202 -1322 0
-1203 -1323 0
-1204 -1324 0
-1217 -2305 0
-1218 -2306 0
-1219 -2307 0
-1220 -2308 0
-1233 -1465 0
-1234 -1466 0
-1235 -1467 0
-1236 -1468 0
-1261 -1893 0
-1262 -1894 0
-1263 -1895 0
-1264 -1896 0
-1265 -2609 0
-1266 -2610 0
-1267 -2611 0
-1268 -2612 0
-1277 -1709 0
-1278 -1710 0
-1279 -1711 0
-1280 -1712 0
-1285 -2909 0
-1286 -2910 0
-1287 -2911 0
-1288 -2912 0
-1397 -2057 0
-1398 -2058 0
-1399 -2059 0
-1400 -2060 0
-1413 -3049 0
-1414 -3050 0
-1415 -3051 0
-1416 -3052 0
-1609 -2705 0
-1610 -2706 0
-1611 -2707 0
-1612 -2708 0
-1677 -2881 0
-1678 -2882 0
-1679 -2883 0
-1680 -2884 0
-1837 -2837 0
-1838 -2838 0
-1839 -2839 0
-1840 -2840 0
-1993 -2885 0
-1994 -2886 0
-1995 -2887 0
-1996 -2888 0
-2029 -2637 0
-2030 -2638 0
-2031 -2639 0
-2032 -2640 0
-2121 -2785 0
-2122 -2786 0
-2123 -2787 0
-2124 -2788 0
-2193 -3145 0
-2194 -3146 0
-2195 -3147 0
-2196 -3148 0
-2233 -2257 0
-2234 -2258 0
-2235 -2259 0
-2236 -2260 0
-2321 -2857 0
-2322 -2858 0
-2323 -2859 0
-2324 -2860 0
-2589 -3165 0
-2590 -3166 0
-2591 -3167 0
-2592 -3168 0
-2665 -3353 0
-2666 -3354 0
-2667 -3355 0
-2668 -3356 0
-2917 -3273 0
-2918 -3274 0
-2919 -3275 0
-2920 -3276 0
-3221 -3337 0
-3222 -3338 0
-3223 -3339 0
-3224 -3340 0
-13 -1981 0
-14 -1982 0
-15 -1983 0
-16 -1984 0
-37 -3005 0
-38 -3006 0
-39 -3007 0
-40 -3008 0
-85 -953 0
-86 -954 0
-87 -955 0
-88 -956 0
-97 -1941 0
-98 -1942 0
-99 -1943 0
-100 -1944 0
-125 -865 0
-126 -866 0
-127 -867 0
-128 -868 0
-217 -2925 0
-218 -2926 0
-219 -2927 0
-220 -2928 0
-285 -1877 0
-286 -1878 0
-287 -1879 0
-288 -1880 0
-333 -2961 0
-334 -2962 0
-335 -2963 0
-336 -2964 0
-445 -3041 0
-446 -3042 0
-447 -3043 0
-448 -3044 0
-497 -2293 0
-498 -2294 0
-499 -2295 0
-500 -2296 0
-537 -1901 0
-538 -1902 0
-539 -1903 0
-540 -1904 0
-657 -1341 0
-658 -1342 0
-659 -1343 0
-660 -1344 0
-769 -1729 0
-770 -1730 0
-771 -1731 0
-772 -1732 0
-833 -1645 0
-834 -1646 0
-835 -1647 0
-836 -1648 0
-901 -1881 0
-902 -1882 0
-903 -1883 0
-904 -1884 0
-917 -2805 0
-918 -2806 0
-919 -2807 0
-920 -2808 0
-965 -1733 0
-966 -1734 0
-967 -1735 0
-968 -1736 0
-1129 -1561 0
-1130 -1562 0
-1131 -1563 0
-1132 -1564 0
-1209 -2533 0
-1210 -2534 0
-1211 -2535 0
-1212 -2536 0
-1297 -2965 0
-1298 -2966 0
-1299 -2967 0
-1300 -2968 0
-1357 -2249 0
-1358 -2250 0
-1359 -2251 0
-1360 -2252 0
-1401 -1533 0
-1402 -1534 0
-1403 -1535 0
-1404 -1536 0
-1665 -2797 0
-1666 -2798 0
-1667 -2799 0
-1668 -2800 0
-1693 -2261 0
-1694 -2262 0
-1695 -2263 0
-1696 -2264 0
-1949 -2981 0
-1950 -2982 0
-1951 -2983 0
-1952 -2984 0
-2265 -3109 0
-2266 -3110 0
-2267 -3111 0
-2268 -3112 0
-2429 -2757 0
-2430 -2758 0
-2431 -2759 0
-2432 -2760 0
-2809 -2897 0
-2810 -2898 0
-2811 -2899 0
-2812 -2900 0
-1 -313 0
-2 -314 0
-3 -315 0
-4 -316 0
-5 -1229 0
-6 -1230 0
-7 -1231 0
-8 -1232 0
-9 -925 0
-10 -926 0
-11 -927 0
-12 -928 0
-29 -1537 0
-30 -1538 0
-31 -1539 0
-32 -1540 0
-45 -1581 0
-46 -1582 0
-47 -1583 0
-48 -1584 0
-49 -53 0
-50 -54 0
-51 -55 0
-52 -56 0
-125 -657 0
-126 -658 0
-127 -659 0
-128 -660 0
-129 -133 0
-130 -134 0
-131 -135 0
-132 -136 0
-145 -901 0
-146 -902 0
-147 -903 0
-148 -904 0
-149 -1873 0
-150 -1874 0
-151 -1875 0
-152 -1876 0
-201 -1661 0
-202 -1662 0
-203 -1663 0
-204 -1664 0
-209 -633 0
-210 -634 0
-211 -635 0
-212 -636 0
-233 -629 0
-234 -630 0
-235 -631 0
-236 -632 0
-245 -1817 0
-246 -1818 0
-247 -1819 0
-248 -1820 0
-249 -501 0
-250 -502 0
-251 -503 0
-252 -504 0
-257 -2213 0
-258 -2214 0
-259 -2215 0
-260 -2216 0
-265 -477 0
-266 -478 0
-267 -479 0
-268 -480 0
-329 -685 0
-330 -686 0
-331 -687 0
-332 -688 0
-433 -757 0
-434 -758 0
-435 -759 0
-436 -760 0
-441 -1385 0
-442 -1386 0
-443 -1387 0
-444 -1388 0
-469 -1005 0
-470 -1006 0
-471 -1007 0
-472 -1008 0
-525 -2289 0
-526 -2290 0
-527 -2291 0
-528 -2292 0
-561 -2277 0
-562 -2278 0
-563 -2279 0
-564 -2280 0
-593 -609 0
-594 -610 0
-595 -611 0
-596 -612 0
-641 -1297 0
-642 -1298 0
-643 -1299 0
-644 -1300 0
-653 -749 0
-654 -750 0
-655 -751 0
-656 -752 0
-681 -725 0
-682 -726 0
-683 -727 0
-684 -728 0
-693 -941 0
-694 -942 0
-695 -943 0
-696 -944 0
-765 -1853 0
-766 -1854 0
-767 -1855 0
-768 -1856 0
-769 -1693 0
-770 -1694 0
-771 -1695 0
-772 -1696 0
-781 -1805 0
-782 -1806 0
-783 -1807 0
-784 -1808 0
-789 -2297 0
-790 -2298 0
-791 -2299 0
-792 -2300 0
-865 -1341 0
-866 -1342 0
-867 -1343 0
-868 -1344 0
-889 -1657 0
-890 -1658 0
-891 -1659 0
-892 -1660 0
-917 -1357 0
-918 -1358 0
-919 -1359 0
-920 -1360 0
-937 -3045 0
-938 -3046 0
-939 -3047 0
-940 -3048 0
-1009 -1269 0
-1010 -1270 0
-1011 -1271 0
-1012 -1272 0
-1029 -1049 0
-1030 -1050 0
-1031 -1051 0
-1032 -1052 0
-1033 -2133 0
-1034 -2134 0
-1035 -2135 0
-1036 -2136 0
-1077 -2401 0
-1078 -2402 0
-1079 -2403 0
-1080 -2404 0
-1137 -1413 0
-1138 -1414 0
-1139 -1415 0
-1140 -1416 0
-1189 -2889 0
-1190 -2890 0
-1191 -2891 0
-1192 -2892 0
-1285 -3245 0
-1286 -3246 0
-1287 -3247 0
-1288 -3248 0
-1401 -3249 0
-1402 -3250 0
-1403 -3251 0
-1404 -3252 0
-1409 -1457 0
-1410 -1458 0
-1411 -1459 0
-1412 -1460 0
-1449 -2069 0
-1450 -2070 0
-1451 -2071 0
-1452 -2072 0
-1469 -1905 0
-1470 -1906 0
-1471 -1907 0
-1472 -1908 0
-1477 -3081 0
-1478 -3082 0
-1479 -3083 0
-1480 -3084 0
-1533 -1921 0
-1534 -1922 0
-1535 -1923 0
-1536 -1924 0
-1701 -1829 0
-1702 -1830 0
-1703 -1831 0
-1704 -1832 0
-1713 -1953 0
-1714 -1954 0
-1715 -1955 0
-1716 -1956 0
-1729 -2261 0
-1730 -2262 0
-1731 -2263 0
-1732 -2264 0
-1913 -2165 0
-1914 -2166 0
-1915 -2167 0
-1916 -2168 0
-2193 -2661 0
-2194 -2662 0
-2195 -2663 0
-2196 -2664 0
-2545 -2549 0
-2546 -2550 0
-2547 -2551 0
-2548 -2552 0
-2617 -3049 0
-2618 -3050 0
-2619 -3051 0
-2620 -3052 0
-37 -97 0
-38 -98 0
-39 -99 0
-40 -100 0
-133 -2709 0
-134 -2710 0
-135 -2711 0
-136 -2712 0
-201 -1769 0
-202 -1770 0
-203 -1771 0
-204 -1772 0
-217 -445 0
-218 -446 0
-219 -447 0
-220 -448 0
-233 -441 0
-234 -442 0
-235 -443 0
-236 -444 0
-357 -1565 0
-358 -1566 0
-359 -1567 0
-360 -1568 0
-417 -929 0
-418 -930 0
-419 -931 0
-420 -932 0
-501 -901 0
-502 -902 0
-503 -903 0
-504 -904 0
-513 -697 0
-514 -698 0
-515 -699 0
-516 -700 0
-577 -1849 0
-578 -1850 0
-579 -1851 0
-580 -1852 0
-585 -2641 0
-586 -2642 0
-587 -2643 0
-588 -2644 0
-629 -1385 0
-630 -1386 0
-631 -1387 0
-632 -1388 0
-637 -2017 0
-638 -2018 0
-639 -2019 0
-640 -2020 0
-705 -2377 0
-706 -2378 0
-707 -2379 0
-708 -2380 0
-745 -1393 0
-746 -1394 0
-747 -1395 0
-748 -1396 0
-957 -1465 0
-958 -1466 0
-959 -1467 0
-960 -1468 0
-1009 -2569 0
-1010 -2570 0
-1011 -2571 0
-1012 -2572 0
-1133 -1593 0
-1134 -1594 0
-1135 -1595 0
-1136 -1596 0
-1145 -1757 0
-1146 -1758 0
-1147 -1759 0
-1148 -1760 0
-1197 -2457 0
-1198 -2458 0
-1199 -2459 0
-1200 -2460 0
-1201 -1241 0
-1202 -1242 0
-1203 -1243 0
-1204 -1244 0
-1269 -2197 0
-1270 -2198 0
-1271 -2199 0
-1272 -2200 0
-1325 -2829 0
-1326 -2830 0
-1327 -2831 0
-1328 -2832 0
-1549 -2429 0
-1550 -2430 0
-1551 -2431 0
-1552 -2432 0
-1665 -2625 0
-1666 -2626 0
-1667 -2627 0
-1668 -2628 0
-1785 -2081 0
-1786 -2082 0
-1787 -2083 0
-1788 -2084 0
-1801 -2861 0
-1802 -2862 0
-1803 -2863 0
-1804 -2864 0
-1841 -3161 0
-1842 -3162 0
-1843 -3163 0
-1844 -3164 0
-2221 -2941 0
-2222 -2942 0
-2223 -2943 0
-2224 -2944 0
-2321 -3361 0
-2322 -3362 0
-2323 -3363 0
-2324 -3364 0
-2433 -3333 0
-2434 -3334 0
-2435 -3335 0
-2436 -3336 0
-2473 -2801 0
-2474 -2802 0
-2475 -2803 0
-2476 -2804 0
-2693 -2825 0
-2694 -2826 0
-2695 -2827 0
-2696 -2828 0
-2745 -3349 0
-2746 -3350 0
-2747 -3351 0
-2748 -3352 0
-2925 -3041 0
-2926 -3042 0
-2927 -3043 0
-2928 -3044 0
-3001 -3197 0
-3002 -3198 0
-3003 -3199 0
-3004 -3200 0
-3013 -3205 0
-3014 -3206 0
-3015 -3207 0
-3016 -3208 0
-3073 -3113 0
-3074 -3114 0
-3075 -3115 0
-3076 -3116 0
-9 -1109 0
-10 -1110 0
-11 -1111 0
-12 -1112 0
-13 -1505 0
-14 -1506 0
-15 -1507 0
-16 -1508 0
-17 -3293 0
-18 -3294 0
-19 -3295 0
-20 -3296 0
-29 -41 0
-30 -42 0
-31 -43 0
-32 -44 0
-33 -193 0
-34 -194 0
-35 -195 0
-36 -196 0
-53 -1601 0
-54 -1602 0
-55 -1603 0
-56 -1604 0
-69 -81 0
-70 -82 0
-71 -83 0
-72 -84 0
-73 -1361 0
-74 -1362 0
-75 -1363 0
-76 -1364 0
-93 -581 0
-94 -582 0
-95 -583 0
-96 -584 0
-125 -2789 0
-126 -2790 0
-127 -2791 0
-128 -2792 0
-229 -729 0
-230 -730 0
-231 -731 0
-232 -732 0
-237 -969 0
-238 -970 0
-239 -971 0
-240 -972 0
-285 -1557 0
-286 -1558 0
-287 -1559 0
-288 -1560 0
-365 -505 0
-366 -506 0
-367 -507 0
-368 -508 0
-405 -1265 0
-406 -1266 0
-407 -1267 0
-408 -1268 0
-429 -817 0
-430 -818 0
-431 -819 0
-432 -820 0
-437 -713 0
-438 -714 0
-439 -715 0
-440 -716 0
-473 -1825 0
-474 -1826 0
-475 -1827 0
-476 -1828 0
-477 -1817 0
-478 -1818 0
-479 -1819 0
-480 -1820 0
-485 -1517 0
-486 -1518 0
-487 -1519 0
-488 -1520 0
-497 -2989 0
-498 -2990 0
-499 -2991 0
-500 -2992 0
-509 -557 0
-510 -558 0
-511 -559 0
-512 -560 0
-529 -989 0
-530 -990 0
-531 -991 0
-532 -992 0
-569 -2609 0
-570 -2610 0
-571 -2611 0
-572 -2612 0
-633 -2381 0
-634 -2382 0
-635 -2383 0
-636 -2384 0
-657 -1765 0
-658 -1766 0
-659 -1767 0
-660 -1768 0
-705 -3229 0
-706 -3230 0
-707 -3231 0
-708 -3232 0
-733 -1069 0
-734 -1070 0
-735 -1071 0
-736 -1072 0
-749 -829 0
-750 -830 0
-751 -831 0
-752 -832 0
-805 -2529 0
-806 -2530 0
-807 -2531 0
-808 -2532 0
-833 -1569 0
-834 -1570 0
-835 -1571 0
-836 -1572 0
-1021 -2253 0
-1022 -2254 0
-1023 -2255 0
-1024 -2256 0
-1073 -1293 0
-1074 -1294 0
-1075 -1295 0
-1076 -1296 0
-1153 -1933 0
-1154 -1934 0
-1155 -1935 0
-1156 -1936 0
-1169 -1869 0
-1170 -1870 0
-1171 -1871 0
-1172 -1872 0
-1185 -1329 0
-1186 -1330 0
-1187 -1331 0
-1188 -1332 0
-1201 -1277 0
-1202 -1278 0
-1203 -1279 0
-1204 -1280 0
-1233 -3261 0
-1234 -3262 0
-1235 -3263 0
-1236 -3264 0
-1257 -1585 0
-1258 -1586 0
-1259 -1587 0
-1260 -1588 0
-1297 -3241 0
-1298 -3242 0
-1299 -3243 0
-1300 -3244 0
-1321 -1709 0
-1322 -1710 0
-1323 -1711 0
-1324 -1712 0
-1401 -1653 0
-1402 -1654 0
-1403 -1655 0
-1404 -1656 0
-1417 -2013 0
-1418 -2014 0
-1419 -2015 0
-1420 -2016 0
-1461 -2897 0
-1462 -2898 0
-1463 -2899 0
-1464 -2900 0
-1549 -2497 0
-1550 -2498 0
-1551 -2499 0
-1552 -2500 0
-1561 -1733 0
-1562 -1734 0
-1563 -1735 0
-1564 -1736 0
-1805 -2345 0
-1806 -2346 0
-1807 -2347 0
-1808 -2348 0
-1837 -2917 0
-1838 -2918 0
-1839 -2919 0
-1840 -2920 0
-2009 -3009 0
-2010 -3010 0
-2011 -3011 0
-2012 -3012 0
-2121 -2809 0
-2122 -2810 0
-2123 -2811 0
-2124 -2812 0
-2309 -2613 0
-2310 -2614 0
-2311 -2615 0
-2312 -2616 0
-2597 -3141 0
-2598 -3142 0
-2599 -3143 0
-2600 -3144 0
-2825 -3121 0
-2826 -3122 0
-2827 -3123 0
-2828 -3124 0
-2837 -3273 0
-2838 -3274 0
-2839 -3275 0
-2840 -3276 0
-2933 -2957 0
-2934 -2958 0
-2935 -2959 0
-2936 -2960 0
-85 -309 0
-86 -310 0
-87 -311 0
-88 -312 0
-89 -569 0
-90 -570 0
-91 -571 0
-92 -572 0
-101 -1953 0
-102 -1954 0
-103 -1955 0
-104 -1956 0
-105 -941 0
-106 -942 0
-107 -943 0
-108 -944 0
-129 -1477 0
-130 -1478 0
-131 -1479 0
-132 -1480 0
-133 -3081 0
-134 -3082 0
-135 -3083 0
-136 -3084 0
-145 -809 0
-146 -810 0
-147 -811 0
-148 -812 0
-153 -1105 0
-154 -1106 0
-155 -1107 0
-156 -1108 0
-173 -2101 0
-174 -2102 0
-175 -2103 0
-176 -2104 0
-197 -1929 0
-198 -1930 0
-199 -1931 0
-200 -1932 0
-209 -777 0
-210 -778 0
-211 -779 0
-212 -780 0
-229 -473 0
-230 -474 0
-231 -475 0
-232 -476 0
-245 -2481 0
-246 -2482 0
-247 -2483 0
-248 -2484 0
-277 -1333 0
-278 -1334 0
-279 -1335 0
-280 -1336 0
-289 -2909 0
-290 -2910 0
-291 -2911 0
-292 -2912 0
-301 -549 0
-302 -550 0
-303 -551 0
-304 -552 0
-325 -521 0
-326 -522 0
-327 -523 0
-328 -524 0
-353 -693 0
-354 -694 0
-355 -695 0
-356 -696 0
-361 -3245 0
-362 -3246 0
-363 -3247 0
-364 -3248 0
-365 -1297 0
-366 -1298 0
-367 -1299 0
-368 -1300 0
-425 -1441 0
-426 -1442 0
-427 -1443 0
-428 -1444 0
-453 -553 0
-454 -554 0
-455 -555 0
-456 -556 0
-457 -1713 0
-458 -1714 0
-459 -1715 0
-460 -1716 0
-461 -2041 0
-462 -2042 0
-463 -2043 0
-464 -2044 0
-505 -3241 0
-506 -3242 0
-507 -3243 0
-508 -3244 0
-573 -641 0
-574 -642 0
-575 -643 0
-576 -644 0
-649 -1285 0
-650 -1286 0
-651 -1287 0
-652 -1288 0
-665 -717 0
-666 -718 0
-667 -719 0
-668 -720 0
-729 -1825 0
-730 -1826 0
-731 -1827 0
-732 -1828 0
-737 -2553 0
-738 -2554 0
-739 -2555 0
-740 -2556 0
-821 -1001 0
-822 -1002 0
-823 -1003 0
-824 -1004 0
-857 -2433 0
-858 -2434 0
-859 -2435 0
-860 -2436 0
-861 -905 0
-862 -906 0
-863 -907 0
-864 -908 0
-865 -2973 0
-866 -2974 0
-867 -2975 0
-868 -2976 0
-885 -3353 0
-886 -3354 0
-887 -3355 0
-888 -3356 0
-1017 -3065 0
-1018 -3066 0
-1019 -3067 0
-1020 -3068 0
-1133 -2209 0
-1134 -2210 0
-1135 -2211 0
-1136 -2212 0
-1153 -1821 0
-1154 -1822 0
-1155 -1823 0
-1156 -1824 0
-1213 -3189 0
-1214 -3190 0
-1215 -3191 0
-1216 -3192 0
-1293 -2585 0
-1294 -2586 0
-1295 -2587 0
-1296 -2588 0
-1329 -2997 0
-1330 -2998 0
-1331 -2999 0
-1332 -3000 0
-1457 -2717 0
-1458 -2718 0
-1459 -2719 0
-1460 -2720 0
-1489 -2057 0
-1490 -2058 0
-1491 -2059 0
-1492 -2060 0
-1501 -2373 0
-1502 -2374 0
-1503 -2375 0
-1504 -2376 0
-1569 -2765 0
-1570 -2766 0
-1571 -2767 0
-1572 -2768 0
-1589 -2733 0
-1590 -2734 0
-1591 -2735 0
-1592 -2736 0
-1605 -3213 0
-1606 -3214 0
-1607 -3215 0
-1608 -3216 0
-1737 -2365 0
-1738 -2366 0
-1739 -2367 0
-1740 -2368 0
-1761 -1949 0
-1762 -1950 0
-1763 -1951 0
-1764 -1952 0
-1885 -2509 0
-1886 -2510 0
-1887 -2511 0
-1888 -2512 0
-1917 -2741 0
-1918 -2742 0
-1919 -2743 0
-1920 -2744 0
-1937 -3397 0
-1938 -3398 0
-1939 -3399 0
-1940 -3400 0
-1993 -3225 0
-1994 -3226 0
-1995 -3227 0
-1996 -3228 0
-1997 -2033 0
-1998 -2034 0
-1999 -2035 0
-2000 -2036 0
-2121 -2849 0
-2122 -2850 0
-2123 -2851 0
-2124 -2852 0
-2473 -2817 0
-2474 -2818 0
-2475 -2819 0
-2476 -2820 0
-2673 -2993 0
-2674 -2994 0
-2675 -2995 0
-2676 -2996 0
-2781 -2985 0
-2782 -2986 0
-2783 -2987 0
-2784 -2988 0
-2789 -3137 0
-2790 -3138 0
-2791 -3139 0
-2792 -3140 0
-21 -181 0
-22 -182 0
-23 -183 0
-24 -184 0
-37 -341 0
-38 -342 0
-39 -343 0
-40 -344 0
-41 -273 0
-42 -274 0
-43 -275 0
-44 -276 0
-61 -1177 0
-62 -1178 0
-63 -1179 0
-64 -1180 0
-85 -1353 0
-86 -1354 0
-87 -1355 0
-88 -1356 0
-101 -105 0
-102 -106 0
-103 -107 0
-104 -108 0
-117 -121 0
-118 -122 0
-119 -123 0
-120 -124 0
-125 -1369 0
-126 -1370 0
-127 -1371 0
-128 -1372 0
-129 -845 0
-130 -846 0
-131 -847 0
-132 -848 0
-133 -813 0
-134 -814 0
-135 -815 0
-136 -816 0
-161 -1813 0
-162 -1814 0
-163 -1815 0
-164 -1816 0
-169 -2689 0
-170 -2690 0
-171 -2691 0
-172 -2692 0
-257 -849 0
-258 -850 0
-259 -851 0
-260 -852 0
-265 -381 0
-266 -382 0
-267 -383 0
-268 -384 0
-281 -1509 0
-282 -1510 0
-283 -1511 0
-284 -1512 0
-285 -1793 0
-286 -1794 0
-287 -1795 0
-288 -1796 0
-309 -1253 0
-310 -1254 0
-311 -1255 0
-312 -1256 0
-325 -453 0
-326 -454 0
-327 -455 0
-328 -456 0
-333 -441 0
-334 -442 0
-335 -443 0
-336 -444 0
-345 -1057 0
-346 -1058 0
-347 -1059 0
-348 -1060 0
-413 -1497 0
-414 -1498 0
-415 -1499 0
-416 -1500 0
-425 -945 0
-426 -946 0
-427 -947 0
-428 -948 0
-437 -993 0
-438 -994 0
-439 -995 0
-440 -996 0
-449 -3177 0
-450 -3178 0
-451 -3179 0
-452 -3180 0
-481 -2885 0
-482 -2886 0
-483 -2887 0
-484 -2888 0
-505 -2157 0
-506 -2158 0
-507 -2159 0
-508 -2160 0
-521 -553 0
-522 -554 0
-523 -555 0
-524 -556 0
-573 -2685 0
-574 -2686 0
-575 -2687 0
-576 -2688 0
-609 -757 0
-610 -758 0
-611 -759 0
-612 -760 0
-617 -2417 0
-618 -2418 0
-619 -2419 0
-620 -2420 0
-653 -825 0
-654 -826 0
-655 -827 0
-656 -828 0
-681 -789 0
-682 -790 0
-683 -791 0
-684 -792 0
-713 -857 0
-714 -858 0
-715 -859 0
-716 -860 0
-721 -937 0
-722 -938 0
-723 -939 0
-724 -940 0
-725 -2297 0
-726 -2298 0
-727 -2299 0
-728 -2300 0
-753 -1993 0
-754 -1994 0
-755 -1995 0
-756 -1996 0
-773 -893 0
-774 -894 0
-775 -895 0
-776 -896 0
-785 -1017 0
-786 -1018 0
-787 -1019 0
-788 -1020 0
-805 -2437 0
-806 -2438 0
-807 -2439 0
-808 -2440 0
-817 -1641 0
-818 -1642 0
-819 -1643 0
-820 -1644 0
-873 -1085 0
-874 -1086 0
-875 -1087 0
-876 -1088 0
-881 -1649 0
-882 -1650 0
-883 -1651 0
-884 -1652 0
-913 -2453 0
-914 -2454 0
-915 -2455 0
-916 -2456 0
-981 -2269 0
-982 -2270 0
-983 -2271 0
-984 -2272 0
-1021 -1257 0
-1022 -1258 0
-1023 -1259 0
-1024 -1260 0
-1029 -1913 0
-1030 -1914 0
-1031 -1915 0
-1032 -1916 0
-1049 -2165 0
-1050 -2166 0
-1051 -2167 0
-1052 -2168 0
-1053 -1337 0
-1054 -1338 0
-1055 -1339 0
-1056 -1340 0
-1065 -1945 0
-1066 -1946 0
-1067 -1947 0
-1068 -1948 0
-1077 -3117 0
-1078 -3118 0
-1079 -3119 0
-1080 -3120 0
-1205 -1317 0
-1206 -1318 0
-1207 -1319 0
-1208 -1320 0
-1345 -2161 0
-1346 -2162 0
-1347 -2163 0
-1348 -2164 0
-1365 -2261 0
-1366 -2262 0
-1367 -2263 0
-1368 -2264 0
-1389 -2349 0
-1390 -2350 0
-1391 -2351 0
-1392 -2352 0
-1421 -2845 0
-1422 -2846 0
-1423 -2847 0
-1424 -2848 0
-1473 -2793 0
-1474 -2794 0
-1475 -2795 0
-1476 -2796 0
-1625 -1797 0
-1626 -1798 0
-1627 -1799 0
-1628 -1800 0
-1689 -2369 0
-1690 -2370 0
-1691 -2371 0
-1692 -2372 0
-1809 -3089 0
-1810 -3090 0
-1811 -3091 0
-1812 -3092 0
-2009 -2309 0
-2010 -2310 0
-2011 -2311 0
-2012 -2312 0
-2045 -2097 0
-2046 -2098 0
-2047 -2099 0
-2048 -2100 0
-2553 -3169 0
-2554 -3170 0
-2555 -3171 0
-2556 -3172 0
-2733 -3393 0
-2734 -3394 0
-2735 -3395 0
-2736 -3396 0
-2821 -3313 0
-2822 -3314 0
-2823 -3315 0
-2824 -3316 0
-2837 -3061 0
-2838 -3062 0
-2839 -3063 0
-2840 -3064 0
-13 -3105 0
-14 -3106 0
-15 -3107 0
-16 -3108 0
-93 -137 0
-94 -138 0
-95 -139 0
-96 -140 0
-129 -2897 0
-130 -2898 0
-131 -2899 0
-132 -2900 0
-229 -361 0
-230 -362 0
-231 -363 0
-232 -364 0
-253 -1961 0
-254 -1962 0
-255 -1963 0
-256 -1964 0
-269 -2637 0
-270 -2638 0
-271 -2639 0
-272 -2640 0
-329 -1461 0
-330 -1462 0
-331 -1463 0
-332 -1464 0
-429 -2137 0
-430 -2138 0
-431 -2139 0
-432 -2140 0
-465 -2497 0
-466 -2498 0
-467 -2499 0
-468 -2500 0
-473 -3245 0
-474 -3246 0
-475 -3247 0
-476 -3248 0
-481 -533 0
-482 -534 0
-483 -535 0
-484 -536 0
-537 -1765 0
-538 -1766 0
-539 -1767 0
-540 -1768 0
-565 -2941 0
-566 -2942 0
-567 -2943 0
-568 -2944 0
-617 -829 0
-618 -830 0
-619 -831 0
-620 -832 0
-641 -801 0
-642 -802 0
-643 -803 0
-644 -804 0
-689 -2221 0
-690 -2222 0
-691 -2223 0
-692 -2224 0
-753 -877 0
-754 -878 0
-755 -879 0
-756 -880 0
-769 -2613 0
-770 -2614 0
-771 -2615 0
-772 -2616 0
-833 -1873 0
-834 -1874 0
-835 -1875 0
-836 -1876 0
-889 -1397 0
-890 -1398 0
-891 -1399 0
-892 -1400 0
-913 -1817 0
-914 -1818 0
-915 -1819 0
-916 -1820 0
-933 -2029 0
-934 -2030 0
-935 -2031 0
-936 -2032 0
-1001 -1161 0
-1002 -1162 0
-1003 -1163 0
-1004 -1164 0
-1009 -2925 0
-1010 -2926 0
-1011 -2927 0
-1012 -2928 0
-1073 -2661 0
-1074 -2662 0
-1075 -2663 0
-1076 -2664 0
-1149 -2313 0
-1150 -2314 0
-1151 -2315 0
-1152 -2316 0
-1197 -1413 0
-1198 -1414 0
-1199 -1415 0
-1200 -1416 0
-1237 -3133 0
-1238 -3134 0
-1239 -3135 0
-1240 -3136 0
-1473 -2549 0
-1474 -2550 0
-1475 -2551 0
-1476 -2552 0
-1477 -1869 0
-1478 -1870 0
-1479 -1871 0
-1480 -1872 0
-1737 -2561 0
-1738 -2562 0
-1739 -2563 0
-1740 -2564 0
-1809 -2621 0
-1810 -2622 0
-1811 -2623 0
-1812 -2624 0
-1821 -2889 0
-1822 -2890 0
-1823 -2891 0
-1824 -2892 0
-1845 -2381 0
-1846 -2382 0
-1847 -2383 0
-1848 -2384 0
-2025 -2929 0
-2026 -2930 0
-2027 -2931 0
-2028 -2932 0
-2049 -2833 0
-2050 -2834 0
-2051 -2835 0
-2052 -2836 0
-2109 -3025 0
-2110 -3026 0
-2111 -3027 0
-2112 -3028 0
-2145 -2253 0
-2146 -2254 0
-2147 -2255 0
-2148 -2256 0
-2553 -3241 0
-2554 -3242 0
-2555 -3243 0
-2556 -3244 0
-2569 -3041 0
-2570 -3042 0
-2571 -3043 0
-2572 -3044 0
-2633 -3205 0
-2634 -3206 0
-2635 -3207 0
-2636 -3208 0
-2869 -3049 0
-2870 -3050 0
-2871 -3051 0
-2872 -3052 0
-1 -1981 0
-2 -1982 0
-3 -1983 0
-4 -1984 0
-9 -13 0
-10 -14 0
-11 -15 0
-12 -16 0
-33 -2197 0
-34 -2198 0
-35 -2199 0
-36 -2200 0
-89 -625 0
-90 -626 0
-91 -627 0
-92 -628 0
-109 -909 0
-110 -910 0
-111 -911 0
-112 -912 0
-125 -257 0
-126 -258 0
-127 -259 0
-128 -260 0
-129 -669 0
-130 -670 0
-131 -671 0
-132 -672 0
-141 -377 0
-142 -378 0
-143 -379 0
-144 -380 0
-145 -565 0
-146 -566 0
-147 -567 0
-148 -568 0
-157 -161 0
-158 -162 0
-159 -163 0
-160 -164 0
-233 -745 0
-234 -746 0
-235 -747 0
-236 -748 0
-249 -689 0
-250 -690 0
-251 -691 0
-252 -692 0
-253 -269 0
-254 -270 0
-255 -271 0
-256 -272 0
-289 -3357 0
-290 -3358 0
-291 -3359 0
-292 -3360 0
-405 -1269 0
-406 -1270 0
-407 -1271 0
-408 -1272 0
-441 -1393 0
-442 -1394 0
-443 -1395 0
-444 -1396 0
-465 -2049 0
-466 -2050 0
-467 -2051 0
-468 -2052 0
-489 -1061 0
-490 -1062 0
-491 -1063 0
-492 -1064 0
-517 -2165 0
-518 -2166 0
-519 -2167 0
-520 -2168 0
-525 -1309 0
-526 -1310 0
-527 -1311 0
-528 -1312 0
-529 -1645 0
-530 -1646 0
-531 -1647 0
-532 -1648 0
-577 -1785 0
-578 -1786 0
-579 -1787 0
-580 -1788 0
-585 -2725 0
-586 -2726 0
-587 -2727 0
-588 -2728 0
-637 -1049 0
-638 -1050 0
-639 -1051 0
-640 -1052 0
-657 -2213 0
-658 -2214 0
-659 -2215 0
-660 -2216 0
-733 -2533 0
-734 -2534 0
-735 -2535 0
-736 -2536 0
-741 -1101 0
-742 -1102 0
-743 -1103 0
-744 -1104 0
-769 -2945 0
-770 -2946 0
-771 -2947 0
-772 -2948 0
-773 -1053 0
-774 -1054 0
-775 -1055 0
-776 -1056 0
-797 -2389 0
-798 -2390 0
-799 -2391 0
-800 -2392 0
-893 -1337 0
-894 -1338 0
-895 -1339 0
-896 -1340 0
-965 -985 0
-966 -986 0
-967 -987 0
-968 -988 0
-1109 -1505 0
-1110 -1506 0
-1111 -1507 0
-1112 -1508 0
-1169 -2965 0
-1170 -2966 0
-1171 -2967 0
-1172 -2968 0
-1189 -1521 0
-1190 -1522 0
-1191 -1523 0
-1192 -1524 0
-1261 -1921 0
-1262 -1922 0
-1263 -1923 0
-1264 -1924 0
-1293 -1569 0
-1294 -1570 0
-1295 -1571 0
-1296 -1572 0
-1345 -1453 0
-1346 -1454 0
-1347 -1455 0
-1348 -1456 0
-1553 -1573 0
-1554 -1574 0
-1555 -1575 0
-1556 -1576 0
-1625 -2445 0
-1626 -2446 0
-1627 -2447 0
-1628 -2448 0
-1637 -1977 0
-1638 -1978 0
-1639 -1979 0
-1640 -1980 0
-1725 -1877 0
-1726 -1878 0
-1727 -1879 0
-1728 -1880 0
-1797 -2249 0
-1798 -2250 0
-1799 -2251 0
-1800 -2252 0
-1849 -2081 0
-1850 -2082 0
-1851 -2083 0
-1852 -2084 0
-1933 -3385 0
-1934 -3386 0
-1935 -3387 0
-1936 -3388 0
-1961 -2637 0
-1962 -2638 0
-1963 -2639 0
-1964 -2640 0
-2153 -3345 0
-2154 -3346 0
-2155 -3347 0
-2156 -3348 0
-2169 -2293 0
-2170 -2294 0
-2171 -2295 0
-2172 -2296 0
-2497 -2833 0
-2498 -2834 0
-2499 -2835 0
-2500 -2836 0
-2501 -3349 0
-2502 -3350 0
-2503 -3351 0
-2504 -3352 0
-2525 -3097 0
-2526 -3098 0
-2527 -3099 0
-2528 -3100 0
-2585 -2765 0
-2586 -2766 0
-2587 -2767 0
-2588 -2768 0
-2613 -2657 0
-2614 -2658 0
-2615 -2659 0
-2616 -2660 0
-2749 -3281 0
-2750 -3282 0
-2751 -3283 0
-2752 -3284 0
-2905 -3377 0
-2906 -3378 0
-2907 -3379 0
-2908 -3380 0
-2953 -3233 0
-2954 -3234 0
-2955 -3235 0
-2956 -3236 0
-2985 -2993 0
-2986 -2994 0
-2987 -2995 0
-2988 -2996 0
-3141 -3261 0
-3142 -3262 0
-3143 -3263 0
-3144 -3264 0
-3153 -3265 0
-3154 -3266 0
-3155 -3267 0
-3156 -3268 0
-25 -1929 0
-26 -1930 0
-27 -1931 0
-28 -1932 0
-29 -3321 0
-30 -3322 0
-31 -3323 0
-32 -3324 0
-33 -2669 0
-34 -2670 0
-35 -2671 0
-36 -2672 0
-37 -1709 0
-38 -1710 0
-39 -1711 0
-40 -1712 0
-85 -997 0
-86 -998 0
-87 -999 0
-88 -1000 0
-105 -273 0
-106 -274 0
-107 -275 0
-108 -276 0
-145 -441 0
-146 -442 0
-147 -443 0
-148 -444 0
-149 -197 0
-150 -198 0
-151 -199 0
-152 -200 0
-153 -1641 0
-154 -1642 0
-155 -1643 0
-156 -1644 0
-177 -3333 0
-178 -3334 0
-179 -3335 0
-180 -3336 0
-209 -937 0
-210 -938 0
-211 -939 0
-212 -940 0
-217 -1329 0
-218 -1330 0
-219 -1331 0
-220 -1332 0
-229 -1697 0
-230 -1698 0
-231 -1699 0
-232 -1700 0
-281 -1277 0
-282 -1278 0
-283 -1279 0
-284 -1280 0
-285 -2333 0
-286 -2334 0
-287 -2335 0
-288 -2336 0
-293 -2433 0
-294 -2434 0
-295 -2435 0
-296 -2436 0
-317 -817 0
-318 -818 0
-319 -819 0
-320 -820 0
-325 -1925 0
-326 -1926 0
-327 -1927 0
-328 -1928 0
-357 -1617 0
-358 -1618 0
-359 -1619 0
-360 -1620 0
-397 -857 0
-398 -858 0
-399 -859 0
-400 -860 0
-417 -1041 0
-418 -1042 0
-419 -1043 0
-420 -1044 0
-425 -461 0
-426 -462 0
-427 -463 0
-428 -464 0
-433 -845 0
-434 -846 0
-435 -847 0
-436 -848 0
-497 -2881 0
-498 -2882 0
-499 -2883 0
-500 -2884 0
-501 -629 0
-502 -630 0
-503 -631 0
-504 -632 0
-513 -1133 0
-514 -1134 0
-515 -1135 0
-516 -1136 0
-549 -2101 0
-550 -2102 0
-551 -2103 0
-552 -2104 0
-565 -1393 0
-566 -1394 0
-567 -1395 0
-568 -1396 0
-613 -713 0
-614 -714 0
-615 -715 0
-616 -716 0
-621 -2617 0
-622 -2618 0
-623 -2619 0
-624 -2620 0
-633 -3045 0
-634 -3046 0
-635 -3047 0
-636 -3048 0
-665 -1241 0
-666 -1242 0
-667 -1243 0
-668 -1244 0
-681 -1377 0
-682 -1378 0
-683 -1379 0
-684 -1380 0
-689 -745 0
-690 -746 0
-691 -747 0
-692 -748 0
-697 -1593 0
-698 -1594 0
-699 -1595 0
-700 -1596 0
-725 -1173 0
-726 -1174 0
-727 -1175 0
-728 -1176 0
-733 -1089 0
-734 -1090 0
-735 -1091 0
-736 -1092 0
-757 -813 0
-758 -814 0
-759 -815 0
-760 -816 0
-761 -1677 0
-762 -1678 0
-763 -1679 0
-764 -1680 0
-773 -2257 0
-774 -2258 0
-775 -2259 0
-776 -2260 0
-833 -2453 0
-834 -2454 0
-835 -2455 0
-836 -2456 0
-901 -1385 0
-902 -1386 0
-903 -1387 0
-904 -1388 0
-933 -1573 0
-934 -1574 0
-935 -1575 0
-936 -1576 0
-965 -1109 0
-966 -1110 0
-967 -1111 0
-968 -1112 0
-985 -1505 0
-986 -1506 0
-987 -1507 0
-988 -1508 0
-1021 -1745 0
-1022 -1746 0
-1023 -1747 0
-1024 -1748 0
-1045 -2649 0
-1046 -2650 0
-1047 -2651 0
-1048 -2652 0
-1053 -1941 0
-1054 -1942 0
-1055 -1943 0
-1056 -1944 0
-1073 -2793 0
-1074 -2794 0
-1075 -2795 0
-1076 -2796 0
-1117 -1405 0
-1118 -1406 0
-1119 -1407 0
-1120 -1408 0
-1153 -1237 0
-1154 -1238 0
-1155 -1239 0
-1156 -1240 0
-1169 -1893 0
-1170 -1894 0
-1171 -1895 0
-1172 -1896 0
-1333 -2481 0
-1334 -2482 0
-1335 -2483 0
-1336 -2484 0
-1429 -2801 0
-1430 -2802 0
-1431 -2803 0
-1432 -2804 0
-1441 -2041 0
-1442 -2042 0
-1443 -2043 0
-1444 -2044 0
-1461 -1969 0
-1462 -1970 0
-1463 -1971 0
-1464 -1972 0
-1549 -1797 0
-1550 -1798 0
-1551 -1799 0
-1552 -1800 0
-1681 -2353 0
-1682 -2354 0
-1683 -2355 0
-1684 -2356 0
-1741 -2969 0
-1742 -2970 0
-1743 -2971 0
-1744 -2972 0
-2009 -2829 0
-2010 -2830 0
-2011 -2831 0
-2012 -2832 0
-2085 -2217 0
-2086 -2218 0
-2087 -2219 0
-2088 -2220 0
-2109 -2397 0
-2110 -2398 0
-2111 -2399 0
-2112 -2400 0
-2237 -2341 0
-2238 -2342 0
-2239 -2343 0
-2240 -2344 0
-2517 -2609 0
-2518 -2610 0
-2519 -2611 0
-2520 -2612 0
-2557 -2869 0
-2558 -2870 0
-2559 -2871 0
-2560 -2872 0
-2681 -2789 0
-2682 -2790 0
-2683 -2791 0
-2684 -2792 0
-9 -2493 0
-10 -2494 0
-11 -2495 0
-12 -2496 0
-13 -2097 0
-14 -2098 0
-15 -2099 0
-16 -2100 0
-29 -33 0
-30 -34 0
-31 -35 0
-32 -36 0
-37 -2089 0
-38 -2090 0
-39 -2091 0
-40 -2092 0
-41 -193 0
-42 -194 0
-43 -195 0
-44 -196 0
-61 -65 0
-62 -66 0
-63 -67 0
-64 -68 0
-101 -345 0
-102 -346 0
-103 -347 0
-104 -348 0
-105 -1057 0
-106 -1058 0
-107 -1059 0
-108 -1060 0
-133 -897 0
-134 -898 0
-135 -899 0
-136 -900 0
-165 -1721 0
-166 -1722 0
-167 -1723 0
-168 -1724 0
-169 -177 0
-170 -178 0
-171 -179 0
-172 -180 0
-221 -541 0
-222 -542 0
-223 -543 0
-224 -544 0
-265 -2125 0
-266 -2126 0
-267 -2127 0
-268 -2128 0
-285 -497 0
-286 -498 0
-287 -499 0
-288 -500 0
-297 -1593 0
-298 -1594 0
-299 -1595 0
-300 -1596 0
-321 -489 0
-322 -490 0
-323 -491 0
-324 -492 0
-357 -1777 0
-358 -1778 0
-359 -1779 0
-360 -1780 0
-365 -697 0
-366 -698 0
-367 -699 0
-368 -700 0
-413 -601 0
-414 -602 0
-415 -603 0
-416 -604 0
-421 -445 0
-422 -446 0
-423 -447 0
-424 -448 0
-425 -761 0
-426 -762 0
-427 -763 0
-428 -764 0
-429 -2273 0
-430 -2274 0
-431 -2275 0
-432 -2276 0
-453 -1353 0
-454 -1354 0
-455 -1355 0
-456 -1356 0
-461 -1677 0
-462 -1678 0
-463 -1679 0
-464 -1680 0
-481 -1149 0
-482 -1150 0
-483 -1151 0
-484 -1152 0
-525 -1773 0
-526 -1774 0
-527 -1775 0
-528 -1776 0
-533 -2313 0
-534 -2314 0
-535 -2315 0
-536 -2316 0
-545 -2045 0
-546 -2046 0
-547 -2047 0
-548 -2048 0
-553 -1253 0
-554 -1254 0
-555 -1255 0
-556 -1256 0
-573 -821 0
-574 -822 0
-575 -823 0
-576 -824 0
-577 -2853 0
-578 -2854 0
-579 -2855 0
-580 -2856 0
-609 -1125 0
-610 -1126 0
-611 -1127 0
-612 -1128 0
-633 -901 0
-634 -902 0
-635 -903 0
-636 -904 0
-641 -1001 0
-642 -1002 0
-643 -1003 0
-644 -1004 0
-741 -2301 0
-742 -2302 0
-743 -2303 0
-744 -2304 0
-777 -809 0
-778 -810 0
-779 -811 0
-780 -812 0
-781 -1033 0
-782 -1034 0
-783 -1035 0
-784 -1036 0
-801 -1161 0
-802 -1162 0
-803 -1163 0
-804 -1164 0
-837 -2421 0
-838 -2422 0
-839 -2423 0
-840 -2424 0
-1113 -1273 0
-1114 -1274 0
-1115 -1275 0
-1116 -1276 0
-1141 -1437 0
-1142 -1438 0
-1143 -1439 0
-1144 -1440 0
-1165 -1585 0
-1166 -1586 0
-1167 -1587 0
-1168 -1588 0
-1185 -2629 0
-1186 -2630 0
-1187 -2631 0
-1188 -2632 0
-1197 -2589 0
-1198 -2590 0
-1199 -2591 0
-1200 -2592 0
-1201 -2605 0
-1202 -2606 0
-1203 -2607 0
-1204 -2608 0
-1225 -2001 0
-1226 -2002 0
-1227 -2003 0
-1228 -2004 0
-1237 -2501 0
-1238 -2502 0
-1239 -2503 0
-1240 -2504 0
-1321 -2505 0
-1322 -2506 0
-1323 -2507 0
-1324 -2508 0
-1357 -1693 0
-1358 -1694 0
-1359 -1695 0
-1360 -1696 0
-1373 -1597 0
-1374 -1598 0
-1375 -1599 0
-1376 -1600 0
-1425 -2017 0
-1426 -2018 0
-1427 -2019 0
-1428 -2020 0
-1501 -2873 0
-1502 -2874 0
-1503 -2875 0
-1504 -2876 0
-1557 -2989 0
-1558 -2990 0
-1559 -2991 0
-1560 -2992 0
-1605 -2037 0
-1606 -2038 0
-1607 -2039 0
-1608 -2040 0
-1625 -1689 0
-1626 -1690 0
-1627 -1691 0
-1628 -1692 0
-1665 -1829 0
-1666 -1830 0
-1667 -1831 0
-1668 -1832 0
-1725 -2169 0
-1726 -2170 0
-1727 -2171 0
-1728 -2172 0
-1737 -2949 0
-1738 -2950 0
-1739 -2951 0
-1740 -2952 0
-1797 -2369 0
-1798 -2370 0
-1799 -2371 0
-1800 -2372 0
-1805 -2133 0
-1806 -2134 0
-1807 -2135 0
-1808 -2136 0
-1877 -2293 0
-1878 -2294 0
-1879 -2295 0
-1880 -2296 0
-1957 -3201 0
-1958 -3202 0
-1959 -3203 0
-1960 -3204 0
-2185 -2953 0
-2186 -2954 0
-2187 -2955 0
-2188 -2956 0
-2249 -2261 0
-2250 -2262 0
-2251 -2263 0
-2252 -2264 0
-2285 -2409 0
-2286 -2410 0
-2287 -2411 0
-2288 -2412 0
-2333 -2881 0
-2334 -2882 0
-2335 -2883 0
-2336 -2884 0
-2401 -2537 0
-2402 -2538 0
-2403 -2539 0
-2404 -2540 0
-2541 -3277 0
-2542 -3278 0
-2543 -3279 0
-2544 -3280 0
-2617 -3121 0
-2618 -3122 0
-2619 -3123 0
-2620 -3124 0
-2869 -3165 0
-2870 -3166 0
-2871 -3167 0
-2872 -3168 0
-41 -3049 0
-42 -3050 0
-43 -3051 0
-44 -3052 0
-85 -1977 0
-86 -1978 0
-87 -1979 0
-88 -1980 0
-129 -153 0
-130 -154 0
-131 -155 0
-132 -156 0
-229 -833 0
-230 -834 0
-231 -835 0
-232 -836 0
-233 -341 0
-234 -342 0
-235 -343 0
-236 -344 0
-245 -1749 0
-246 -1750 0
-247 -1751 0
-248 -1752 0
-249 -2349 0
-250 -2350 0
-251 -2351 0
-252 -2352 0
-289 -1085 0
-290 -1086 0
-291 -1087 0
-292 -1088 0
-361 -1873 0
-362 -1874 0
-363 -1875 0
-364 -1876 0
-457 -621 0
-458 -622 0
-459 -623 0
-460 -624 0
-557 -2657 0
-558 -2658 0
-559 -2659 0
-560 -2660 0
-561 -625 0
-562 -626 0
-563 -627 0
-564 -628 0
-585 -3313 0
-586 -3314 0
-587 -3315 0
-588 -3316 0
-593 -1213 0
-594 -1214 0
-595 -1215 0
-596 -1216 0
-597 -3213 0
-598 -3214 0
-599 -3215 0
-600 -3216 0
-713 -2673 0
-714 -2674 0
-715 -2675 0
-716 -2676 0
-729 -1569 0
-730 -1570 0
-731 -1571 0
-732 -1572 0
-733 -2677 0
-734 -2678 0
-735 -2679 0
-736 -2680 0
-765 -905 0
-766 -906 0
-767 -907 0
-768 -908 0
-837 -2249 0
-838 -2250 0
-839 -2251 0
-840 -2252 0
-853 -2205 0
-854 -2206 0
-855 -2207 0
-856 -2208 0
-953 -1061 0
-954 -1062 0
-955 -1063 0
-956 -1064 0
-1041 -2165 0
-1042 -2166 0
-1043 -2167 0
-1044 -2168 0
-1089 -2201 0
-1090 -2202 0
-1091 -2203 0
-1092 -2204 0
-1237 -1793 0
-1238 -1794 0
-1239 -1795 0
-1240 -1796 0
-1373 -1497 0
-1374 -1498 0
-1375 -1499 0
-1376 -1500 0
-1473 -2317 0
-1474 -2318 0
-1475 -2319 0
-1476 -2320 0
-1533 -1981 0
-1534 -1982 0
-1535 -1983 0
-1536 -1984 0
-1625 -2373 0
-1626 -2374 0
-1627 -2375 0
-1628 -2376 0
-1673 -2237 0
-1674 -2238 0
-1675 -2239 0
-1676 -2240 0
-1697 -2453 0
-1698 -2454 0
-1699 -2455 0
-1700 -2456 0
-1761 -2265 0
-1762 -2266 0
-1763 -2267 0
-1764 -2268 0
-1825 -2765 0
-1826 -2766 0
-1827 -2767 0
-1828 -2768 0
-1865 -2297 0
-1866 -2298 0
-1867 -2299 0
-1868 -2300 0
-1901 -3405 0
-1902 -3406 0
-1903 -3407 0
-1904 -3408 0
-2477 -2869 0
-2478 -2870 0
-2479 -2871 0
-2480 -2872 0
-2509 -3353 0
-2510 -3354 0
-2511 -3355 0
-2512 -3356 0
-37 -449 0
-38 -450 0
-39 -451 0
-40 -452 0
-121 -181 0
-122 -182 0
-123 -183 0
-124 -184 0
-133 -1093 0
-134 -1094 0
-135 -1095 0
-136 -1096 0
-137 -1405 0
-138 -1406 0
-139 -1407 0
-140 -1408 0
-153 -409 0
-154 -410 0
-155 -411 0
-156 -412 0
-201 -693 0
-202 -694 0
-203 -695 0
-204 -696 0
-245 -2573 0
-246 -2574 0
-247 -2575 0
-248 -2576 0
-317 -1781 0
-318 -1782 0
-319 -1783 0
-320 -1784 0
-341 -3177 0
-342 -3178 0
-343 -3179 0
-344 -3180 0
-365 -1233 0
-366 -1234 0
-367 -1235 0
-368 -1236 0
-389 -1101 0
-390 -1102 0
-391 -1103 0
-392 -1104 0
-477 -3281 0
-478 -3282 0
-479 -3283 0
-480 -3284 0
-505 -3261 0
-506 -3262 0
-507 -3263 0
-508 -3264 0
-561 -1533 0
-562 -1534 0
-563 -1535 0
-564 -1536 0
-625 -1981 0
-626 -1982 0
-627 -1983 0
-628 -1984 0
-681 -2105 0
-682 -2106 0
-683 -2107 0
-684 -2108 0
-697 -929 0
-698 -930 0
-699 -931 0
-700 -932 0
-705 -1561 0
-706 -1562 0
-707 -1563 0
-708 -1564 0
-749 -1117 0
-750 -1118 0
-751 -1119 0
-752 -1120 0
-769 -1433 0
-770 -1434 0
-771 -1435 0
-772 -1436 0
-793 -1437 0
-794 -1438 0
-795 -1439 0
-796 -1440 0
-805 -2973 0
-806 -2974 0
-807 -2975 0
-808 -2976 0
-885 -1913 0
-886 -1914 0
-887 -1915 0
-888 -1916 0
-917 -2053 0
-918 -2054 0
-919 -2055 0
-920 -2056 0
-1173 -2101 0
-1174 -2102 0
-1175 -2103 0
-1176 -2104 0
-1293 -2565 0
-1294 -2566 0
-1295 -2567 0
-1296 -2568 0
-1449 -1713 0
-1450 -1714 0
-1451 -1715 0
-1452 -1716 0
-1457 -2893 0
-1458 -2894 0
-1459 -2895 0
-1460 -2896 0
-1665 -2393 0
-1666 -2394 0
-1667 -2395 0
-1668 -2396 0
-1793 -2689 0
-1794 -2690 0
-1795 -2691 0
-1796 -2692 0
-2021 -2361 0
-2022 -2362 0
-2023 -2363 0
-2024 -2364 0
-2121 -2597 0
-2122 -2598 0
-2123 -2599 0
-2124 -2600 0
-2317 -3065 0
-2318 -3066 0
-2319 -3067 0
-2320 -3068 0
-2505 -3381 0
-2506 -3382 0
-2507 -3383 0
-2508 -3384 0
-2581 -2749 0
-2582 -2750 0
-2583 -2751 0
-2584 -2752 0
-2809 -3141 0
-2810 -3142 0
-2811 -3143 0
-2812 -3144 0
-2881 -3333 0
-2882 -3334 0
-2883 -3335 0
-2884 -3336 0
-2917 -3373 0
-2918 -3374 0
-2919 -3375 0
-2920 -3376 0
-1 -1041 0
-2 -1042 0
-3 -1043 0
-4 -1044 0
-9 -2425 0
-10 -2426 0
-11 -2427 0
-12 -2428 0
-29 -3249 0
-30 -3250 0
-31 -3251 0
-32 -3252 0
-89 -1133 0
-90 -1134 0
-91 -1135 0
-92 -1136 0
-129 -729 0
-130 -730 0
-131 -731 0
-132 -732 0
-153 -1569 0
-154 -1570 0
-155 -1571 0
-156 -1572 0
-209 -3301 0
-210 -3302 0
-211 -3303 0
-212 -3304 0
-221 -3241 0
-222 -3242 0
-223 -3243 0
-224 -3244 0
-253 -1629 0
-254 -1630 0
-255 -1631 0
-256 -1632 0
-289 -557 0
-290 -558 0
-291 -559 0
-292 -560 0
-301 -2029 0
-302 -2030 0
-303 -2031 0
-304 -2032 0
-321 -1413 0
-322 -1414 0
-323 -1415 0
-324 -1416 0
-429 -913 0
-430 -914 0
-431 -915 0
-432 -916 0
-481 -737 0
-482 -738 0
-483 -739 0
-484 -740 0
-569 -2209 0
-570 -2210 0
-571 -2211 0
-572 -2212 0
-593 -949 0
-594 -950 0
-595 -951 0
-596 -952 0
-621 -985 0
-622 -986 0
-623 -987 0
-624 -988 0
-653 -1217 0
-654 -1218 0
-655 -1219 0
-656 -1220 0
-701 -1777 0
-702 -1778 0
-703 -1779 0
-704 -1780 0
-765 -2921 0
-766 -2922 0
-767 -2923 0
-768 -2924 0
-789 -2417 0
-790 -2418 0
-791 -2419 0
-792 -2420 0
-805 -1365 0
-806 -1366 0
-807 -1367 0
-808 -1368 0
-865 -953 0
-866 -954 0
-867 -955 0
-868 -956 0
-881 -3053 0
-882 -3054 0
-883 -3055 0
-884 -3056 0
-893 -1057 0
-894 -1058 0
-895 -1059 0
-896 -1060 0
-905 -1049 0
-906 -1050 0
-907 -1051 0
-908 -1052 0
-1013 -2065 0
-1014 -2066 0
-1015 -2067 0
-1016 -2068 0
-1073 -1829 0
-1074 -1830 0
-1075 -1831 0
-1076 -1832 0
-1085 -2657 0
-1086 -2658 0
-1087 -2659 0
-1088 -2660 0
-1105 -2765 0
-1106 -2766 0
-1107 -2767 0
-1108 -2768 0
-1169 -3245 0
-1170 -3246 0
-1171 -3247 0
-1172 -3248 0
-1189 -1397 0
-1190 -1398 0
-1191 -1399 0
-1192 -1400 0
-1477 -1825 0
-1478 -1826 0
-1479 -1827 0
-1480 -1828 0
-1625 -1905 0
-1626 -1906 0
-1627 -1907 0
-1628 -1908 0
-1769 -3149 0
-1770 -3150 0
-1771 -3151 0
-1772 -3152 0
-1889 -2221 0
-1890 -2222 0
-1891 -2223 0
-1892 -2224 0
-2025 -2769 0
-2026 -2770 0
-2027 -2771 0
-2028 -2772 0
-2117 -3105 0
-2118 -3106 0
-2119 -3107 0
-2120 -3108 0
-2785 -3037 0
-2786 -3038 0
-2787 -3039 0
-2788 -3040 0
-37 -1313 0
-38 -1314 0
-39 -1315 0
-40 -1316 0
-45 -49 0
-46 -50 0
-47 -51 0
-48 -52 0
-85 -445 0
-86 -446 0
-87 -447 0
-88 -448 0
-101 -801 0
-102 -802 0
-103 -803 0
-104 -804 0
-109 -2269 0
-110 -2270 0
-111 -2271 0
-112 -2272 0
-125 -1849 0
-126 -1850 0
-127 -1851 0
-128 -1852 0
-129 -289 0
-130 -290 0
-131 -291 0
-132 -292 0
-133 -137 0
-134 -138 0
-135 -139 0
-136 -140 0
-153 -1085 0
-154 -1086 0
-155 -1087 0
-156 -1088 0
-169 -1465 0
-170 -1466 0
-171 -1467 0
-172 -1468 0
-225 -981 0
-226 -982 0
-227 -983 0
-228 -984 0
-229 -509 0
-230 -510 0
-231 -511 0
-232 -512 0
-249 -469 0
-250 -470 0
-251 -471 0
-252 -472 0
-253 -1769 0
-254 -1770 0
-255 -1771 0
-256 -1772 0
-257 -2081 0
-258 -2082 0
-259 -2083 0
-260 -2084 0
-317 -873 0
-318 -874 0
-319 -875 0
-320 -876 0
-321 -2117 0
-322 -2118 0
-323 -2119 0
-324 -2120 0
-325 -421 0
-326 -422 0
-327 -423 0
-328 -424 0
-345 -1161 0
-346 -1162 0
-347 -1163 0
-348 -1164 0
-401 -3161 0
-402 -3162 0
-403 -3163 0
-404 -3164 0
-405 -485 0
-406 -486 0
-407 -487 0
-408 -488 0
-433 -825 0
-434 -826 0
-435 -827 0
-436 -828 0
-489 -1945 0
-490 -1946 0
-491 -1947 0
-492 -1948 0
-501 -1005 0
-502 -1006 0
-503 -1007 0
-504 -1008 0
-529 -1257 0
-530 -1258 0
-531 -1259 0
-532 -1260 0
-585 -589 0
-586 -590 0
-587 -591 0
-588 -592 0
-593 -653 0
-594 -654 0
-595 -655 0
-596 -656 0
-609 -749 0
-610 -750 0
-611 -751 0
-612 -752 0
-617 -2305 0
-618 -2306 0
-619 -2307 0
-620 -2308 0
-637 -1493 0
-638 -1494 0
-639 -1495 0
-640 -1496 0
-645 -1045 0
-646 -1046 0
-647 -1047 0
-648 -1048 0
-669 -3357 0
-670 -3358 0
-671 -3359 0
-672 -3360 0
-733 -1021 0
-734 -1022 0
-735 -1023 0
-736 -1024 0
-785 -1205 0
-786 -1206 0
-787 -1207 0
-788 -1208 0
-797 -1065 0
-798 -1066 0
-799 -1067 0
-800 -1068 0
-949 -1217 0
-950 -1218 0
-951 -1219 0
-952 -1220 0
-953 -3041 0
-954 -3042 0
-955 -3043 0
-956 -3044 0
-989 -1585 0
-990 -1586 0
-991 -1587 0
-992 -1588 0
-1017 -1317 0
-1018 -1318 0
-1019 -1319 0
-1020 -1320 0
-1069 -2253 0
-1070 -2254 0
-1071 -2255 0
-1072 -2256 0
-1073 -2309 0
-1074 -2310 0
-1075 -2311 0
-1076 -2312 0
-1089 -1745 0
-1090 -1746 0
-1091 -1747 0
-1092 -1748 0
-1093 -1405 0
-1094 -1406 0
-1095 -1407 0
-1096 -1408 0
-1097 -1165 0
-1098 -1166 0
-1099 -1167 0
-1100 -1168 0
-1141 -1309 0
-1142 -1310 0
-1143 -1311 0
-1144 -1312 0
-1265 -1517 0
-1266 -1518 0
-1267 -1519 0
-1268 -1520 0
-1277 -1329 0
-1278 -1330 0
-1279 -1331 0
-1280 -1332 0
-1293 -2613 0
-1294 -2614 0
-1295 -2615 0
-1296 -2616 0
-1413 -3105 0
-1414 -3106 0
-1415 -3107 0
-1416 -3108 0
-1469 -2217 0
-1470 -2218 0
-1471 -2219 0
-1472 -2220 0
-1473 -2829 0
-1474 -2830 0
-1475 -2831 0
-1476 -2832 0
-1477 -2909 0
-1478 -2910 0
-1479 -2911 0
-1480 -2912 0
-1569 -2657 0
-1570 -2658 0
-1571 -2659 0
-1572 -2660 0
-1597 -1773 0
-1598 -1774 0
-1599 -1775 0
-1600 -1776 0
-1629 -3149 0
-1630 -3150 0
-1631 -3151 0
-1632 -3152 0
-1665 -1805 0
-1666 -1806 0
-1667 -1807 0
-1668 -1808 0
-1717 -3017 0
-1718 -3018 0
-1719 -3019 0
-1720 -3020 0
-1753 -2057 0
-1754 -2058 0
-1755 -2059 0
-1756 -2060 0
-1829 -2133 0
-1830 -2134 0
-1831 -2135 0
-1832 -2136 0
-1837 -2009 0
-1838 -2010 0
-1839 -2011 0
-1840 -2012 0
-1901 -1941 0
-1902 -1942 0
-1903 -1943 0
-1904 -1944 0
-1993 -2685 0
-1994 -2686 0
-1995 -2687 0
-1996 -2688 0
-2029 -2941 0
-2030 -2942 0
-2031 -2943 0
-2032 -2944 0
-2321 -3085 0
-2322 -3086 0
-2323 -3087 0
-2324 -3088 0
-2357 -3037 0
-2358 -3038 0
-2359 -3039 0
-2360 -3040 0
-2605 -2629 0
-2606 -2630 0
-2607 -2631 0
-2608 -2632 0
-2645 -2785 0
-2646 -2786 0
-2647 -2787 0
-2648 -2788 0
-2917 -3009 0
-2918 -3010 0
-2919 -3011 0
-2920 -3012 0
-13 -1913 0
-14 -1914 0
-15 -1915 0
-16 -1916 0
-93 -1729 0
-94 -1730 0
-95 -1731 0
-96 -1732 0
-97 -3121 0
-98 -3122 0
-99 -3123 0
-100 -3124 0
-101 -1733 0
-102 -1734 0
-103 -1735 0
-104 -1736 0
-125 -3077 0
-126 -3078 0
-127 -3079 0
-128 -3080 0
-133 -989 0
-134 -990 0
-135 -991 0
-136 -992 0
-137 -1585 0
-138 -1586 0
-139 -1587 0
-140 -1588 0
-169 -409 0
-170 -410 0
-171 -411 0
-172 -412 0
-209 -353 0
-210 -354 0
-211 -355 0
-212 -356 0
-257 -2177 0
-258 -2178 0
-259 -2179 0
-260 -2180 0
-265 -869 0
-266 -870 0
-267 -871 0
-268 -872 0
-325 -1137 0
-326 -1138 0
-327 -1139 0
-328 -1140 0
-369 -2617 0
-370 -2618 0
-371 -2619 0
-372 -2620 0
-461 -857 0
-462 -858 0
-463 -859 0
-464 -860 0
-545 -1029 0
-546 -1030 0
-547 -1031 0
-548 -1032 0
-553 -3177 0
-554 -3178 0
-555 -3179 0
-556 -3180 0
-641 -1381 0
-642 -1382 0
-643 -1383 0
-644 -1384 0
-665 -2949 0
-666 -2950 0
-667 -2951 0
-668 -2952 0
-901 -1057 0
-902 -1058 0
-903 -1059 0
-904 -1060 0
-921 -3317 0
-922 -3318 0
-923 -3319 0
-924 -3320 0
-1113 -1561 0
-1114 -1562 0
-1115 -1563 0
-1116 -1564 0
-1209 -3233 0
-1210 -3234 0
-1211 -3235 0
-1212 -3236 0
-1429 -2153 0
-1430 -2154 0
-1431 -2155 0
-1432 -2156 0
-1457 -2037 0
-1458 -2038 0
-1459 -2039 0
-1460 -2040 0
-1609 -2565 0
-1610 -2566 0
-1611 -2567 0
-1612 -2568 0
-1837 -2953 0
-1838 -2954 0
-1839 -2955 0
-1840 -2956 0
-1845 -2405 0
-1846 -2406 0
-1847 -2407 0
-1848 -2408 0
-2009 -2853 0
-2010 -2854 0
-2011 -2855 0
-2012 -2856 0
-2041 -2433 0
-2042 -2434 0
-2043 -2435 0
-2044 -2436 0
-2069 -2517 0
-2070 -2518 0
-2071 -2519 0
-2072 -2520 0
-2121 -2193 0
-2122 -2194 0
-2123 -2195 0
-2124 -2196 0
-2445 -3005 0
-2446 -3006 0
-2447 -3007 0
-2448 -3008 0
-2785 -3145 0
-2786 -3146 0
-2787 -3147 0
-2788 -3148 0
-37 -2733 0
-38 -2734 0
-39 -2735 0
-40 -2736 0
-61 -1957 0
-62 -1958 0
-63 -1959 0
-64 -1960 0
-65 -3201 0
-66 -3202 0
-67 -3203 0
-68 -3204 0
-101 -1853 0
-102 -1854 0
-103 -1855 0
-104 -1856 0
-105 -313 0
-106 -314 0
-107 -315 0
-108 -316 0
-113 -1229 0
-114 -1230 0
-115 -1231 0
-116 -1232 0
-129 -1089 0
-130 -1090 0
-131 -1091 0
-132 -1092 0
-149 -241 0
-150 -242 0
-151 -243 0
-152 -244 0
-153 -2201 0
-154 -2202 0
-155 -2203 0
-156 -2204 0
-201 -569 0
-202 -570 0
-203 -571 0
-204 -572 0
-249 -405 0
-250 -406 0
-251 -407 0
-252 -408 0
-289 -1745 0
-290 -1746 0
-291 -1747 0
-292 -1748 0
-301 -1341 0
-302 -1342 0
-303 -1343 0
-304 -1344 0
-341 -3393 0
-342 -3394 0
-343 -3395 0
-344 -3396 0
-365 -477 0
-366 -478 0
-367 -479 0
-368 -480 0
-389 -2277 0
-390 -2278 0
-391 -2279 0
-392 -2280 0
-393 -597 0
-394 -598 0
-395 -599 0
-396 -600 0
-433 -529 0
-434 -530 0
-435 -531 0
-436 -532 0
-441 -2669 0
-442 -2670 0
-443 -2671 0
-444 -2672 0
-457 -765 0
-458 -766 0
-459 -767 0
-460 -768 0
-469 -485 0
-470 -486 0
-471 -487 0
-472 -488 0
-505 -1817 0
-506 -1818 0
-507 -1819 0
-508 -1820 0
-525 -1893 0
-526 -1894 0
-527 -1895 0
-528 -1896 0
-533 -2137 0
-534 -2138 0
-535 -2139 0
-536 -2140 0
-565 -2197 0
-566 -2198 0
-567 -2199 0
-568 -2200 0
-593 -733 0
-594 -734 0
-595 -735 0
-596 -736 0
-617 -1365 0
-618 -1366 0
-619 -1367 0
-620 -1368 0
-621 -905 0
-622 -906 0
-623 -907 0
-624 -908 0
-633 -1537 0
-634 -1538 0
-635 -1539 0
-636 -1540 0
-649 -1157 0
-650 -1158 0
-651 -1159 0
-652 -1160 0
-653 -1021 0
-654 -1022 0
-655 -1023 0
-656 -1024 0
-681 -805 0
-682 -806 0
-683 -807 0
-684 -808 0
-689 -1269 0
-690 -1270 0
-691 -1271 0
-692 -1272 0
-737 -913 0
-738 -914 0
-739 -915 0
-740 -916 0
-741 -1261 0
-742 -1262 0
-743 -1263 0
-744 -1264 0
-769 -2505 0
-770 -2506 0
-771 -2507 0
-772 -2508 0
-781 -1185 0
-782 -1186 0
-783 -1187 0
-784 -1188 0
-789 -2437 0
-790 -2438 0
-791 -2439 0
-792 -2440 0
-821 -2125 0
-822 -2126 0
-823 -2127 0
-824 -2128 0
-825 -1257 0
-826 -1258 0
-827 -1259 0
-828 -1260 0
-917 -1321 0
-918 -1322 0
-919 -1323 0
-920 -1324 0
-937 -3321 0
-938 -3322 0
-939 -3323 0
-940 -3324 0
-985 -1049 0
-986 -1050 0
-987 -1051 0
-988 -1052 0
-1025 -1577 0
-1026 -1578 0
-1027 -1579 0
-1028 -1580 0
-1033 -2629 0
-1034 -2630 0
-1035 -2631 0
-1036 -2632 0
-1101 -1921 0
-1102 -1922 0
-1103 -1923 0
-1104 -1924 0
-1129 -1909 0
-1130 -1910 0
-1131 -1911 0
-1132 -1912 0
-1137 -1545 0
-1138 -1546 0
-1139 -1547 0
-1140 -1548 0
-1149 -2273 0
-1150 -2274 0
-1151 -2275 0
-1152 -2276 0
-1213 -2677 0
-1214 -2678 0
-1215 -2679 0
-1216 -2680 0
-1233 -3281 0
-1234 -3282 0
-1235 -3283 0
-1236 -3284 0
-1397 -3245 0
-1398 -3246 0
-1399 -3247 0
-1400 -3248 0
-1433 -3381 0
-1434 -3382 0
-1435 -3383 0
-1436 -3384 0
-1521 -2965 0
-1522 -2966 0
-1523 -2967 0
-1524 -2968 0
-1701 -2605 0
-1702 -2606 0
-1703 -2607 0
-1704 -2608 0
-1753 -3081 0
-1754 -3082 0
-1755 -3083 0
-1756 -3084 0
-1761 -2601 0
-1762 -2602 0
-1763 -2603 0
-1764 -2604 0
-1845 -2041 0
-1846 -2042 0
-1847 -2043 0
-1848 -2044 0
-1973 -2281 0
-1974 -2282 0
-1975 -2283 0
-1976 -2284 0
-2105 -2973 0
-2106 -2974 0
-2107 -2975 0
-2108 -2976 0
-2121 -2581 0
-2122 -2582 0
-2123 -2583 0
-2124 -2584 0
-2245 -2361 0
-2246 -2362 0
-2247 -2363 0
-2248 -2364 0
-2405 -2433 0
-2406 -2434 0
-2407 -2435 0
-2408 -2436 0
-2441 -2717 0
-2442 -2718 0
-2443 -2719 0
-2444 -2720 0
-2597 -2749 0
-2598 -2750 0
-2599 -2751 0
-2600 -2752 0
-3057 -3305 0
-3058 -3306 0
-3059 -3307 0
-3060 -3308 0
-89 -381 0
-90 -382 0
-91 -383 0
-92 -384 0
-101 -1233 0
-102 -1234 0
-103 -1235 0
-104 -1236 0
-129 -2633 0
-130 -2634 0
-131 -2635 0
-132 -2636 0
-133 -2469 0
-134 -2470 0
-135 -2471 0
-136 -2472 0
-153 -849 0
-154 -850 0
-155 -851 0
-156 -852 0
-221 -1465 0
-222 -1466 0
-223 -1467 0
-224 -1468 0
-249 -2245 0
-250 -2246 0
-251 -2247 0
-252 -2248 0
-281 -1349 0
-282 -1350 0
-283 -1351 0
-284 -1352 0
-345 -929 0
-346 -930 0
-347 -931 0
-348 -932 0
-357 -1529 0
-358 -1530 0
-359 -1531 0
-360 -1532 0
-405 -2361 0
-406 -2362 0
-407 -2363 0
-408 -2364 0
-465 -3225 0
-466 -3226 0
-467 -3227 0
-468 -3228 0
-533 -3161 0
-534 -3162 0
-535 -3163 0
-536 -3164 0
-537 -2457 0
-538 -2458 0
-539 -2459 0
-540 -2460 0
-581 -1393 0
-582 -1394 0
-583 -1395 0
-584 -1396 0
-637 -2893 0
-638 -2894 0
-639 -2895 0
-640 -2896 0
-645 -833 0
-646 -834 0
-647 -835 0
-648 -836 0
-677 -1197 0
-678 -1198 0
-679 -1199 0
-680 -1200 0
-793 -3349 0
-794 -3350 0
-795 -3351 0
-796 -3352 0
-829 -2941 0
-830 -2942 0
-831 -2943 0
-832 -2944 0
-873 -2081 0
-874 -2082 0
-875 -2083 0
-876 -2084 0
-1293 -1353 0
-1294 -1354 0
-1295 -1355 0
-1296 -1356 0
-1365 -2197 0
-1366 -2198 0
-1367 -2199 0
-1368 -2200 0
-1497 -2689 0
-1498 -2690 0
-1499 -2691 0
-1500 -2692 0
-1725 -3113 0
-1726 -3114 0
-1727 -3115 0
-1728 -3116 0
-1853 -3281 0
-1854 -3282 0
-1855 -3283 0
-1856 -3284 0
-1905 -3249 0
-1906 -3250 0
-1907 -3251 0
-1908 -3252 0
-2089 -2097 0
-2090 -2098 0
-2091 -2099 0
-2092 -2100 0
-2145 -2569 0
-2146 -2570 0
-2147 -2571 0
-2148 -2572 0
-2253 -3041 0
-2254 -3042 0
-2255 -3043 0
-2256 -3044 0
-2357 -2625 0
-2358 -2626 0
-2359 -2627 0
-2360 -2628 0
-2693 -3089 0
-2694 -3090 0
-2695 -3091 0
-2696 -3092 0
-2837 -3197 0
-2838 -3198 0
-2839 -3199 0
-2840 -3200 0
-2897 -3205 0
-2898 -3206 0
-2899 -3207 0
-2900 -3208 0
-2985 -3065 0
-2986 -3066 0
-2987 -3067 0
-2988 -3068 0
-17 -21 0
-18 -22 0
-19 -23 0
-20 -24 0
-29 -1425 0
-30 -1426 0
-31 -1427 0
-32 -1428 0
-33 -2017 0
-34 -2018 0
-35 -2019 0
-36 -2020 0
-57 -1601 0
-58 -1602 0
-59 -1603 0
-60 -1604 0
-89 -1997 0
-90 -1998 0
-91 -1999 0
-92 -2000 0
-93 -97 0
-94 -98 0
-95 -99 0
-96 -100 0
-129 -2789 0
-130 -2790 0
-131 -2791 0
-132 -2792 0
-133 -1765 0
-134 -1766 0
-135 -1767 0
-136 -1768 0
-161 -969 0
-162 -970 0
-163 -971 0
-164 -972 0
-189 -3125 0
-190 -3126 0
-191 -3127 0
-192 -3128 0
-233 -1109 0
-234 -1110 0
-235 -1111 0
-236 -1112 0
-249 -965 0
-250 -966 0
-251 -967 0
-252 -968 0
-265 -1205 0
-266 -1206 0
-267 -1207 0
-268 -1208 0
-381 -1317 0
-382 -1318 0
-383 -1319 0
-384 -1320 0
-389 -505 0
-390 -506 0
-391 -507 0
-392 -508 0
-405 -637 0
-406 -638 0
-407 -639 0
-408 -640 0
-429 -1281 0
-430 -1282 0
-431 -1283 0
-432 -1284 0
-433 -2153 0
-434 -2154 0
-435 -2155 0
-436 -2156 0
-437 -785 0
-438 -786 0
-439 -787 0
-440 -788 0
-485 -1493 0
-486 -1494 0
-487 -1495 0
-488 -1496 0
-569 -2033 0
-570 -2034 0
-571 -2035 0
-572 -2036 0
-585 -3297 0
-586 -3298 0
-587 -3299 0
-588 -3300 0
-593 -2681 0
-594 -2682 0
-595 -2683 0
-596 -2684 0
-605 -1833 0
-606 -1834 0
-607 -1835 0
-608 -1836 0
-625 -1749 0
-626 -1750 0
-627 -1751 0
-628 -1752 0
-689 -985 0
-690 -986 0
-691 -987 0
-692 -988 0
-733 -797 0
-734 -798 0
-735 -799 0
-736 -800 0
-741 -3141 0
-742 -3142 0
-743 -3143 0
-744 -3144 0
-745 -1505 0
-746 -1506 0
-747 -1507 0
-748 -1508 0
-793 -2989 0
-794 -2990 0
-795 -2991 0
-796 -2992 0
-805 -1013 0
-806 -1014 0
-807 -1015 0
-808 -1016 0
-833 -1977 0
-834 -1978 0
-835 -1979 0
-836 -1980 0
-889 -2813 0
-890 -2814 0
-891 -2815 0
-892 -2816 0
-921 -1245 0
-922 -1246 0
-923 -1247 0
-924 -1248 0
-993 -1017 0
-994 -1018 0
-995 -1019 0
-996 -1020 0
-1009 -1029 0
-1010 -1030 0
-1011 -1031 0
-1012 -1032 0
-1021 -1065 0
-1022 -1066 0
-1023 -1067 0
-1024 -1068 0
-1073 -1637 0
-1074 -1638 0
-1075 -1639 0
-1076 -1640 0
-1101 -3261 0
-1102 -3262 0
-1103 -3263 0
-1104 -3264 0
-1153 -1429 0
-1154 -1430 0
-1155 -1431 0
-1156 -1432 0
-1169 -2913 0
-1170 -2914 0
-1171 -2915 0
-1172 -2916 0
-1185 -1705 0
-1186 -1706 0
-1187 -1707 0
-1188 -1708 0
-1237 -2801 0
-1238 -2802 0
-1239 -2803 0
-1240 -2804 0
-1257 -1945 0
-1258 -1946 0
-1259 -1947 0
-1260 -1948 0
-1285 -2013 0
-1286 -2014 0
-1287 -2015 0
-1288 -2016 0
-1321 -2341 0
-1322 -2342 0
-1323 -2343 0
-1324 -2344 0
-1365 -2065 0
-1366 -2066 0
-1367 -2067 0
-1368 -2068 0
-1477 -3137 0
-1478 -3138 0
-1479 -3139 0
-1480 -3140 0
-1533 -2573 0
-1534 -2574 0
-1535 -2575 0
-1536 -2576 0
-1729 -3121 0
-1730 -3122 0
-1731 -3123 0
-1732 -3124 0
-1741 -3009 0
-1742 -3010 0
-1743 -3011 0
-1744 -3012 0
-1761 -2809 0
-1762 -2810 0
-1763 -2811 0
-1764 -2812 0
-1865 -1961 0
-1866 -1962 0
-1867 -1963 0
-1868 -1964 0
-2025 -3273 0
-2026 -3274 0
-2027 -3275 0
-2028 -3276 0
-2149 -2313 0
-2150 -2314 0
-2151 -2315 0
-2152 -2316 0
-2249 -3049 0
-2250 -3050 0
-2251 -3051 0
-2252 -3052 0
-2361 -2893 0
-2362 -2894 0
-2363 -2895 0
-2364 -2896 0
-2933 -3017 0
-2934 -3018 0
-2935 -3019 0
-2936 -3020 0
-41 -2481 0
-42 -2482 0
-43 -2483 0
-44 -2484 0
-85 -2045 0
-86 -2046 0
-87 -2047 0
-88 -2048 0
-89 -3337 0
-90 -3338 0
-91 -3339 0
-92 -3340 0
-101 -1333 0
-102 -1334 0
-103 -1335 0
-104 -1336 0
-129 -2145 0
-130 -2146 0
-131 -2147 0
-132 -2148 0
-133 -1365 0
-134 -1366 0
-135 -1367 0
-136 -1368 0
-145 -1001 0
-146 -1002 0
-147 -1003 0
-148 -1004 0
-173 -1941 0
-174 -1942 0
-175 -1943 0
-176 -1944 0
-209 -641 0
-210 -642 0
-211 -643 0
-212 -644 0
-233 -2509 0
-234 -2510 0
-235 -2511 0
-236 -2512 0
-273 -1929 0
-274 -1930 0
-275 -1931 0
-276 -1932 0
-301 -1053 0
-302 -1054 0
-303 -1055 0
-304 -1056 0
-321 -905 0
-322 -906 0
-323 -907 0
-324 -908 0
-325 -545 0
-326 -546 0
-327 -547 0
-328 -548 0
-341 -3353 0
-342 -3354 0
-343 -3355 0
-344 -3356 0
-353 -1381 0
-354 -1382 0
-355 -1383 0
-356 -1384 0
-397 -3233 0
-398 -3234 0
-399 -3235 0
-400 -3236 0
-425 -1209 0
-426 -1210 0
-427 -1211 0
-428 -1212 0
-433 -3317 0
-434 -3318 0
-435 -3319 0
-436 -3320 0
-461 -913 0
-462 -914 0
-463 -915 0
-464 -916 0
-525 -2909 0
-526 -2910 0
-527 -2911 0
-528 -2912 0
-533 -873 0
-534 -874 0
-535 -875 0
-536 -876 0
-585 -3221 0
-586 -3222 0
-587 -3223 0
-588 -3224 0
-629 -2209 0
-630 -2210 0
-631 -2211 0
-632 -2212 0
-633 -1297 0
-634 -1298 0
-635 -1299 0
-636 -1300 0
-741 -1285 0
-742 -1286 0
-743 -1287 0
-744 -1288 0
-757 -2521 0
-758 -2522 0
-759 -2523 0
-760 -2524 0
-813 -2261 0
-814 -2262 0
-815 -2263 0
-816 -2264 0
-845 -1729 0
-846 -1730 0
-847 -1731 0
-848 -1732 0
-925 -2717 0
-926 -2718 0
-927 -2719 0
-928 -2720 0
-993 -3305 0
-994 -3306 0
-995 -3307 0
-996 -3308 0
-1073 -2701 0
-1074 -2702 0
-1075 -2703 0
-1076 -2704 0
-1097 -3005 0
-1098 -3006 0
-1099 -3007 0
-1100 -3008 0
-1293 -2089 0
-1294 -2090 0
-1295 -2091 0
-1296 -2092 0
-1353 -2097 0
-1354 -2098 0
-1355 -2099 0
-1356 -2100 0
-1369 -2825 0
-1370 -2826 0
-1371 -2827 0
-1372 -2828 0
-1373 -1477 0
-1374 -1478 0
-1375 -1479 0
-1376 -1480 0
-1489 -2305 0
-1490 -2306 0
-1491 -2307 0
-1492 -2308 0
-1501 -2205 0
-1502 -2206 0
-1503 -2207 0
-1504 -2208 0
-1509 -2665 0
-1510 -2666 0
-1511 -2667 0
-1512 -2668 0
-1513 -2441 0
-1514 -2442 0
-1515 -2443 0
-1516 -2444 0
-1617 -2997 0
-1618 -2998 0
-1619 -2999 0
-1620 -3000 0
-1737 -1809 0
-1738 -1810 0
-1739 -1811 0
-1740 -1812 0
-1765 -2065 0
-1766 -2066 0
-1767 -2067 0
-1768 -2068 0
-1845 -2553 0
-1846 -2554 0
-1847 -2555 0
-1848 -2556 0
-1993 -3057 0
-1994 -3058 0
-1995 -3059 0
-1996 -3060 0
-2005 -2273 0
-2006 -2274 0
-2007 -2275 0
-2008 -2276 0
-2093 -3397 0
-2094 -3398 0
-2095 -3399 0
-2096 -3400 0
-2109 -3021 0
-2110 -3022 0
-2111 -3023 0
-2112 -3024 0
-2157 -2657 0
-2158 -2658 0
-2159 -2659 0
-2160 -2660 0
-2185 -2937 0
-2186 -2938 0
-2187 -2939 0
-2188 -2940 0
-2193 -2853 0
-2194 -2854 0
-2195 -2855 0
-2196 -2856 0
-2381 -3241 0
-2382 -3242 0
-2383 -3243 0
-2384 -3244 0
-2497 -2517 0
-2498 -2518 0
-2499 -2519 0
-2500 -2520 0
-2561 -2621 0
-2562 -2622 0
-2563 -2623 0
-2564 -2624 0
-2645 -2837 0
-2646 -2838 0
-2647 -2839 0
-2648 -2840 0
-2809 -3009 0
-2810 -3010 0
-2811 -3011 0
-2812 -3012 0
-2861 -3069 0
-2862 -3070 0
-2863 -3071 0
-2864 -3072 0
-41 -1617 0
-42 -1618 0
-43 -1619 0
-44 -1620 0
-85 -2425 0
-86 -2426 0
-87 -2427 0
-88 -2428 0
-101 -357 0
-102 -358 0
-103 -359 0
-104 -360 0
-129 -233 0
-130 -234 0
-131 -235 0
-132 -236 0
-133 -629 0
-134 -630 0
-135 -631 0
-136 -632 0
-153 -341 0
-154 -342 0
-155 -343 0
-156 -344 0
-165 -1177 0
-166 -1178 0
-167 -1179 0
-168 -1180 0
-169 -553 0
-170 -554 0
-171 -555 0
-172 -556 0
-173 -273 0
-174 -274 0
-175 -275 0
-176 -276 0
-177 -1253 0
-178 -1254 0
-179 -1255 0
-180 -1256 0
-245 -1329 0
-246 -1330 0
-247 -1331 0
-248 -1332 0
-265 -1185 0
-266 -1186 0
-267 -1187 0
-268 -1188 0
-269 -3169 0
-270 -3170 0
-271 -3171 0
-272 -3172 0
-285 -1357 0
-286 -1358 0
-287 -1359 0
-288 -1360 0
-345 -1777 0
-346 -1778 0
-347 -1779 0
-348 -1780 0
-365 -1805 0
-366 -1806 0
-367 -1807 0
-368 -1808 0
-385 -1353 0
-386 -1354 0
-387 -1355 0
-388 -1356 0
-397 -1509 0
-398 -1510 0
-399 -1511 0
-400 -1512 0
-401 -453 0
-402 -454 0
-403 -455 0
-404 -456 0
-409 -3177 0
-410 -3178 0
-411 -3179 0
-412 -3180 0
-413 -2817 0
-414 -2818 0
-415 -2819 0
-416 -2820 0
-425 -1665 0
-426 -1666 0
-427 -1667 0
-428 -1668 0
-429 -1321 0
-430 -1322 0
-431 -1323 0
-432 -1324 0
-437 -1201 0
-438 -1202 0
-439 -1203 0
-440 -1204 0
-481 -917 0
-482 -918 0
-483 -919 0
-484 -920 0
-489 -517 0
-490 -518 0
-491 -519 0
-492 -520 0
-497 -1693 0
-498 -1694 0
-499 -1695 0
-500 -1696 0
-505 -2345 0
-506 -2346 0
-507 -2347 0
-508 -2348 0
-549 -941 0
-550 -942 0
-551 -943 0
-552 -944 0
-573 -781 0
-574 -782 0
-575 -783 0
-576 -784 0
-601 -2585 0
-602 -2586 0
-603 -2587 0
-604 -2588 0
-657 -925 0
-658 -926 0
-659 -927 0
-660 -928 0
-669 -745 0
-670 -746 0
-671 -747 0
-672 -748 0
-697 -2133 0
-698 -2134 0
-699 -2135 0
-700 -2136 0
-713 -1277 0
-714 -1278 0
-715 -1279 0
-716 -1280 0
-725 -1661 0
-726 -1662 0
-727 -1663 0
-728 -1664 0
-749 -1005 0
-750 -1006 0
-751 -1007 0
-752 -1008 0
-753 -1801 0
-754 -1802 0
-755 -1803 0
-756 -1804 0
-761 -1829 0
-762 -1830 0
-763 -1831 0
-764 -1832 0
-817 -1709 0
-818 -1710 0
-819 -1711 0
-820 -1712 0
-821 -1033 0
-822 -1034 0
-823 -1035 0
-824 -1036 0
-853 -1325 0
-854 -1326 0
-855 -1327 0
-856 -1328 0
-861 -1605 0
-862 -1606 0
-863 -1607 0
-864 -1608 0
-873 -1313 0
-874 -1314 0
-875 -1315 0
-876 -1316 0
-905 -3213 0
-906 -3214 0
-907 -3215 0
-908 -3216 0
-953 -1041 0
-954 -1042 0
-955 -1043 0
-956 -1044 0
-969 -1601 0
-970 -1602 0
-971 -1603 0
-972 -1604 0
-1013 -2033 0
-1014 -2034 0
-1015 -2035 0
-1016 -2036 0
-1061 -2165 0
-1062 -2166 0
-1063 -2167 0
-1064 -2168 0
-1065 -1493 0
-1066 -1494 0
-1067 -1495 0
-1068 -1496 0
-1069 -1265 0
-1070 -1266 0
-1071 -1267 0
-1072 -1268 0
-1205 -1705 0
-1206 -1706 0
-1207 -1707 0
-1208 -1708 0
-1213 -2349 0
-1214 -2350 0
-1215 -2351 0
-1216 -2352 0
-1233 -1529 0
-1234 -1530 0
-1235 -1531 0
-1236 -1532 0
-1245 -2441 0
-1246 -2442 0
-1247 -2443 0
-1248 -2444 0
-1281 -2341 0
-1282 -2342 0
-1283 -2343 0
-1284 -2344 0
-1365 -2209 0
-1366 -2210 0
-1367 -2211 0
-1368 -2212 0
-1429 -1513 0
-1430 -1514 0
-1431 -1515 0
-1432 -1516 0
-1717 -2093 0
-1718 -2094 0
-1719 -2095 0
-1720 -2096 0
-1725 -1797 0
-1726 -1798 0
-1727 -1799 0
-1728 -1800 0
-1877 -2249 0
-1878 -2250 0
-1879 -2251 0
-1880 -2252 0
-1901 -2433 0
-1902 -2434 0
-1903 -2435 0
-1904 -2436 0
-2005 -2793 0
-2006 -2794 0
-2007 -2795 0
-2008 -2796 0
-2125 -2629 0
-2126 -2630 0
-2127 -2631 0
-2128 -2632 0
-2145 -2509 0
-2146 -2510 0
-2147 -2511 0
-2148 -2512 0
-2169 -2369 0
-2170 -2370 0
-2171 -2371 0
-2172 -2372 0
-2189 -2281 0
-2190 -2282 0
-2191 -2283 0
-2192 -2284 0
-2201 -3393 0
-2202 -3394 0
-2203 -3395 0
-2204 -3396 0
-2273 -2505 0
-2274 -2506 0
-2275 -2507 0
-2276 -2508 0
-2285 -2473 0
-2286 -2474 0
-2287 -2475 0
-2288 -2476 0
-2313 -2613 0
-2314 -2614 0
-2315 -2615 0
-2316 -2616 0
-2481 -2997 0
-2482 -2998 0
-2483 -2999 0
-2484 -3000 0
-2529 -2609 0
-2530 -2610 0
-2531 -2611 0
-2532 -2612 0
-2917 -3389 0
-2918 -3390 0
-2919 -3391 0
-2920 -3392 0
-13 -2893 0
-14 -2894 0
-15 -2895 0
-16 -2896 0
-29 -2749 0
-30 -2750 0
-31 -2751 0
-32 -2752 0
-37 -637 0
-38 -638 0
-39 -639 0
-40 -640 0
-89 -973 0
-90 -974 0
-91 -975 0
-92 -976 0
-97 -2017 0
-98 -2018 0
-99 -2019 0
-100 -2020 0
-129 -2233 0
-130 -2234 0
-131 -2235 0
-132 -2236 0
-153 -489 0
-154 -490 0
-155 -491 0
-156 -492 0
-201 -701 0
-202 -702 0
-203 -703 0
-204 -704 0
-209 -2597 0
-210 -2598 0
-211 -2599 0
-212 -2600 0
-221 -2913 0
-222 -2914 0
-223 -2915 0
-224 -2916 0
-285 -657 0
-286 -658 0
-287 -659 0
-288 -660 0
-317 -797 0
-318 -798 0
-319 -799 0
-320 -800 0
-341 -517 0
-342 -518 0
-343 -519 0
-344 -520 0
-369 -1425 0
-370 -1426 0
-371 -1427 0
-372 -1428 0
-561 -1157 0
-562 -1158 0
-563 -1159 0
-564 -1160 0
-565 -929 0
-566 -930 0
-567 -931 0
-568 -932 0
-573 -2865 0
-574 -2866 0
-575 -2867 0
-576 -2868 0
-641 -1417 0
-642 -1418 0
-643 -1419 0
-644 -1420 0
-669 -953 0
-670 -954 0
-671 -955 0
-672 -956 0
-681 -773 0
-682 -774 0
-683 -775 0
-684 -776 0
-745 -1041 0
-746 -1042 0
-747 -1043 0
-748 -1044 0
-769 -2493 0
-770 -2494 0
-771 -2495 0
-772 -2496 0
-789 -893 0
-790 -894 0
-791 -895 0
-792 -896 0
-793 -897 0
-794 -898 0
-795 -899 0
-796 -900 0
-837 -1261 0
-838 -1262 0
-839 -1263 0
-840 -1264 0
-873 -1065 0
-874 -1066 0
-875 -1067 0
-876 -1068 0
-885 -2037 0
-886 -2038 0
-887 -2039 0
-888 -2040 0
-921 -1273 0
-922 -1274 0
-923 -1275 0
-924 -1276 0
-1085 -1945 0
-1086 -1946 0
-1087 -1947 0
-1088 -1948 0
-1249 -1457 0
-1250 -1458 0
-1251 -1459 0
-1252 -1460 0
-1309 -1405 0
-1310 -1406 0
-1311 -1407 0
-1312 -1408 0
-1313 -1493 0
-1314 -1494 0
-1315 -1495 0
-1316 -1496 0
-1377 -2257 0
-1378 -2258 0
-1379 -2259 0
-1380 -2260 0
-1449 -2129 0
-1450 -2130 0
-1451 -2131 0
-1452 -2132 0
-1557 -1765 0
-1558 -1766 0
-1559 -1767 0
-1560 -1768 0
-1785 -2621 0
-1786 -2622 0
-1787 -2623 0
-1788 -2624 0
-1789 -1961 0
-1790 -1962 0
-1791 -1963 0
-1792 -1964 0
-1841 -2561 0
-1842 -2562 0
-1843 -2563 0
-1844 -2564 0
-2073 -2077 0
-2074 -2078 0
-2075 -2079 0
-2076 -2080 0
-2265 -2661 0
-2266 -2662 0
-2267 -2663 0
-2268 -2664 0
-2405 -2565 0
-2406 -2566 0
-2407 -2567 0
-2408 -2568 0
-2541 -2549 0
-2542 -2550 0
-2543 -2551 0
-2544 -2552 0
-2869 -3065 0
-2870 -3066 0
-2871 -3067 0
-2872 -3068 0
-9 -1605 0
-10 -1606 0
-11 -1607 0
-12 -1608 0
-33 -241 0
-34 -242 0
-35 -243 0
-36 -244 0
-69 -73 0
-70 -74 0
-71 -75 0
-72 -76 0
-81 -1361 0
-82 -1362 0
-83 -1363 0
-84 -1364 0
-93 -625 0
-94 -626 0
-95 -627 0
-96 -628 0
-97 -1749 0
-98 -1750 0
-99 -1751 0
-100 -1752 0
-113 -909 0
-114 -910 0
-115 -911 0
-116 -912 0
-125 -861 0
-126 -862 0
-127 -863 0
-128 -864 0
-145 -149 0
-146 -150 0
-147 -151 0
-148 -152 0
-177 -1061 0
-178 -1062 0
-179 -1063 0
-180 -1064 0
-201 -2513 0
-202 -2514 0
-203 -2515 0
-204 -2516 0
-209 -1841 0
-210 -1842 0
-211 -1843 0
-212 -1844 0
-229 -2725 0
-230 -2726 0
-231 -2727 0
-232 -2728 0
-309 -1049 0
-310 -1050 0
-311 -1051 0
-312 -1052 0
-473 -1269 0
-474 -1270 0
-475 -1271 0
-476 -1272 0
-525 -1165 0
-526 -1166 0
-527 -1167 0
-528 -1168 0
-537 -2673 0
-538 -2674 0
-539 -2675 0
-540 -2676 0
-641 -1785 0
-642 -1786 0
-643 -1787 0
-644 -1788 0
-673 -2957 0
-674 -2958 0
-675 -2959 0
-676 -2960 0
-701 -2325 0
-702 -2326 0
-703 -2327 0
-704 -2328 0
-717 -1577 0
-718 -1578 0
-719 -1579 0
-720 -1580 0
-741 -3013 0
-742 -3014 0
-743 -3015 0
-744 -3016 0
-769 -885 0
-770 -886 0
-771 -887 0
-772 -888 0
-777 -957 0
-778 -958 0
-779 -959 0
-780 -960 0
-901 -1873 0
-902 -1874 0
-903 -1875 0
-904 -1876 0
-1073 -3313 0
-1074 -3314 0
-1075 -3315 0
-1076 -3316 0
-1189 -1889 0
-1190 -1890 0
-1191 -1891 0
-1192 -1892 0
-1253 -2165 0
-1254 -2166 0
-1255 -2167 0
-1256 -2168 0
-1285 -2925 0
-1286 -2926 0
-1287 -2927 0
-1288 -2928 0
-1397 -2221 0
-1398 -2222 0
-1399 -2223 0
-1400 -2224 0
-1401 -3377 0
-1402 -3378 0
-1403 -3379 0
-1404 -3380 0
-1417 -2621 0
-1418 -2622 0
-1419 -2623 0
-1420 -2624 0
-1433 -1913 0
-1434 -1914 0
-1435 -1915 0
-1436 -1916 0
-1473 -1589 0
-1474 -1590 0
-1475 -1591 0
-1476 -1592 0
-1477 -3005 0
-1478 -3006 0
-1479 -3007 0
-1480 -3008 0
-1565 -3105 0
-1566 -3106 0
-1567 -3107 0
-1568 -3108 0
-1625 -2729 0
-1626 -2730 0
-1627 -2731 0
-1628 -2732 0
-1673 -1937 0
-1674 -1938 0
-1675 -1939 0
-1676 -1940 0
-1689 -1897 0
-1690 -1898 0
-1691 -1899 0
-1692 -1900 0
-1701 -3093 0
-1702 -3094 0
-1703 -3095 0
-1704 -3096 0
-1753 -2833 0
-1754 -2834 0
-1755 -2835 0
-1756 -2836 0
-1757 -2117 0
-1758 -2118 0
-1759 -2119 0
-1760 -2120 0
-1837 -2821 0
-1838 -2822 0
-1839 -2823 0
-1840 -2824 0
-1865 -3109 0
-1866 -3110 0
-1867 -3111 0
-1868 -3112 0
-1989 -2385 0
-1990 -2386 0
-1991 -2387 0
-1992 -2388 0
-2241 -2489 0
-2242 -2490 0
-2243 -2491 0
-2244 -2492 0
-2501 -2845 0
-2502 -2846 0
-2503 -2847 0
-2504 -2848 0
-2705 -3049 0
-2706 -3050 0
-2707 -3051 0
-2708 -3052 0
-153 -2617 0
-154 -2618 0
-155 -2619 0
-156 -2620 0
-229 -1401 0
-230 -1402 0
-231 -1403 0
-232 -1404 0
-249 -393 0
-250 -394 0
-251 -395 0
-252 -396 0
-285 -369 0
-286 -370 0
-287 -371 0
-288 -372 0
-293 -449 0
-294 -450 0
-295 -451 0
-296 -452 0
-345 -2013 0
-346 -2014 0
-347 -2015 0
-348 -2016 0
-365 -421 0
-366 -422 0
-367 -423 0
-368 -424 0
-397 -1137 0
-398 -1138 0
-399 -1139 0
-400 -1140 0
-405 -597 0
-406 -598 0
-407 -599 0
-408 -600 0
-461 -1925 0
-462 -1926 0
-463 -1927 0
-464 -1928 0
-585 -2905 0
-586 -2906 0
-587 -2907 0
-588 -2908 0
-601 -3137 0
-602 -3138 0
-603 -3139 0
-604 -3140 0
-629 -1617 0
-630 -1618 0
-631 -1619 0
-632 -1620 0
-657 -1425 0
-658 -1426 0
-659 -1427 0
-660 -1428 0
-729 -1653 0
-730 -1654 0
-731 -1655 0
-732 -1656 0
-733 -765 0
-734 -766 0
-735 -767 0
-736 -768 0
-749 -801 0
-750 -802 0
-751 -803 0
-752 -804 0
-901 -1565 0
-902 -1566 0
-903 -1567 0
-904 -1568 0
-953 -2573 0
-954 -2574 0
-955 -2575 0
-956 -2576 0
-1045 -1313 0
-1046 -1314 0
-1047 -1315 0
-1048 -1316 0
-1133 -1329 0
-1134 -1330 0
-1135 -1331 0
-1136 -1332 0
-1273 -1417 0
-1274 -1418 0
-1275 -1419 0
-1276 -1420 0
-1365 -2481 0
-1366 -2482 0
-1367 -2483 0
-1368 -2484 0
-1457 -1705 0
-1458 -1706 0
-1459 -1707 0
-1460 -1708 0
-1645 -1981 0
-1646 -1982 0
-1647 -1983 0
-1648 -1984 0
-1685 -2397 0
-1686 -2398 0
-1687 -2399 0
-1688 -2400 0
-1741 -2217 0
-1742 -2218 0
-1743 -2219 0
-1744 -2220 0
-1829 -2425 0
-1830 -2426 0
-1831 -2427 0
-1832 -2428 0
-1873 -3105 0
-1874 -3106 0
-1875 -3107 0
-1876 -3108 0
-2029 -3261 0
-2030 -3262 0
-2031 -3263 0
-2032 -3264 0
-2169 -2257 0
-2170 -2258 0
-2171 -2259 0
-2172 -2260 0
-2209 -2997 0
-2210 -2998 0
-2211 -2999 0
-2212 -3000 0
-2317 -2341 0
-2318 -2342 0
-2319 -2343 0
-2320 -2344 0
-2409 -2789 0
-2410 -2790 0
-2411 -2791 0
-2412 -2792 0
-2725 -3377 0
-2726 -3378 0
-2727 -3379 0
-2728 -3380 0
-25 -2097 0
-26 -2098 0
-27 -2099 0
-28 -2100 0
-29 -1241 0
-30 -1242 0
-31 -1243 0
-32 -1244 0
-41 -997 0
-42 -998 0
-43 -999 0
-44 -1000 0
-105 -1353 0
-106 -1354 0
-107 -1355 0
-108 -1356 0
-133 -1677 0
-134 -1678 0
-135 -1679 0
-136 -1680 0
-137 -1593 0
-138 -1594 0
-139 -1595 0
-140 -1596 0
-169 -2457 0
-170 -2458 0
-171 -2459 0
-172 -2460 0
-201 -769 0
-202 -770 0
-203 -771 0
-204 -772 0
-209 -2861 0
-210 -2862 0
-211 -2863 0
-212 -2864 0
-249 -1701 0
-250 -1702 0
-251 -1703 0
-252 -1704 0
-293 -2589 0
-294 -2590 0
-295 -2591 0
-296 -2592 0
-301 -385 0
-302 -386 0
-303 -387 0
-304 -388 0
-321 -1017 0
-322 -1018 0
-323 -1019 0
-324 -1020 0
-357 -2425 0
-358 -2426 0
-359 -2427 0
-360 -2428 0
-373 -493 0
-374 -494 0
-375 -495 0
-376 -496 0
-405 -2605 0
-406 -2606 0
-407 -2607 0
-408 -2608 0
-413 -537 0
-414 -538 0
-415 -539 0
-416 -540 0
-465 -2525 0
-466 -2526 0
-467 -2527 0
-468 -2528 0
-469 -1033 0
-470 -1034 0
-471 -1035 0
-472 -1036 0
-485 -2629 0
-486 -2630 0
-487 -2631 0
-488 -2632 0
-501 -1829 0
-502 -1830 0
-503 -1831 0
-504 -1832 0
-569 -2505 0
-570 -2506 0
-571 -2507 0
-572 -2508 0
-577 -1409 0
-578 -1410 0
-579 -1411 0
-580 -1412 0
-609 -761 0
-610 -762 0
-611 -763 0
-612 -764 0
-633 -2625 0
-634 -2626 0
-635 -2627 0
-636 -2628 0
-641 -3069 0
-642 -3070 0
-643 -3071 0
-644 -3072 0
-653 -821 0
-654 -822 0
-655 -823 0
-656 -824 0
-681 -1149 0
-682 -1150 0
-683 -1151 0
-684 -1152 0
-693 -1433 0
-694 -1434 0
-695 -1435 0
-696 -1436 0
-701 -2493 0
-702 -2494 0
-703 -2495 0
-704 -2496 0
-741 -1989 0
-742 -1990 0
-743 -1991 0
-744 -1992 0
-777 -1965 0
-778 -1966 0
-779 -1967 0
-780 -1968 0
-805 -2273 0
-806 -2274 0
-807 -2275 0
-808 -2276 0
-837 -1697 0
-838 -1698 0
-839 -1699 0
-840 -1700 0
-941 -1253 0
-942 -1254 0
-943 -1255 0
-944 -1256 0
-1005 -2133 0
-1006 -2134 0
-1007 -2135 0
-1008 -2136 0
-1021 -2125 0
-1022 -2126 0
-1023 -2127 0
-1024 -2128 0
-1105 -3165 0
-1106 -3166 0
-1107 -3167 0
-1108 -3168 0
-1141 -1573 0
-1142 -1574 0
-1143 -1575 0
-1144 -1576 0
-1173 -2881 0
-1174 -2882 0
-1175 -2883 0
-1176 -2884 0
-1309 -1393 0
-1310 -1394 0
-1311 -1395 0
-1312 -1396 0
-1333 -2045 0
-1334 -2046 0
-1335 -2047 0
-1336 -2048 0
-1373 -1553 0
-1374 -1554 0
-1375 -1555 0
-1376 -1556 0
-1461 -2641 0
-1462 -2642 0
-1463 -2643 0
-1464 -2644 0
-1561 -2949 0
-1562 -2950 0
-1563 -2951 0
-1564 -2952 0
-1661 -1693 0
-1662 -1694 0
-1663 -1695 0
-1664 -1696 0
-1713 -3033 0
-1714 -3034 0
-1715 -3035 0
-1716 -3036 0
-1725 -2005 0
-1726 -2006 0
-1727 -2007 0
-1728 -2008 0
-1797 -2793 0
-1798 -2794 0
-1799 -2795 0
-1800 -2796 0
-1865 -2501 0
-1866 -2502 0
-1867 -2503 0
-1868 -2504 0
-1893 -2669 0
-1894 -2670 0
-1895 -2671 0
-1896 -2672 0
-1949 -2841 0
-1950 -2842 0
-1951 -2843 0
-1952 -2844 0
-2049 -3097 0
-2050 -3098 0
-2051 -3099 0
-2052 -3100 0
-2057 -3149 0
-2058 -3150 0
-2059 -3151 0
-2060 -3152 0
-2069 -2329 0
-2070 -2330 0
-2071 -2331 0
-2072 -2332 0
-2101 -3333 0
-2102 -3334 0
-2103 -3335 0
-2104 -3336 0
-2249 -2453 0
-2250 -2454 0
-2251 -2455 0
-2252 -2456 0
-2561 -3173 0
-2562 -3174 0
-2563 -3175 0
-2564 -3176 0
-2929 -3277 0
-2930 -3278 0
-2931 -3279 0
-2932 -3280 0
-85 -1457 0
-86 -1458 0
-87 -1459 0
-88 -1460 0
-145 -2309 0
-146 -2310 0
-147 -2311 0
-148 -2312 0
-229 -2021 0
-230 -2022 0
-231 -2023 0
-232 -2024 0
-253 -3061 0
-254 -3062 0
-255 -3063 0
-256 -3064 0
-309 -2717 0
-310 -2718 0
-311 -2719 0
-312 -2720 0
-317 -2205 0
-318 -2206 0
-319 -2207 0
-320 -2208 0
-333 -2829 0
-334 -2830 0
-335 -2831 0
-336 -2832 0
-397 -3313 0
-398 -3314 0
-399 -3315 0
-400 -3316 0
-413 -2373 0
-414 -2374 0
-415 -2375 0
-416 -2376 0
-449 -3213 0
-450 -3214 0
-451 -3215 0
-452 -3216 0
-457 -577 0
-458 -578 0
-459 -579 0
-460 -580 0
-537 -2317 0
-538 -2318 0
-539 -2319 0
-540 -2320 0
-581 -2649 0
-582 -2650 0
-583 -2651 0
-584 -2652 0
-593 -705 0
-594 -706 0
-595 -707 0
-596 -708 0
-613 -2821 0
-614 -2822 0
-615 -2823 0
-616 -2824 0
-617 -1045 0
-618 -1046 0
-619 -1047 0
-620 -1048 0
-713 -1589 0
-714 -1590 0
-715 -1591 0
-716 -1592 0
-729 -1133 0
-730 -1134 0
-731 -1135 0
-732 -1136 0
-737 -1249 0
-738 -1250 0
-739 -1251 0
-740 -1252 0
-1069 -1897 0
-1070 -1898 0
-1071 -1899 0
-1072 -1900 0
-1137 -1605 0
-1138 -1606 0
-1139 -1607 0
-1140 -1608 0
-1141 -2249 0
-1142 -2250 0
-1143 -2251 0
-1144 -2252 0
-1373 -1797 0
-1374 -1798 0
-1375 -1799 0
-1376 -1800 0
-1437 -2261 0
-1438 -2262 0
-1439 -2263 0
-1440 -2264 0
-1553 -2793 0
-1554 -2794 0
-1555 -2795 0
-1556 -2796 0
-1573 -2453 0
-1574 -2454 0
-1575 -2455 0
-1576 -2456 0
-1597 -2369 0
-1598 -2370 0
-1599 -2371 0
-1600 -2372 0
-1629 -1693 0
-1630 -1694 0
-1631 -1695 0
-1632 -1696 0
-1733 -2325 0
-1734 -2326 0
-1735 -2327 0
-1736 -2328 0
-1825 -2209 0
-1826 -2210 0
-1827 -2211 0
-1828 -2212 0
-1901 -2201 0
-1902 -2202 0
-1903 -2203 0
-1904 -2204 0
-1933 -2265 0
-1934 -2266 0
-1935 -2267 0
-1936 -2268 0
-2145 -3337 0
-2146 -3338 0
-2147 -3339 0
-2148 -3340 0
-2409 -2873 0
-2410 -2874 0
-2411 -2875 0
-2412 -2876 0
-2433 -3393 0
-2434 -3394 0
-2435 -3395 0
-2436 -3396 0
-29 -2365 0
-30 -2366 0
-31 -2367 0
-32 -2368 0
-41 -449 0
-42 -450 0
-43 -451 0
-44 -452 0
-89 -2693 0
-90 -2694 0
-91 -2695 0
-92 -2696 0
-117 -961 0
-118 -962 0
-119 -963 0
-120 -964 0
-133 -293 0
-134 -294 0
-135 -295 0
-136 -296 0
-157 -661 0
-158 -662 0
-159 -663 0
-160 -664 0
-173 -409 0
-174 -410 0
-175 -411 0
-176 -412 0
-197 -1913 0
-198 -1914 0
-199 -1915 0
-200 -1916 0
-245 -1029 0
-246 -1030 0
-247 -1031 0
-248 -1032 0
-265 -1809 0
-266 -1810 0
-267 -1811 0
-268 -1812 0
-273 -3177 0
-274 -3178 0
-275 -3179 0
-276 -3180 0
-285 -2557 0
-286 -2558 0
-287 -2559 0
-288 -2560 0
-289 -1381 0
-290 -1382 0
-291 -1383 0
-292 -1384 0
-333 -3033 0
-334 -3034 0
-335 -3035 0
-336 -3036 0
-361 -417 0
-362 -418 0
-363 -419 0
-364 -420 0
-365 -1025 0
-366 -1026 0
-367 -1027 0
-368 -1028 0
-381 -3089 0
-382 -3090 0
-383 -3091 0
-384 -3092 0
-389 -689 0
-390 -690 0
-391 -691 0
-392 -692 0
-441 -1433 0
-442 -1434 0
-443 -1435 0
-444 -1436 0
-461 -1197 0
-462 -1198 0
-463 -1199 0
-464 -1200 0
-477 -1577 0
-478 -1578 0
-479 -1579 0
-480 -1580 0
-505 -985 0
-506 -986 0
-507 -987 0
-508 -988 0
-525 -693 0
-526 -694 0
-527 -695 0
-528 -696 0
-533 -621 0
-534 -622 0
-535 -623 0
-536 -624 0
-561 -1009 0
-562 -1010 0
-563 -1011 0
-564 -1012 0
-633 -2741 0
-634 -2742 0
-635 -2743 0
-636 -2744 0
-673 -1713 0
-674 -1714 0
-675 -1715 0
-676 -1716 0
-725 -3189 0
-726 -3190 0
-727 -3191 0
-728 -3192 0
-749 -1221 0
-750 -1222 0
-751 -1223 0
-752 -1224 0
-853 -2937 0
-854 -2938 0
-855 -2939 0
-856 -2940 0
-881 -2105 0
-882 -2106 0
-883 -2107 0
-884 -2108 0
-937 -2053 0
-938 -2054 0
-939 -2055 0
-940 -2056 0
-1133 -2665 0
-1134 -2666 0
-1135 -2667 0
-1136 -2668 0
-1237 -3225 0
-1238 -3226 0
-1239 -3227 0
-1240 -3228 0
-1421 -3233 0
-1422 -3234 0
-1423 -3235 0
-1424 -3236 0
-1461 -1561 0
-1462 -1562 0
-1463 -1563 0
-1464 -1564 0
-1489 -1681 0
-1490 -1682 0
-1491 -1683 0
-1492 -1684 0
-1593 -2097 0
-1594 -2098 0
-1595 -2099 0
-1596 -2100 0
-1677 -2589 0
-1678 -2590 0
-1679 -2591 0
-1680 -2592 0
-2149 -3317 0
-2150 -3318 0
-2151 -3319 0
-2152 -3320 0
-2265 -2349 0
-2266 -2350 0
-2267 -2351 0
-2268 -2352 0
-2333 -2869 0
-2334 -2870 0
-2335 -2871 0
-2336 -2872 0
-2641 -2949 0
-2642 -2950 0
-2643 -2951 0
-2644 -2952 0
-2649 -3353 0
-2650 -3354 0
-2651 -3355 0
-2652 -3356 0
-2669 -3381 0
-2670 -3382 0
-2671 -3383 0
-2672 -3384 0
-2881 -3165 0
-2882 -3166 0
-2883 -3167 0
-2884 -3168 0
-2901 -3057 0
-2902 -3058 0
-2903 -3059 0
-2904 -3060 0
-1 -1545 0
-2 -1546 0
-3 -1547 0
-4 -1548 0
-25 -1049 0
-26 -1050 0
-27 -1051 0
-28 -1052 0
-89 -1589 0
-90 -1590 0
-91 -1591 0
-92 -1592 0
-93 -913 0
-94 -914 0
-95 -915 0
-96 -916 0
-105 -1413 0
-106 -1414 0
-107 -1415 0
-108 -1416 0
-125 -785 0
-126 -786 0
-127 -787 0
-128 -788 0
-129 -713 0
-130 -714 0
-131 -715 0
-132 -716 0
-137 -1817 0
-138 -1818 0
-139 -1819 0
-140 -1820 0
-153 -2673 0
-154 -2674 0
-155 -2675 0
-156 -2676 0
-209 -325 0
-210 -326 0
-211 -327 0
-212 -328 0
-233 -1277 0
-234 -1278 0
-235 -1279 0
-236 -1280 0
-249 -281 0
-250 -282 0
-251 -283 0
-252 -284 0
-253 -537 0
-254 -538 0
-255 -539 0
-256 -540 0
-329 -437 0
-330 -438 0
-331 -439 0
-332 -440 0
-353 -1137 0
-354 -1138 0
-355 -1139 0
-356 -1140 0
-441 -997 0
-442 -998 0
-443 -999 0
-444 -1000 0
-465 -677 0
-466 -678 0
-467 -679 0
-468 -680 0
-541 -2065 0
-542 -2066 0
-543 -2067 0
-544 -2068 0
-569 -2733 0
-570 -2734 0
-571 -2735 0
-572 -2736 0
-577 -1937 0
-578 -1938 0
-579 -1939 0
-580 -1940 0
-593 -613 0
-594 -614 0
-595 -615 0
-596 -616 0
-705 -2821 0
-706 -2822 0
-707 -2823 0
-708 -2824 0
-773 -797 0
-774 -798 0
-775 -799 0
-776 -800 0
-845 -857 0
-846 -858 0
-847 -859 0
-848 -860 0
-881 -3257 0
-882 -3258 0
-883 -3259 0
-884 -3260 0
-921 -1209 0
-922 -1210 0
-923 -1211 0
-924 -1212 0
-937 -1925 0
-938 -1926 0
-939 -1927 0
-940 -1928 0
-1001 -2045 0
-1002 -2046 0
-1003 -2047 0
-1004 -2048 0
-1053 -2389 0
-1054 -2390 0
-1055 -2391 0
-1056 -2392 0
-1085 -1749 0
-1086 -1750 0
-1087 -1751 0
-1088 -1752 0
-1105 -2993 0
-1106 -2994 0
-1107 -2995 0
-1108 -2996 0
-1145 -2093 0
-1146 -2094 0
-1147 -2095 0
-1148 -2096 0
-1169 -1853 0
-1170 -1854 0
-1171 -1855 0
-1172 -1856 0
-1285 -2921 0
-1286 -2922 0
-1287 -2923 0
-1288 -2924 0
-1345 -1717 0
-1346 -1718 0
-1347 -1719 0
-1348 -1720 0
-2057 -3241 0
-2058 -3242 0
-2059 -3243 0
-2060 -3244 0
-2193 -3297 0
-2194 -3298 0
-2195 -3299 0
-2196 -3300 0
-37 -217 0
-38 -218 0
-39 -219 0
-40 -220 0
-45 -1305 0
-46 -1306 0
-47 -1307 0
-48 -1308 0
-69 -189 0
-70 -190 0
-71 -191 0
-72 -192 0
-89 -589 0
-90 -590 0
-91 -591 0
-92 -592 0
-93 -509 0
-94 -510 0
-95 -511 0
-96 -512 0
-97 -445 0
-98 -446 0
-99 -447 0
-100 -448 0
-117 -981 0
-118 -982 0
-119 -983 0
-120 -984 0
-121 -2269 0
-122 -2270 0
-123 -2271 0
-124 -2272 0
-125 -2865 0
-126 -2866 0
-127 -2867 0
-128 -2868 0
-129 -649 0
-130 -650 0
-131 -651 0
-132 -652 0
-133 -361 0
-134 -362 0
-135 -363 0
-136 -364 0
-169 -1233 0
-170 -1234 0
-171 -1235 0
-172 -1236 0
-173 -3205 0
-174 -3206 0
-175 -3207 0
-176 -3208 0
-177 -929 0
-178 -930 0
-179 -931 0
-180 -932 0
-201 -469 0
-202 -470 0
-203 -471 0
-204 -472 0
-221 -801 0
-222 -802 0
-223 -803 0
-224 -804 0
-269 -565 0
-270 -566 0
-271 -567 0
-272 -568 0
-285 -365 0
-286 -366 0
-287 -367 0
-288 -368 0
-293 -417 0
-294 -418 0
-295 -419 0
-296 -420 0
-305 -1181 0
-306 -1182 0
-307 -1183 0
-308 -1184 0
-321 -2561 0
-322 -2562 0
-323 -2563 0
-324 -2564 0
-369 -421 0
-370 -422 0
-371 -423 0
-372 -424 0
-481 -573 0
-482 -574 0
-483 -575 0
-484 -576 0
-497 -697 0
-498 -698 0
-499 -699 0
-500 -700 0
-541 -1161 0
-542 -1162 0
-543 -1163 0
-544 -1164 0
-549 -1117 0
-550 -1118 0
-551 -1119 0
-552 -1120 0
-553 -1529 0
-554 -1530 0
-555 -1531 0
-556 -1532 0
-617 -1217 0
-618 -1218 0
-619 -1219 0
-620 -1220 0
-725 -749 0
-726 -750 0
-727 -751 0
-728 -752 0
-769 -1033 0
-770 -1034 0
-771 -1035 0
-772 -1036 0
-789 -825 0
-790 -826 0
-791 -827 0
-792 -828 0
-805 -1021 0
-806 -1022 0
-807 -1023 0
-808 -1024 0
-857 -2385 0
-858 -2386 0
-859 -2387 0
-860 -2388 0
-905 -2621 0
-906 -2622 0
-907 -2623 0
-908 -2624 0
-1013 -1065 0
-1014 -1066 0
-1015 -1067 0
-1016 -1068 0
-1017 -3173 0
-1018 -3174 0
-1019 -3175 0
-1020 -3176 0
-1089 -1157 0
-1090 -1158 0
-1091 -1159 0
-1092 -1160 0
-1097 -3013 0
-1098 -3014 0
-1099 -3015 0
-1100 -3016 0
-1197 -1349 0
-1198 -1350 0
-1199 -1351 0
-1200 -1352 0
-1245 -2229 0
-1246 -2230 0
-1247 -2231 0
-1248 -2232 0
-1357 -1805 0
-1358 -1806 0
-1359 -1807 0
-1360 -1808 0
-1449 -2085 0
-1450 -2086 0
-1451 -2087 0
-1452 -2088 0
-1553 -1989 0
-1554 -1990 0
-1555 -1991 0
-1556 -1992 0
-1597 -2301 0
-1598 -2302 0
-1599 -2303 0
-1600 -2304 0
-1693 -2133 0
-1694 -2134 0
-1695 -2135 0
-1696 -2136 0
-1845 -3301 0
-1846 -3302 0
-1847 -3303 0
-1848 -3304 0
-1941 -3041 0
-1942 -3042 0
-1943 -3043 0
-1944 -3044 0
-2005 -2641 0
-2006 -2642 0
-2007 -2643 0
-2008 -2644 0
-2041 -3249 0
-2042 -3250 0
-2043 -3251 0
-2044 -3252 0
-2113 -2489 0
-2114 -2490 0
-2115 -2491 0
-2116 -2492 0
-2505 -2629 0
-2506 -2630 0
-2507 -2631 0
-2508 -2632 0
-2637 -2941 0
-2638 -2942 0
-2639 -2943 0
-2640 -2944 0
-2697 -3253 0
-2698 -3254 0
-2699 -3255 0
-2700 -3256 0
-2781 -3297 0
-2782 -3298 0
-2783 -3299 0
-2784 -3300 0
-2857 -3085 0
-2858 -3086 0
-2859 -3087 0
-2860 -3088 0
-2877 -3401 0
-2878 -3402 0
-2879 -3403 0
-2880 -3404 0
-3049 -3105 0
-3050 -3106 0
-3051 -3107 0
-3052 -3108 0
-3081 -3245 0
-3082 -3246 0
-3083 -3247 0
-3084 -3248 0
-33 -2493 0
-34 -2494 0
-35 -2495 0
-36 -2496 0
-41 -1109 0
-42 -1110 0
-43 -1111 0
-44 -1112 0
-93 -769 0
-94 -770 0
-95 -771 0
-96 -772 0
-101 -965 0
-102 -966 0
-103 -967 0
-104 -968 0
-133 -1293 0
-134 -1294 0
-135 -1295 0
-136 -1296 0
-137 -2613 0
-138 -2614 0
-139 -2615 0
-140 -2616 0
-229 -1701 0
-230 -1702 0
-231 -1703 0
-232 -1704 0
-241 -2037 0
-242 -2038 0
-243 -2039 0
-244 -2040 0
-265 -1409 0
-266 -1410 0
-267 -1411 0
-268 -1412 0
-301 -2153 0
-302 -2154 0
-303 -2155 0
-304 -2156 0
-313 -517 0
-314 -518 0
-315 -519 0
-316 -520 0
-477 -1457 0
-478 -1458 0
-479 -1459 0
-480 -1460 0
-509 -1033 0
-510 -1034 0
-511 -1035 0
-512 -1036 0
-561 -1885 0
-562 -1886 0
-563 -1887 0
-564 -1888 0
-625 -885 0
-626 -886 0
-627 -887 0
-628 -888 0
-633 -1513 0
-634 -1514 0
-635 -1515 0
-636 -1516 0
-657 -1637 0
-658 -1638 0
-659 -1639 0
-660 -1640 0
-685 -1073 0
-686 -1074 0
-687 -1075 0
-688 -1076 0
-733 -2953 0
-734 -2954 0
-735 -2955 0
-736 -2956 0
-765 -1193 0
-766 -1194 0
-767 -1195 0
-768 -1196 0
-865 -3077 0
-866 -3078 0
-867 -3079 0
-868 -3080 0
-1021 -2853 0
-1022 -2854 0
-1023 -2855 0
-1024 -2856 0
-1093 -2565 0
-1094 -2566 0
-1095 -2567 0
-1096 -2568 0
-1113 -1129 0
-1114 -1130 0
-1115 -1131 0
-1116 -1132 0
-1141 -2405 0
-1142 -2406 0
-1143 -2407 0
-1144 -2408 0
-1269 -2665 0
-1270 -2666 0
-1271 -2667 0
-1272 -2668 0
-1297 -2441 0
-1298 -2442 0
-1299 -2443 0
-1300 -2444 0
-1309 -2353 0
-1310 -2354 0
-1311 -2355 0
-1312 -2356 0
-1365 -2089 0
-1366 -2090 0
-1367 -2091 0
-1368 -2092 0
-1461 -2193 0
-1462 -2194 0
-1463 -2195 0
-1464 -2196 0
-1521 -1681 0
-1522 -1682 0
-1523 -1683 0
-1524 -1684 0
-1905 -3389 0
-1906 -3390 0
-1907 -3391 0
-1908 -3392 0
-1941 -3121 0
-1942 -3122 0
-1943 -3123 0
-1944 -3124 0
-2533 -3233 0
-2534 -3234 0
-2535 -3235 0
-2536 -3236 0
-2725 -3093 0
-2726 -3094 0
-2727 -3095 0
-2728 -3096 0
-101 -765 0
-102 -766 0
-103 -767 0
-104 -768 0
-133 -1089 0
-134 -1090 0
-135 -1091 0
-136 -1092 0
-137 -1745 0
-138 -1746 0
-139 -1747 0
-140 -1748 0
-149 -869 0
-150 -870 0
-151 -871 0
-152 -872 0
-285 -429 0
-286 -430 0
-287 -431 0
-288 -432 0
-301 -865 0
-302 -866 0
-303 -867 0
-304 -868 0
-357 -597 0
-358 -598 0
-359 -599 0
-360 -600 0
-361 -1157 0
-362 -1158 0
-363 -1159 0
-364 -1160 0
-389 -561 0
-390 -562 0
-391 -563 0
-392 -564 0
-425 -437 0
-426 -438 0
-427 -439 0
-428 -440 0
-497 -2273 0
-498 -2274 0
-499 -2275 0
-500 -2276 0
-513 -3221 0
-514 -3222 0
-515 -3223 0
-516 -3224 0
-549 -2973 0
-550 -2974 0
-551 -2975 0
-552 -2976 0
-565 -2569 0
-566 -2570 0
-567 -2571 0
-568 -2572 0
-609 -733 0
-610 -734 0
-611 -735 0
-612 -736 0
-617 -2145 0
-618 -2146 0
-619 -2147 0
-620 -2148 0
-689 -1009 0
-690 -1010 0
-691 -1011 0
-692 -1012 0
-697 -2125 0
-698 -2126 0
-699 -2127 0
-700 -2128 0
-725 -805 0
-726 -806 0
-727 -807 0
-728 -808 0
-749 -1021 0
-750 -1022 0
-751 -1023 0
-752 -1024 0
-829 -2253 0
-830 -2254 0
-831 -2255 0
-832 -2256 0
-833 -3305 0
-834 -3306 0
-835 -3307 0
-836 -3308 0
-945 -993 0
-946 -994 0
-947 -995 0
-948 -996 0
-965 -1193 0
-966 -1194 0
-967 -1195 0
-968 -1196 0
-985 -1029 0
-986 -1030 0
-987 -1031 0
-988 -1032 0
-1025 -1809 0
-1026 -1810 0
-1027 -1811 0
-1028 -1812 0
-1045 -3337 0
-1046 -3338 0
-1047 -3339 0
-1048 -3340 0
-1101 -1533 0
-1102 -1534 0
-1103 -1535 0
-1104 -1536 0
-1253 -3381 0
-1254 -3382 0
-1255 -3383 0
-1256 -3384 0
-1385 -2669 0
-1386 -2670 0
-1387 -2671 0
-1388 -2672 0
-1389 -2937 0
-1390 -2938 0
-1391 -2939 0
-1392 -2940 0
-1413 -1545 0
-1414 -1546 0
-1415 -1547 0
-1416 -1548 0
-1693 -2505 0
-1694 -2506 0
-1695 -2507 0
-1696 -2508 0
-1829 -2605 0
-1830 -2606 0
-1831 -2607 0
-1832 -2608 0
-1845 -2477 0
-1846 -2478 0
-1847 -2479 0
-1848 -2480 0
-1961 -2257 0
-1962 -2258 0
-1963 -2259 0
-1964 -2260 0
-2057 -2909 0
-2058 -2910 0
-2059 -2911 0
-2060 -2912 0
-2121 -2713 0
-2122 -2714 0
-2123 -2715 0
-2124 -2716 0
-2133 -2629 0
-2134 -2630 0
-2135 -2631 0
-2136 -2632 0
-2153 -3077 0
-2154 -3078 0
-2155 -3079 0
-2156 -3080 0
-2221 -2925 0
-2222 -2926 0
-2223 -2927 0
-2224 -2928 0
-2225 -2933 0
-2226 -2934 0
-2227 -2935 0
-2228 -2936 0
-2241 -3193 0
-2242 -3194 0
-2243 -3195 0
-2244 -3196 0
-2297 -2437 0
-2298 -2438 0
-2299 -2439 0
-2300 -2440 0
-2349 -2693 0
-2350 -2694 0
-2351 -2695 0
-2352 -2696 0
-2813 -3033 0
-2814 -3034 0
-2815 -3035 0
-2816 -3036 0
-2833 -3005 0
-2834 -3006 0
-2835 -3007 0
-2836 -3008 0
-2941 -3041 0
-2942 -3042 0
-2943 -3043 0
-2944 -3044 0
-3045 -3321 0
-3046 -3322 0
-3047 -3323 0
-3048 -3324 0
-33 -2361 0
-34 -2362 0
-35 -2363 0
-36 -2364 0
-85 -1349 0
-86 -1350 0
-87 -1351 0
-88 -1352 0
-101 -1525 0
-102 -1526 0
-103 -1527 0
-104 -1528 0
-125 -1737 0
-126 -1738 0
-127 -1739 0
-128 -1740 0
-133 -2797 0
-134 -2798 0
-135 -2799 0
-136 -2800 0
-145 -2245 0
-146 -2246 0
-147 -2247 0
-148 -2248 0
-193 -1041 0
-194 -1042 0
-195 -1043 0
-196 -1044 0
-221 -957 0
-222 -958 0
-223 -959 0
-224 -960 0
-245 -3377 0
-246 -3378 0
-247 -3379 0
-248 -3380 0
-253 -3225 0
-254 -3226 0
-255 -3227 0
-256 -3228 0
-333 -1401 0
-334 -1402 0
-335 -1403 0
-336 -1404 0
-345 -417 0
-346 -418 0
-347 -419 0
-348 -420 0
-497 -833 0
-498 -834 0
-499 -835 0
-500 -836 0
-533 -1841 0
-534 -1842 0
-535 -1843 0
-536 -1844 0
-537 -1197 0
-538 -1198 0
-539 -1199 0
-540 -1200 0
-581 -745 0
-582 -746 0
-583 -747 0
-584 -748 0
-617 -689 0
-618 -690 0
-619 -691 0
-620 -692 0
-673 -1445 0
-674 -1446 0
-675 -1447 0
-676 -1448 0
-773 -1561 0
-774 -1562 0
-775 -1563 0
-776 -1564 0
-793 -2745 0
-794 -2746 0
-795 -2747 0
-796 -2748 0
-829 -2221 0
-830 -2222 0
-831 -2223 0
-832 -2224 0
-873 -1785 0
-874 -1786 0
-875 -1787 0
-876 -1788 0
-1065 -2621 0
-1066 -2622 0
-1067 -2623 0
-1068 -2624 0
-1149 -3057 0
-1150 -3058 0
-1151 -3059 0
-1152 -3060 0
-1173 -2249 0
-1174 -2250 0
-1175 -2251 0
-1176 -2252 0
-1293 -1509 0
-1294 -1510 0
-1295 -1511 0
-1296 -1512 0
-1377 -2805 0
-1378 -2806 0
-1379 -2807 0
-1380 -2808 0
-1421 -2725 0
-1422 -2726 0
-1423 -2727 0
-1424 -2728 0
-1429 -1917 0
-1430 -1918 0
-1431 -1919 0
-1432 -1920 0
-1609 -2393 0
-1610 -2394 0
-1611 -2395 0
-1612 -2396 0
-1725 -3073 0
-1726 -3074 0
-1727 -3075 0
-1728 -3076 0
-1941 -1981 0
-1942 -1982 0
-1943 -1983 0
-1944 -1984 0
-2017 -2893 0
-2018 -2894 0
-2019 -2895 0
-2020 -2896 0
-2025 -2485 0
-2026 -2486 0
-2027 -2487 0
-2028 -2488 0
-2033 -3213 0
-2034 -3214 0
-2035 -3215 0
-2036 -3216 0
-2089 -2665 0
-2090 -2666 0
-2091 -2667 0
-2092 -2668 0
-2253 -2925 0
-2254 -2926 0
-2255 -2927 0
-2256 -2928 0
-2273 -3305 0
-2274 -3306 0
-2275 -3307 0
-2276 -3308 0
-2529 -3005 0
-2530 -3006 0
-2531 -3007 0
-2532 -3008 0
-2545 -2905 0
-2546 -2906 0
-2547 -2907 0
-2548 -2908 0
-2825 -3089 0
-2826 -3090 0
-2827 -3091 0
-2828 -3092 0
-2837 -3001 0
-2838 -3002 0
-2839 -3003 0
-2840 -3004 0
-2873 -3313 0
-2874 -3314 0
-2875 -3315 0
-2876 -3316 0
-2897 -3013 0
-2898 -3014 0
-2899 -3015 0
-2900 -3016 0
-37 -2237 0
-38 -2238 0
-39 -2239 0
-40 -2240 0
-41 -1425 0
-42 -1426 0
-43 -1427 0
-44 -1428 0
-65 -3125 0
-66 -3126 0
-67 -3127 0
-68 -3128 0
-93 -3197 0
-94 -3198 0
-95 -3199 0
-96 -3200 0
-133 -657 0
-134 -658 0
-135 -659 0
-136 -660 0
-161 -237 0
-162 -238 0
-163 -239 0
-164 -240 0
-185 -709 0
-186 -710 0
-187 -711 0
-188 -712 0
-193 -2017 0
-194 -2018 0
-195 -2019 0
-196 -2020 0
-197 -1317 0
-198 -1318 0
-199 -1319 0
-200 -1320 0
-229 -665 0
-230 -666 0
-231 -667 0
-232 -668 0
-245 -1205 0
-246 -1206 0
-247 -1207 0
-248 -1208 0
-249 -1129 0
-250 -1130 0
-251 -1131 0
-252 -1132 0
-289 -1849 0
-290 -1850 0
-291 -1851 0
-292 -1852 0
-405 -1909 0
-406 -1910 0
-407 -1911 0
-408 -1912 0
-473 -717 0
-474 -718 0
-475 -719 0
-476 -720 0
-525 -1757 0
-526 -1758 0
-527 -1759 0
-528 -1760 0
-593 -3185 0
-594 -3186 0
-595 -3187 0
-596 -3188 0
-605 -2413 0
-606 -2414 0
-607 -2415 0
-608 -2416 0
-617 -1245 0
-618 -1246 0
-619 -1247 0
-620 -1248 0
-629 -925 0
-630 -926 0
-631 -927 0
-632 -928 0
-649 -2865 0
-650 -2866 0
-651 -2867 0
-652 -2868 0
-689 -1025 0
-690 -1026 0
-691 -1027 0
-692 -1028 0
-713 -785 0
-714 -786 0
-715 -787 0
-716 -788 0
-741 -2597 0
-742 -2598 0
-743 -2599 0
-744 -2600 0
-817 -1281 0
-818 -1282 0
-819 -1283 0
-820 -1284 0
-845 -1369 0
-846 -1370 0
-847 -1371 0
-848 -1372 0
-857 -1017 0
-858 -1018 0
-859 -1019 0
-860 -1020 0
-1009 -1809 0
-1010 -1810 0
-1011 -1811 0
-1012 -1812 0
-1041 -2893 0
-1042 -2894 0
-1043 -2895 0
-1044 -2896 0
-1077 -1225 0
-1078 -1226 0
-1079 -1227 0
-1080 -1228 0
-1101 -1233 0
-1102 -1234 0
-1103 -1235 0
-1104 -1236 0
-1133 -1457 0
-1134 -1458 0
-1135 -1459 0
-1136 -1460 0
-1165 -2117 0
-1166 -2118 0
-1167 -2119 0
-1168 -2120 0
-1217 -2229 0
-1218 -2230 0
-1219 -2231 0
-1220 -2232 0
-1261 -2749 0
-1262 -2750 0
-1263 -2751 0
-1264 -2752 0
-1269 -1577 0
-1270 -1578 0
-1271 -1579 0
-1272 -1580 0
-1285 -1417 0
-1286 -1418 0
-1287 -1419 0
-1288 -1420 0
-1293 -1637 0
-1294 -1638 0
-1295 -1639 0
-1296 -1640 0
-1309 -1465 0
-1310 -1466 0
-1311 -1467 0
-1312 -1468 0
-1329 -1705 0
-1330 -1706 0
-1331 -1707 0
-1332 -1708 0
-1397 -2077 0
-1398 -2078 0
-1399 -2079 0
-1400 -2080 0
-1469 -1673 0
-1470 -1674 0
-1471 -1675 0
-1472 -1676 0
-1569 -1977 0
-1570 -1978 0
-1571 -1979 0
-1572 -1980 0
-1573 -2457 0
-1574 -2458 0
-1575 -2459 0
-1576 -2460 0
-1585 -1945 0
-1586 -1946 0
-1587 -1947 0
-1588 -1948 0
-1709 -2341 0
-1710 -2342 0
-1711 -2343 0
-1712 -2344 0
-1729 -2825 0
-1730 -2826 0
-1731 -2827 0
-1732 -2828 0
-1741 -2009 0
-1742 -2010 0
-1743 -2011 0
-1744 -2012 0
-1761 -2121 0
-1762 -2122 0
-1763 -2123 0
-1764 -2124 0
-1865 -2429 0
-1866 -2430 0
-1867 -2431 0
-1868 -2432 0
-1869 -2913 0
-1870 -2914 0
-1871 -2915 0
-1872 -2916 0
-1921 -3281 0
-1922 -3282 0
-1923 -3283 0
-1924 -3284 0
-1949 -2849 0
-1950 -2850 0
-1951 -2851 0
-1952 -2852 0
-2025 -2837 0
-2026 -2838 0
-2027 -2839 0
-2028 -2840 0
-2049 -2557 0
-2050 -2558 0
-2051 -2559 0
-2052 -2560 0
-2149 -2377 0
-2150 -2378 0
-2151 -2379 0
-2152 -2380 0
-2209 -2717 0
-2210 -2718 0
-2211 -2719 0
-2212 -2720 0
-2385 -3173 0
-2386 -3174 0
-2387 -3175 0
-2388 -3176 0
-2433 -3065 0
-2434 -3066 0
-2435 -3067 0
-2436 -3068 0
-2485 -3001 0
-2486 -3002 0
-2487 -3003 0
-2488 -3004 0
-2957 -3017 0
-2958 -3018 0
-2959 -3019 0
-2960 -3020 0
-1 -869 0
-2 -870 0
-3 -871 0
-4 -872 0
-9 -1409 0
-10 -1410 0
-11 -1411 0
-12 -1412 0
-29 -265 0
-30 -266 0
-31 -267 0
-32 -268 0
-33 -2125 0
-34 -2126 0
-35 -2127 0
-36 -2128 0
-41 -245 0
-42 -246 0
-43 -247 0
-44 -248 0
-101 -277 0
-102 -278 0
-103 -279 0
-104 -280 0
-105 -149 0
-106 -150 0
-107 -151 0
-108 -152 0
-133 -1421 0
-134 -1422 0
-135 -1423 0
-136 -1424 0
-145 -821 0
-146 -822 0
-147 -823 0
-148 -824 0
-169 -257 0
-170 -258 0
-171 -259 0
-172 -260 0
-173 -2653 0
-174 -2654 0
-175 -2655 0
-176 -2656 0
-209 -573 0
-210 -574 0
-211 -575 0
-212 -576 0
-221 -873 0
-222 -874 0
-223 -875 0
-224 -876 0
-233 -1885 0
-234 -1886 0
-235 -1887 0
-236 -1888 0
-253 -1149 0
-254 -1150 0
-255 -1151 0
-256 -1152 0
-293 -3233 0
-294 -3234 0
-295 -3235 0
-296 -3236 0
-309 -2045 0
-310 -2046 0
-311 -2047 0
-312 -2048 0
-321 -861 0
-322 -862 0
-323 -863 0
-324 -864 0
-341 -885 0
-342 -886 0
-343 -887 0
-344 -888 0
-405 -3221 0
-406 -3222 0
-407 -3223 0
-408 -3224 0
-409 -2177 0
-410 -2178 0
-411 -2179 0
-412 -2180 0
-449 -1029 0
-450 -1030 0
-451 -1031 0
-452 -1032 0
-501 -513 0
-502 -514 0
-503 -515 0
-504 -516 0
-517 -2037 0
-518 -2038 0
-519 -2039 0
-520 -2040 0
-521 -545 0
-522 -546 0
-523 -547 0
-524 -548 0
-549 -1053 0
-550 -1054 0
-551 -1055 0
-552 -1056 0
-569 -3337 0
-570 -3338 0
-571 -3339 0
-572 -3340 0
-629 -1133 0
-630 -1134 0
-631 -1135 0
-632 -1136 0
-693 -1381 0
-694 -1382 0
-695 -1383 0
-696 -1384 0
-701 -2853 0
-702 -2854 0
-703 -2855 0
-704 -2856 0
-809 -1001 0
-810 -1002 0
-811 -1003 0
-812 -1004 0
-813 -2845 0
-814 -2846 0
-815 -2847 0
-816 -2848 0
-925 -1457 0
-926 -1458 0
-927 -1459 0
-928 -1460 0
-957 -1785 0
-958 -1786 0
-959 -1787 0
-960 -1788 0
-1237 -2901 0
-1238 -2902 0
-1239 -2903 0
-1240 -2904 0
-1253 -2097 0
-1254 -2098 0
-1255 -2099 0
-1256 -2100 0
-1309 -3357 0
-1310 -3358 0
-1311 -3359 0
-1312 -3360 0
-1385 -1593 0
-1386 -1594 0
-1387 -1595 0
-1388 -1596 0
-1405 -3041 0
-1406 -3042 0
-1407 -3043 0
-1408 -3044 0
-1465 -2081 0
-1466 -2082 0
-1467 -2083 0
-1468 -2084 0
-1477 -2145 0
-1478 -2146 0
-1479 -2147 0
-1480 -2148 0
-1509 -3093 0
-1510 -3094 0
-1511 -3095 0
-1512 -3096 0
-1665 -3341 0
-1666 -3342 0
-1667 -3343 0
-1668 -3344 0
-1725 -1985 0
-1726 -1986 0
-1727 -1987 0
-1728 -1988 0
-1757 -1849 0
-1758 -1850 0
-1759 -1851 0
-1760 -1852 0
-1865 -2149 0
-1866 -2150 0
-1867 -2151 0
-1868 -2152 0
-1869 -2253 0
-1870 -2254 0
-1871 -2255 0
-1872 -2256 0
-1961 -2313 0
-1962 -2314 0
-1963 -2315 0
-1964 -2316 0
-1965 -3069 0
-1966 -3070 0
-1967 -3071 0
-1968 -3072 0
-2057 -2305 0
-2058 -2306 0
-2059 -2307 0
-2060 -2308 0
-2077 -2229 0
-2078 -2230 0
-2079 -2231 0
-2080 -2232 0
-2497 -3229 0
-2498 -3230 0
-2499 -3231 0
-2500 -3232 0
-2597 -2865 0
-2598 -2866 0
-2599 -2867 0
-2600 -2868 0
-1 -597 0
-2 -598 0
-3 -599 0
-4 -600 0
-77 -1957 0
-78 -1958 0
-79 -1959 0
-80 -1960 0
-89 -1325 0
-90 -1326 0
-91 -1327 0
-92 -1328 0
-105 -357 0
-106 -358 0
-107 -359 0
-108 -360 0
-125 -1673 0
-126 -1674 0
-127 -1675 0
-128 -1676 0
-129 -1469 0
-130 -1470 0
-131 -1471 0
-132 -1472 0
-133 -1905 0
-134 -1906 0
-135 -1907 0
-136 -1908 0
-145 -3253 0
-146 -3254 0
-147 -3255 0
-148 -3256 0
-149 -217 0
-150 -218 0
-151 -219 0
-152 -220 0
-161 -1481 0
-162 -1482 0
-163 -1483 0
-164 -1484 0
-169 -521 0
-170 -522 0
-171 -523 0
-172 -524 0
-177 -309 0
-178 -310 0
-179 -311 0
-180 -312 0
-197 -1329 0
-198 -1330 0
-199 -1331 0
-200 -1332 0
-253 -2697 0
-254 -2698 0
-255 -2699 0
-256 -2700 0
-257 -545 0
-258 -546 0
-259 -547 0
-260 -548 0
-269 -2553 0
-270 -2554 0
-271 -2555 0
-272 -2556 0
-273 -1617 0
-274 -1618 0
-275 -1619 0
-276 -1620 0
-289 -2217 0
-290 -2218 0
-291 -2219 0
-292 -2220 0
-321 -2093 0
-322 -2094 0
-323 -2095 0
-324 -2096 0
-353 -393 0
-354 -394 0
-355 -395 0
-356 -396 0
-381 -1185 0
-382 -1186 0
-383 -1187 0
-384 -1188 0
-409 -449 0
-410 -450 0
-411 -451 0
-412 -452 0
-489 -637 0
-490 -638 0
-491 -639 0
-492 -640 0
-497 -2329 0
-498 -2330 0
-499 -2331 0
-500 -2332 0
-549 -1953 0
-550 -1954 0
-551 -1955 0
-552 -1956 0
-593 -2465 0
-594 -2466 0
-595 -2467 0
-596 -2468 0
-653 -2085 0
-654 -2086 0
-655 -2087 0
-656 -2088 0
-681 -1449 0
-682 -1450 0
-683 -1451 0
-684 -1452 0
-725 -2069 0
-726 -2070 0
-727 -2071 0
-728 -2072 0
-773 -2129 0
-774 -2130 0
-775 -2131 0
-776 -2132 0
-793 -2769 0
-794 -2770 0
-795 -2771 0
-796 -2772 0
-857 -1277 0
-858 -1278 0
-859 -1279 0
-860 -1280 0
-861 -1937 0
-862 -1938 0
-863 -1939 0
-864 -1940 0
-905 -3397 0
-906 -3398 0
-907 -3399 0
-908 -3400 0
-945 -1665 0
-946 -1666 0
-947 -1667 0
-948 -1668 0
-953 -2921 0
-954 -2922 0
-955 -2923 0
-956 -2924 0
-989 -1265 0
-990 -1266 0
-991 -1267 0
-992 -1268 0
-993 -1201 0
-994 -1202 0
-995 -1203 0
-996 -1204 0
-1053 -1333 0
-1054 -1334 0
-1055 -1335 0
-1056 -1336 0
-1057 -1777 0
-1058 -1778 0
-1059 -1779 0
-1060 -1780 0
-1085 -1313 0
-1086 -1314 0
-1087 -1315 0
-1088 -1316 0
-1213 -1389 0
-1214 -1390 0
-1215 -1391 0
-1216 -1392 0
-1293 -3389 0
-1294 -3390 0
-1295 -3391 0
-1296 -3392 0
-1317 -1705 0
-1318 -1706 0
-1319 -1707 0
-1320 -1708 0
-1341 -1853 0
-1342 -1854 0
-1343 -1855 0
-1344 -1856 0
-1353 -2425 0
-1354 -2426 0
-1355 -2427 0
-1356 -2428 0
-1437 -1825 0
-1438 -1826 0
-1439 -1827 0
-1440 -1828 0
-1497 -2817 0
-1498 -2818 0
-1499 -2819 0
-1500 -2820 0
-1641 -1709 0
-1642 -1710 0
-1643 -1711 0
-1644 -1712 0
-1685 -2281 0
-1686 -2282 0
-1687 -2283 0
-1688 -2284 0
-1729 -2509 0
-1730 -2510 0
-1731 -2511 0
-1732 -2512 0
-1865 -1949 0
-1866 -1950 0
-1867 -1951 0
-1868 -1952 0
-1877 -2445 0
-1878 -2446 0
-1879 -2447 0
-1880 -2448 0
-1881 -3245 0
-1882 -3246 0
-1883 -3247 0
-1884 -3248 0
-1929 -2997 0
-1930 -2998 0
-1931 -2999 0
-1932 -3000 0
-1941 -2481 0
-1942 -2482 0
-1943 -2483 0
-1944 -2484 0
-2157 -2345 0
-2158 -2346 0
-2159 -2347 0
-2160 -2348 0
-2201 -2733 0
-2202 -2734 0
-2203 -2735 0
-2204 -2736 0
-2313 -3009 0
-2314 -3010 0
-2315 -3011 0
-2316 -3012 0
-2409 -2917 0
-2410 -2918 0
-2411 -2919 0
-2412 -2920 0
-2429 -2849 0
-2430 -2850 0
-2431 -2851 0
-2432 -2852 0
-2469 -3249 0
-2470 -3250 0
-2471 -3251 0
-2472 -3252 0
-2501 -2841 0
-2502 -2842 0
-2503 -2843 0
-2504 -2844 0
-2593 -2601 0
-2594 -2602 0
-2595 -2603 0
-2596 -2604 0
-2637 -3241 0
-2638 -3242 0
-2639 -3243 0
-2640 -3244 0
-2901 -3309 0
-2902 -3310 0
-2903 -3311 0
-2904 -3312 0
-149 -2949 0
-150 -2950 0
-151 -2951 0
-152 -2952 0
-297 -1241 0
-298 -1242 0
-299 -1243 0
-300 -1244 0
-365 -665 0
-366 -666 0
-367 -667 0
-368 -668 0
-625 -3305 0
-626 -3306 0
-627 -3307 0
-628 -3308 0
-749 -1273 0
-750 -1274 0
-751 -1275 0
-752 -1276 0
-801 -1417 0
-802 -1418 0
-803 -1419 0
-804 -1420 0
-957 -2365 0
-958 -2366 0
-959 -2367 0
-960 -2368 0
-1045 -2701 0
-1046 -2702 0
-1047 -2703 0
-1048 -2704 0
-1085 -2825 0
-1086 -2826 0
-1087 -2827 0
-1088 -2828 0
-1133 -2605 0
-1134 -2606 0
-1135 -2607 0
-1136 -2608 0
-1569 -2589 0
-1570 -2590 0
-1571 -2591 0
-1572 -2592 0
-1785 -1809 0
-1786 -1810 0
-1787 -1811 0
-1788 -1812 0
-1929 -3381 0
-1930 -3382 0
-1931 -3383 0
-1932 -3384 0
-1933 -2449 0
-1934 -2450 0
-1935 -2451 0
-1936 -2452 0
-2345 -2425 0
-2346 -2426 0
-2347 -2427 0
-2348 -2428 0
-2513 -2693 0
-2514 -2694 0
-2515 -2695 0
-2516 -2696 0
-2777 -3001 0
-2778 -3002 0
-2779 -3003 0
-2780 -3004 0
-3049 -3065 0
-3050 -3066 0
-3051 -3067 0
-3052 -3068 0
-13 -1605 0
-14 -1606 0
-15 -1607 0
-16 -1608 0
-25 -2325 0
-26 -2326 0
-27 -2327 0
-28 -2328 0
-33 -973 0
-34 -974 0
-35 -975 0
-36 -976 0
-85 -3297 0
-86 -3298 0
-87 -3299 0
-88 -3300 0
-97 -1997 0
-98 -1998 0
-99 -1999 0
-100 -2000 0
-145 -2193 0
-146 -2194 0
-147 -2195 0
-148 -2196 0
-169 -321 0
-170 -322 0
-171 -323 0
-172 -324 0
-177 -489 0
-178 -490 0
-179 -491 0
-180 -492 0
-229 -585 0
-230 -586 0
-231 -587 0
-232 -588 0
-257 -861 0
-258 -862 0
-259 -863 0
-260 -864 0
-285 -1501 0
-286 -1502 0
-287 -1503 0
-288 -1504 0
-309 -637 0
-310 -638 0
-311 -639 0
-312 -640 0
-333 -2545 0
-334 -2546 0
-335 -2547 0
-336 -2548 0
-497 -2873 0
-498 -2874 0
-499 -2875 0
-500 -2876 0
-509 -589 0
-510 -590 0
-511 -591 0
-512 -592 0
-521 -2093 0
-522 -2094 0
-523 -2095 0
-524 -2096 0
-537 -2781 0
-538 -2782 0
-539 -2783 0
-540 -2784 0
-545 -1937 0
-546 -1938 0
-547 -1939 0
-548 -1940 0
-617 -3229 0
-618 -3230 0
-619 -3231 0
-620 -3232 0
-717 -1909 0
-718 -1910 0
-719 -1911 0
-720 -1912 0
-777 -1145 0
-778 -1146 0
-779 -1147 0
-780 -1148 0
-833 -3313 0
-834 -3314 0
-835 -3315 0
-836 -3316 0
-901 -2661 0
-902 -2662 0
-903 -2663 0
-904 -2664 0
-913 -1589 0
-914 -1590 0
-915 -1591 0
-916 -1592 0
-1001 -2853 0
-1002 -2854 0
-1003 -2855 0
-1004 -2856 0
-1101 -3013 0
-1102 -3014 0
-1103 -3015 0
-1104 -3016 0
-1209 -2821 0
-1210 -2822 0
-1211 -2823 0
-1212 -2824 0
-1233 -2561 0
-1234 -2562 0
-1235 -2563 0
-1236 -2564 0
-1365 -1897 0
-1366 -1898 0
-1367 -1899 0
-1368 -1900 0
-1401 -2905 0
-1402 -2906 0
-1403 -2907 0
-1404 -2908 0
-1465 -2117 0
-1466 -2118 0
-1467 -2119 0
-1468 -2120 0
-1521 -1889 0
-1522 -1890 0
-1523 -1891 0
-1524 -1892 0
-1753 -2497 0
-1754 -2498 0
-1755 -2499 0
-1756 -2500 0
-1769 -3145 0
-1770 -3146 0
-1771 -3147 0
-1772 -3148 0
-1845 -2473 0
-1846 -2474 0
-1847 -2475 0
-1848 -2476 0
-1861 -3101 0
-1862 -3102 0
-1863 -3103 0
-1864 -3104 0
-2445 -2729 0
-2446 -2730 0
-2447 -2731 0
-2448 -2732 0
-33 -1417 0
-34 -1418 0
-35 -1419 0
-36 -1420 0
-89 -577 0
-90 -578 0
-91 -579 0
-92 -580 0
-93 -641 0
-94 -642 0
-95 -643 0
-96 -644 0
-129 -457 0
-130 -458 0
-131 -459 0
-132 -460 0
-137 -801 0
-138 -802 0
-139 -803 0
-140 -804 0
-153 -621 0
-154 -622 0
-155 -623 0
-156 -624 0
-193 -2013 0
-194 -2014 0
-195 -2015 0
-196 -2016 0
-233 -393 0
-234 -394 0
-235 -395 0
-236 -396 0
-241 -2621 0
-242 -2622 0
-243 -2623 0
-244 -2624 0
-285 -1613 0
-286 -1614 0
-287 -1615 0
-288 -1616 0
-297 -421 0
-298 -422 0
-299 -423 0
-300 -424 0
-497 -1245 0
-498 -1246 0
-499 -1247 0
-500 -1248 0
-529 -1561 0
-530 -1562 0
-531 -1563 0
-532 -1564 0
-625 -1785 0
-626 -1786 0
-627 -1787 0
-628 -1788 0
-645 -1389 0
-646 -1390 0
-647 -1391 0
-648 -1392 0
-685 -1113 0
-686 -1114 0
-687 -1115 0
-688 -1116 0
-697 -2229 0
-698 -2230 0
-699 -2231 0
-700 -2232 0
-833 -1025 0
-834 -1026 0
-835 -1027 0
-836 -1028 0
-837 -1445 0
-838 -1446 0
-839 -1447 0
-840 -1448 0
-857 -1137 0
-858 -1138 0
-859 -1139 0
-860 -1140 0
-901 -2077 0
-902 -2078 0
-903 -2079 0
-904 -2080 0
-945 -1917 0
-946 -1918 0
-947 -1919 0
-948 -1920 0
-989 -1733 0
-990 -1734 0
-991 -1735 0
-992 -1736 0
-993 -1737 0
-994 -1738 0
-995 -1739 0
-996 -1740 0
-1073 -1129 0
-1074 -1130 0
-1075 -1131 0
-1076 -1132 0
-1385 -1565 0
-1386 -1566 0
-1387 -1567 0
-1388 -1568 0
-1473 -1673 0
-1474 -1674 0
-1475 -1675 0
-1476 -1676 0
-1477 -1713 0
-1478 -1714 0
-1479 -1715 0
-1480 -1716 0
-1589 -1937 0
-1590 -1938 0
-1591 -1939 0
-1592 -1940 0
-1629 -2813 0
-1630 -2814 0
-1631 -2815 0
-1632 -2816 0
-1641 -2617 0
-1642 -2618 0
-1643 -2619 0
-1644 -2620 0
-1685 -2109 0
-1686 -2110 0
-1687 -2111 0
-1688 -2112 0
-1689 -2129 0
-1690 -2130 0
-1691 -2131 0
-1692 -2132 0
-1693 -2441 0
-1694 -2442 0
-1695 -2443 0
-1696 -2444 0
-1741 -2085 0
-1742 -2086 0
-1743 -2087 0
-1744 -2088 0
-2137 -3017 0
-2138 -3018 0
-2139 -3019 0
-2140 -3020 0
-2409 -2681 0
-2410 -2682 0
-2411 -2683 0
-2412 -2684 0
-2641 -2865 0
-2642 -2866 0
-2643 -2867 0
-2644 -2868 0
-2733 -3397 0
-2734 -3398 0
-2735 -3399 0
-2736 -3400 0
-2841 -3253 0
-2842 -3254 0
-2843 -3255 0
-2844 -3256 0
-2877 -3185 0
-2878 -3186 0
-2879 -3187 0
-2880 -3188 0
-17 -841 0
-18 -842 0
-19 -843 0
-20 -844 0
-33 -1241 0
-34 -1242 0
-35 -1243 0
-36 -1244 0
-41 -1925 0
-42 -1926 0
-43 -1927 0
-44 -1928 0
-101 -325 0
-102 -326 0
-103 -327 0
-104 -328 0
-105 -453 0
-106 -454 0
-107 -455 0
-108 -456 0
-133 -461 0
-134 -462 0
-135 -463 0
-136 -464 0
-137 -297 0
-138 -298 0
-139 -299 0
-140 -300 0
-145 -2861 0
-146 -2862 0
-147 -2863 0
-148 -2864 0
-161 -377 0
-162 -378 0
-163 -379 0
-164 -380 0
-177 -2457 0
-178 -2458 0
-179 -2459 0
-180 -2460 0
-193 -997 0
-194 -998 0
-195 -999 0
-196 -1000 0
-201 -917 0
-202 -918 0
-203 -919 0
-204 -920 0
-221 -369 0
-222 -370 0
-223 -371 0
-224 -372 0
-249 -1801 0
-250 -1802 0
-251 -1803 0
-252 -1804 0
-293 -1197 0
-294 -1198 0
-295 -1199 0
-296 -1200 0
-301 -401 0
-302 -402 0
-303 -403 0
-304 -404 0
-405 -1201 0
-406 -1202 0
-407 -1203 0
-408 -1204 0
-413 -2753 0
-414 -2754 0
-415 -2755 0
-416 -2756 0
-417 -1349 0
-418 -1350 0
-419 -1351 0
-420 -1352 0
-433 -1993 0
-434 -1994 0
-435 -1995 0
-436 -1996 0
-469 -781 0
-470 -782 0
-471 -783 0
-472 -784 0
-485 -1185 0
-486 -1186 0
-487 -1187 0
-488 -1188 0
-489 -1017 0
-490 -1018 0
-491 -1019 0
-492 -1020 0
-501 -1665 0
-502 -1666 0
-503 -1667 0
-504 -1668 0
-513 -3341 0
-514 -3342 0
-515 -3343 0
-516 -3344 0
-525 -937 0
-526 -938 0
-527 -939 0
-528 -940 0
-529 -993 0
-530 -994 0
-531 -995 0
-532 -996 0
-569 -1321 0
-570 -1322 0
-571 -1323 0
-572 -1324 0
-593 -753 0
-594 -754 0
-595 -755 0
-596 -756 0
-617 -737 0
-618 -738 0
-619 -739 0
-620 -740 0
-673 -721 0
-674 -722 0
-675 -723 0
-676 -724 0
-693 -2053 0
-694 -2054 0
-695 -2055 0
-696 -2056 0
-741 -2181 0
-742 -2182 0
-743 -2183 0
-744 -2184 0
-757 -945 0
-758 -946 0
-759 -947 0
-760 -948 0
-789 -2885 0
-790 -2886 0
-791 -2887 0
-792 -2888 0
-809 -1965 0
-810 -1966 0
-811 -1967 0
-812 -1968 0
-825 -2685 0
-826 -2686 0
-827 -2687 0
-828 -2688 0
-881 -2173 0
-882 -2174 0
-883 -2175 0
-884 -2176 0
-893 -1369 0
-894 -1370 0
-895 -1371 0
-896 -1372 0
-897 -1677 0
-898 -1678 0
-899 -1679 0
-900 -1680 0
-901 -2625 0
-902 -2626 0
-903 -2627 0
-904 -2628 0
-921 -3369 0
-922 -3370 0
-923 -3371 0
-924 -3372 0
-1001 -3069 0
-1002 -3070 0
-1003 -3071 0
-1004 -3072 0
-1005 -1805 0
-1006 -1806 0
-1007 -1807 0
-1008 -1808 0
-1013 -1281 0
-1014 -1282 0
-1015 -1283 0
-1016 -1284 0
-1045 -1249 0
-1046 -1250 0
-1047 -1251 0
-1048 -1252 0
-1057 -1353 0
-1058 -1354 0
-1059 -1355 0
-1060 -1356 0
-1065 -1205 0
-1066 -1206 0
-1067 -1207 0
-1068 -1208 0
-1105 -2869 0
-1106 -2870 0
-1107 -2871 0
-1108 -2872 0
-1117 -1233 0
-1118 -1234 0
-1119 -1235 0
-1120 -1236 0
-1173 -2333 0
-1174 -2334 0
-1175 -2335 0
-1176 -2336 0
-1265 -1277 0
-1266 -1278 0
-1267 -1279 0
-1268 -1280 0
-1285 -1401 0
-1286 -1402 0
-1287 -1403 0
-1288 -1404 0
-1397 -3301 0
-1398 -3302 0
-1399 -3303 0
-1400 -3304 0
-1437 -1573 0
-1438 -1574 0
-1439 -1575 0
-1440 -1576 0
-1477 -2477 0
-1478 -2478 0
-1479 -2479 0
-1480 -2480 0
-1493 -1705 0
-1494 -1706 0
-1495 -1707 0
-1496 -1708 0
-1561 -1737 0
-1562 -1738 0
-1563 -1739 0
-1564 -1740 0
-1741 -3309 0
-1742 -3310 0
-1743 -3311 0
-1744 -3312 0
-1753 -1845 0
-1754 -1846 0
-1755 -1847 0
-1756 -1848 0
-1777 -2425 0
-1778 -2426 0
-1779 -2427 0
-1780 -2428 0
-1881 -2469 0
-1882 -2470 0
-1883 -2471 0
-1884 -2472 0
-1893 -3321 0
-1894 -3322 0
-1895 -3323 0
-1896 -3324 0
-1961 -2801 0
-1962 -2802 0
-1963 -2803 0
-1964 -2804 0
-2033 -2341 0
-2034 -2342 0
-2035 -2343 0
-2036 -2344 0
-2061 -3329 0
-2062 -3330 0
-2063 -3331 0
-2064 -3332 0
-2149 -2901 0
-2150 -2902 0
-2151 -2903 0
-2152 -2904 0
-2261 -2453 0
-2262 -2454 0
-2263 -2455 0
-2264 -2456 0
-2289 -3045 0
-2290 -3046 0
-2291 -3047 0
-2292 -3048 0
-2369 -2793 0
-2370 -2794 0
-2371 -2795 0
-2372 -2796 0
-2757 -3113 0
-2758 -3114 0
-2759 -3115 0
-2760 -3116 0
-2925 -3377 0
-2926 -3378 0
-2927 -3379 0
-2928 -3380 0
-3245 -3249 0
-3246 -3250 0
-3247 -3251 0
-3248 -3252 0
-13 -1185 0
-14 -1186 0
-15 -1187 0
-16 -1188 0
-25 -485 0
-26 -486 0
-27 -487 0
-28 -488 0
-37 -1325 0
-38 -1326 0
-39 -1327 0
-40 -1328 0
-97 -2829 0
-98 -2830 0
-99 -2831 0
-100 -2832 0
-125 -2713 0
-126 -2714 0
-127 -2715 0
-128 -2716 0
-133 -2601 0
-134 -2602 0
-135 -2603 0
-136 -2604 0
-145 -3217 0
-146 -3218 0
-147 -3219 0
-148 -3220 0
-149 -589 0
-150 -590 0
-151 -591 0
-152 -592 0
-173 -1969 0
-174 -1970 0
-175 -1971 0
-176 -1972 0
-253 -3289 0
-254 -3290 0
-255 -3291 0
-256 -3292 0
-257 -265 0
-258 -266 0
-259 -267 0
-260 -268 0
-293 -405 0
-294 -406 0
-295 -407 0
-296 -408 0
-301 -1461 0
-302 -1462 0
-303 -1463 0
-304 -1464 0
-317 -853 0
-318 -854 0
-319 -855 0
-320 -856 0
-385 -2641 0
-386 -2642 0
-387 -2643 0
-388 -2644 0
-397 -585 0
-398 -586 0
-399 -587 0
-400 -588 0
-413 -1625 0
-414 -1626 0
-415 -1627 0
-416 -1628 0
-449 -597 0
-450 -598 0
-451 -599 0
-452 -600 0
-489 -973 0
-490 -974 0
-491 -975 0
-492 -976 0
-497 -3325 0
-498 -3326 0
-499 -3327 0
-500 -3328 0
-537 -1473 0
-538 -1474 0
-539 -1475 0
-540 -1476 0
-549 -1169 0
-550 -1170 0
-551 -1171 0
-552 -1172 0
-581 -2969 0
-582 -2970 0
-583 -2971 0
-584 -2972 0
-601 -1689 0
-602 -1690 0
-603 -1691 0
-604 -1692 0
-617 -1741 0
-618 -1742 0
-619 -1743 0
-620 -1744 0
-657 -2581 0
-658 -2582 0
-659 -2583 0
-660 -2584 0
-737 -3309 0
-738 -3310 0
-739 -3311 0
-740 -3312 0
-833 -2021 0
-834 -2022 0
-835 -2023 0
-836 -2024 0
-953 -1157 0
-954 -1158 0
-955 -1159 0
-956 -1160 0
-1093 -1261 0
-1094 -1262 0
-1095 -1263 0
-1096 -1264 0
-1137 -2905 0
-1138 -2906 0
-1139 -2907 0
-1140 -2908 0
-1197 -1201 0
-1198 -1202 0
-1199 -1203 0
-1200 -1204 0
-1245 -2009 0
-1246 -2010 0
-1247 -2011 0
-1248 -2012 0
-1429 -2121 0
-1430 -2122 0
-1431 -2123 0
-1432 -2124 0
-1437 -2421 0
-1438 -2422 0
-1439 -2423 0
-1440 -2424 0
-1453 -2933 0
-1454 -2934 0
-1455 -2935 0
-1456 -2936 0
-1497 -1797 0
-1498 -1798 0
-1499 -1799 0
-1500 -1800 0
-1521 -3085 0
-1522 -3086 0
-1523 -3087 0
-1524 -3088 0
-1557 -2541 0
-1558 -2542 0
-1559 -2543 0
-1560 -2544 0
-1573 -1697 0
-1574 -1698 0
-1575 -1699 0
-1576 -1700 0
-1629 -2841 0
-1630 -2842 0
-1631 -2843 0
-1632 -2844 0
-1753 -1949 0
-1754 -1950 0
-1755 -1951 0
-1756 -1952 0
-1765 -2549 0
-1766 -2550 0
-1767 -2551 0
-1768 -2552 0
-2049 -2485 0
-2050 -2486 0
-2051 -2487 0
-2052 -2488 0
-2097 -2629 0
-2098 -2630 0
-2099 -2631 0
-2100 -2632 0
-2153 -2193 0
-2154 -2194 0
-2155 -2195 0
-2156 -2196 0
-2409 -3237 0
-2410 -3238 0
-2411 -3239 0
-2412 -3240 0
-2557 -3001 0
-2558 -3002 0
-2559 -3003 0
-2560 -3004 0
-2589 -2605 0
-2590 -2606 0
-2591 -2607 0
-2592 -2608 0
-2681 -3157 0
-2682 -3158 0
-2683 -3159 0
-2684 -3160 0
-2813 -3253 0
-2814 -3254 0
-2815 -3255 0
-2816 -3256 0
-2989 -3277 0
-2990 -3278 0
-2991 -3279 0
-2992 -3280 0
-1 -2693 0
-2 -2694 0
-3 -2695 0
-4 -2696 0
-21 -961 0
-22 -962 0
-23 -963 0
-24 -964 0
-29 -3001 0
-30 -3002 0
-31 -3003 0
-32 -3004 0
-33 -2701 0
-34 -2702 0
-35 -2703 0
-36 -2704 0
-101 -1389 0
-102 -1390 0
-103 -1391 0
-104 -1392 0
-105 -2349 0
-106 -2350 0
-107 -2351 0
-108 -2352 0
-133 -645 0
-134 -646 0
-135 -647 0
-136 -648 0
-137 -1045 0
-138 -1046 0
-139 -1047 0
-140 -1048 0
-157 -977 0
-158 -978 0
-159 -979 0
-160 -980 0
-165 -205 0
-166 -206 0
-167 -207 0
-168 -208 0
-169 -2557 0
-170 -2558 0
-171 -2559 0
-172 -2560 0
-193 -2089 0
-194 -2090 0
-195 -2091 0
-196 -2092 0
-197 -885 0
-198 -886 0
-199 -887 0
-200 -888 0
-273 -341 0
-274 -342 0
-275 -343 0
-276 -344 0
-297 -1249 0
-298 -1250 0
-299 -1251 0
-300 -1252 0
-301 -1213 0
-302 -1214 0
-303 -1215 0
-304 -1216 0
-361 -513 0
-362 -514 0
-363 -515 0
-364 -516 0
-441 -769 0
-442 -770 0
-443 -771 0
-444 -772 0
-549 -3189 0
-550 -3190 0
-551 -3191 0
-552 -3192 0
-673 -1449 0
-674 -1450 0
-675 -1451 0
-676 -1452 0
-765 -2937 0
-766 -2938 0
-767 -2939 0
-768 -2940 0
-837 -2485 0
-838 -2486 0
-839 -2487 0
-840 -2488 0
-953 -3233 0
-954 -3234 0
-955 -3235 0
-956 -3236 0
-1041 -2665 0
-1042 -2666 0
-1043 -2667 0
-1044 -2668 0
-1117 -1221 0
-1118 -1222 0
-1119 -1223 0
-1120 -1224 0
-1141 -2049 0
-1142 -2050 0
-1143 -2051 0
-1144 -2052 0
-1157 -3221 0
-1158 -3222 0
-1159 -3223 0
-1160 -3224 0
-1165 -2513 0
-1166 -2514 0
-1167 -2515 0
-1168 -2516 0
-1341 -2677 0
-1342 -2678 0
-1343 -2679 0
-1344 -2680 0
-1385 -1693 0
-1386 -1694 0
-1387 -1695 0
-1388 -1696 0
-1393 -2945 0
-1394 -2946 0
-1395 -2947 0
-1396 -2948 0
-1425 -2237 0
-1426 -2238 0
-1427 -2239 0
-1428 -2240 0
-1553 -2525 0
-1554 -2526 0
-1555 -2527 0
-1556 -2528 0
-1565 -2441 0
-1566 -2442 0
-1567 -2443 0
-1568 -2444 0
-1573 -3097 0
-1574 -3098 0
-1575 -3099 0
-1576 -3100 0
-1745 -3337 0
-1746 -3338 0
-1747 -3339 0
-1748 -3340 0
-1869 -2517 0
-1870 -2518 0
-1871 -2519 0
-1872 -2520 0
-1881 -2521 0
-1882 -2522 0
-1883 -2523 0
-1884 -2524 0
-1929 -3353 0
-1930 -3354 0
-1931 -3355 0
-1932 -3356 0
-2137 -2205 0
-2138 -2206 0
-2139 -2207 0
-2140 -2208 0
-2233 -2953 0
-2234 -2954 0
-2235 -2955 0
-2236 -2956 0
-2385 -3093 0
-2386 -3094 0
-2387 -3095 0
-2388 -3096 0
-2633 -3057 0
-2634 -3058 0
-2635 -3059 0
-2636 -3060 0
-2897 -3229 0
-2898 -3230 0
-2899 -3231 0
-2900 -3232 0
-25 -905 0
-26 -906 0
-27 -907 0
-28 -908 0
-85 -785 0
-86 -786 0
-87 -787 0
-88 -788 0
-93 -429 0
-94 -430 0
-95 -431 0
-96 -432 0
-97 -1281 0
-98 -1282 0
-99 -1283 0
-100 -1284 0
-101 -1717 0
-102 -1718 0
-103 -1719 0
-104 -1720 0
-105 -321 0
-106 -322 0
-107 -323 0
-108 -324 0
-137 -2137 0
-138 -2138 0
-139 -2139 0
-140 -2140 0
-149 -861 0
-150 -862 0
-151 -863 0
-152 -864 0
-217 -1937 0
-218 -1938 0
-219 -1939 0
-220 -1940 0
-229 -437 0
-230 -438 0
-231 -439 0
-232 -440 0
-249 -2185 0
-250 -2186 0
-251 -2187 0
-252 -2188 0
-345 -797 0
-346 -798 0
-347 -799 0
-348 -800 0
-357 -2093 0
-358 -2094 0
-359 -2095 0
-360 -2096 0
-445 -1205 0
-446 -1206 0
-447 -1207 0
-448 -1208 0
-469 -577 0
-470 -578 0
-471 -579 0
-472 -580 0
-513 -2821 0
-514 -2822 0
-515 -2823 0
-516 -2824 0
-541 -1013 0
-542 -1014 0
-543 -1015 0
-544 -1016 0
-581 -817 0
-582 -818 0
-583 -819 0
-584 -820 0
-801 -3017 0
-802 -3018 0
-803 -3019 0
-804 -3020 0
-1033 -1409 0
-1034 -1410 0
-1035 -1411 0
-1036 -1412 0
-1041 -1545 0
-1042 -1546 0
-1043 -1547 0
-1044 -1548 0
-1045 -2205 0
-1046 -2206 0
-1047 -2207 0
-1048 -2208 0
-1133 -1589 0
-1134 -1590 0
-1135 -1591 0
-1136 -1592 0
-1189 -1345 0
-1190 -1346 0
-1191 -1347 0
-1192 -1348 0
-1253 -3065 0
-1254 -3066 0
-1255 -3067 0
-1256 -3068 0
-1293 -2781 0
-1294 -2782 0
-1295 -2783 0
-1296 -2784 0
-1437 -1901 0
-1438 -1902 0
-1439 -1903 0
-1440 -1904 0
-1569 -2673 0
-1570 -2674 0
-1571 -2675 0
-1572 -2676 0
-1661 -2373 0
-1662 -2374 0
-1663 -2375 0
-1664 -2376 0
-1693 -2317 0
-1694 -2318 0
-1695 -2319 0
-1696 -2320 0
-1773 -2257 0
-1774 -2258 0
-1775 -2259 0
-1776 -2260 0
-1845 -2753 0
-1846 -2754 0
-1847 -2755 0
-1848 -2756 0
-1933 -2285 0
-1934 -2286 0
-1935 -2287 0
-1936 -2288 0
-2209 -2733 0
-2210 -2734 0
-2211 -2735 0
-2212 -2736 0
-2321 -3285 0
-2322 -3286 0
-2323 -3287 0
-2324 -3288 0
-2353 -2617 0
-2354 -2618 0
-2355 -2619 0
-2356 -2620 0
-2521 -2677 0
-2522 -2678 0
-2523 -2679 0
-2524 -2680 0
-2585 -2985 0
-2586 -2986 0
-2587 -2987 0
-2588 -2988 0
-2765 -2993 0
-2766 -2994 0
-2767 -2995 0
-2768 -2996 0
-3053 -3257 0
-3054 -3258 0
-3055 -3259 0
-3056 -3260 0
-13 -1349 0
-14 -1350 0
-15 -1351 0
-16 -1352 0
-25 -417 0
-26 -418 0
-27 -419 0
-28 -420 0
-37 -281 0
-38 -282 0
-39 -283 0
-40 -284 0
-49 -1305 0
-50 -1306 0
-51 -1307 0
-52 -1308 0
-89 -585 0
-90 -586 0
-91 -587 0
-92 -588 0
-93 -229 0
-94 -230 0
-95 -231 0
-96 -232 0
-117 -225 0
-118 -226 0
-119 -227 0
-120 -228 0
-129 -1121 0
-130 -1122 0
-131 -1123 0
-132 -1124 0
-137 -361 0
-138 -362 0
-139 -363 0
-140 -364 0
-153 -397 0
-154 -398 0
-155 -399 0
-156 -400 0
-197 -2385 0
-198 -2386 0
-199 -2387 0
-200 -2388 0
-201 -249 0
-202 -250 0
-203 -251 0
-204 -252 0
-253 -2449 0
-254 -2450 0
-255 -2451 0
-256 -2452 0
-269 -933 0
-270 -934 0
-271 -935 0
-272 -936 0
-285 -425 0
-286 -426 0
-287 -427 0
-288 -428 0
-289 -649 0
-290 -650 0
-291 -651 0
-292 -652 0
-317 -613 0
-318 -614 0
-319 -615 0
-320 -616 0
-341 -1509 0
-342 -1510 0
-343 -1511 0
-344 -1512 0
-429 -437 0
-430 -438 0
-431 -439 0
-432 -440 0
-441 -1989 0
-442 -1990 0
-443 -1991 0
-444 -1992 0
-481 -753 0
-482 -754 0
-483 -755 0
-484 -756 0
-497 -761 0
-498 -762 0
-499 -763 0
-500 -764 0
-525 -741 0
-526 -742 0
-527 -743 0
-528 -744 0
-533 -877 0
-534 -878 0
-535 -879 0
-536 -880 0
-553 -2393 0
-554 -2394 0
-555 -2395 0
-556 -2396 0
-581 -729 0
-582 -730 0
-583 -731 0
-584 -732 0
-617 -949 0
-618 -950 0
-619 -951 0
-620 -952 0
-625 -2725 0
-626 -2726 0
-627 -2727 0
-628 -2728 0
-769 -1701 0
-770 -1702 0
-771 -1703 0
-772 -1704 0
-885 -3093 0
-886 -3094 0
-887 -3095 0
-888 -3096 0
-917 -1801 0
-918 -1802 0
-919 -1803 0
-920 -1804 0
-937 -2181 0
-938 -2182 0
-939 -2183 0
-940 -2184 0
-957 -1525 0
-958 -1526 0
-959 -1527 0
-960 -1528 0
-1165 -3013 0
-1166 -3014 0
-1167 -3015 0
-1168 -3016 0
-1249 -3341 0
-1250 -3342 0
-1251 -3343 0
-1252 -3344 0
-1317 -3173 0
-1318 -3174 0
-1319 -3175 0
-1320 -3176 0
-1357 -1665 0
-1358 -1666 0
-1359 -1667 0
-1360 -1668 0
-1449 -2465 0
-1450 -2466 0
-1451 -2467 0
-1452 -2468 0
-1489 -1541 0
-1490 -1542 0
-1491 -1543 0
-1492 -1544 0
-1693 -1829 0
-1694 -1830 0
-1695 -1831 0
-1696 -1832 0
-1757 -2597 0
-1758 -2598 0
-1759 -2599 0
-1760 -2600 0
-1773 -2301 0
-1774 -2302 0
-1775 -2303 0
-1776 -2304 0
-1789 -1933 0
-1790 -1934 0
-1791 -1935 0
-1792 -1936 0
-1849 -2865 0
-1850 -2866 0
-1851 -2867 0
-1852 -2868 0
-1997 -3297 0
-1998 -3298 0
-1999 -3299 0
-2000 -3300 0
-2117 -2561 0
-2118 -2562 0
-2119 -2563 0
-2120 -2564 0
-2205 -2821 0
-2206 -2822 0
-2207 -2823 0
-2208 -2824 0
-2249 -2797 0
-2250 -2798 0
-2251 -2799 0
-2252 -2800 0
-2377 -3401 0
-2378 -3402 0
-2379 -3403 0
-2380 -3404 0
-2481 -2921 0
-2482 -2922 0
-2483 -2923 0
-2484 -2924 0
-2505 -2605 0
-2506 -2606 0
-2507 -2607 0
-2508 -2608 0
-2825 -2949 0
-2826 -2950 0
-2827 -2951 0
-2828 -2952 0
-3137 -3373 0
-3138 -3374 0
-3139 -3375 0
-3140 -3376 0
-1 -9 0
-2 -10 0
-3 -11 0
-4 -12 0
-25 -2441 0
-26 -2442 0
-27 -2443 0
-28 -2444 0
-105 -1513 0
-106 -1514 0
-107 -1515 0
-108 -1516 0
-129 -3029 0
-130 -3030 0
-131 -3031 0
-132 -3032 0
-133 -2357 0
-134 -2358 0
-135 -2359 0
-136 -2360 0
-137 -3037 0
-138 -3038 0
-139 -3039 0
-140 -3040 0
-173 -2801 0
-174 -2802 0
-175 -2803 0
-176 -2804 0
-241 -1457 0
-242 -1458 0
-243 -1459 0
-244 -1460 0
-301 -1429 0
-302 -1430 0
-303 -1431 0
-304 -1432 0
-313 -925 0
-314 -926 0
-315 -927 0
-316 -928 0
-489 -1637 0
-490 -1638 0
-491 -1639 0
-492 -1640 0
-529 -1073 0
-530 -1074 0
-531 -1075 0
-532 -1076 0
-561 -3309 0
-562 -3310 0
-563 -3311 0
-564 -3312 0
-625 -1249 0
-626 -1250 0
-627 -1251 0
-628 -1252 0
-669 -737 0
-670 -738 0
-671 -739 0
-672 -740 0
-733 -1837 0
-734 -1838 0
-735 -1839 0
-736 -1840 0
-765 -1673 0
-766 -1674 0
-767 -1675 0
-768 -1676 0
-805 -2837 0
-806 -2838 0
-807 -2839 0
-808 -2840 0
-869 -1409 0
-870 -1410 0
-871 -1411 0
-872 -1412 0
-905 -2237 0
-906 -2238 0
-907 -2239 0
-908 -2240 0
-989 -1293 0
-990 -1294 0
-991 -1295 0
-992 -1296 0
-1021 -2009 0
-1022 -2010 0
-1023 -2011 0
-1024 -2012 0
-1041 -2425 0
-1042 -2426 0
-1043 -2427 0
-1044 -2428 0
-1053 -1245 0
-1054 -1246 0
-1055 -1247 0
-1056 -1248 0
-1061 -1977 0
-1062 -1978 0
-1063 -1979 0
-1064 -1980 0
-1069 -2917 0
-1070 -2918 0
-1071 -2919 0
-1072 -2920 0
-1089 -1473 0
-1090 -1474 0
-1091 -1475 0
-1092 -1476 0
-1093 -1609 0
-1094 -1610 0
-1095 -1611 0
-1096 -1612 0
-1097 -2473 0
-1098 -2474 0
-1099 -2475 0
-1100 -2476 0
-1101 -3301 0
-1102 -3302 0
-1103 -3303 0
-1104 -3304 0
-1117 -2077 0
-1118 -2078 0
-1119 -2079 0
-1120 -2080 0
-1141 -1845 0
-1142 -1846 0
-1143 -1847 0
-1144 -1848 0
-1169 -2849 0
-1170 -2850 0
-1171 -2851 0
-1172 -2852 0
-1257 -2309 0
-1258 -2310 0
-1259 -2311 0
-1260 -2312 0
-1265 -3389 0
-1266 -3390 0
-1267 -3391 0
-1268 -3392 0
-1285 -3253 0
-1286 -3254 0
-1287 -3255 0
-1288 -3256 0
-1365 -2329 0
-1366 -2330 0
-1367 -2331 0
-1368 -2332 0
-1405 -1565 0
-1406 -1566 0
-1407 -1567 0
-1408 -1568 0
-1437 -1629 0
-1438 -1630 0
-1439 -1631 0
-1440 -1632 0
-1453 -1613 0
-1454 -1614 0
-1455 -1615 0
-1456 -1616 0
-1461 -2121 0
-1462 -2122 0
-1463 -2123 0
-1464 -2124 0
-1477 -2697 0
-1478 -2698 0
-1479 -2699 0
-1480 -2700 0
-1521 -2073 0
-1522 -2074 0
-1523 -2075 0
-1524 -2076 0
-1585 -2613 0
-1586 -2614 0
-1587 -2615 0
-1588 -2616 0
-1725 -2645 0
-1726 -2646 0
-1727 -2647 0
-1728 -2648 0
-1745 -2829 0
-1746 -2830 0
-1747 -2831 0
-1748 -2832 0
-1921 -3249 0
-1922 -3250 0
-1923 -3251 0
-1924 -3252 0
-2101 -2705 0
-2102 -2706 0
-2103 -2707 0
-2104 -2708 0
-2201 -2317 0
-2202 -2318 0
-2203 -2319 0
-2204 -2320 0
-2253 -3009 0
-2254 -3010 0
-2255 -3011 0
-2256 -3012 0
-2421 -2841 0
-2422 -2842 0
-2423 -2843 0
-2424 -2844 0
-2437 -3061 0
-2438 -3062 0
-2439 -3063 0
-2440 -3064 0
-2469 -2625 0
-2470 -2626 0
-2471 -2627 0
-2472 -2628 0
-2529 -3273 0
-2530 -3274 0
-2531 -3275 0
-2532 -3276 0
-2569 -3069 0
-2570 -3070 0
-2571 -3071 0
-2572 -3072 0
-2633 -2861 0
-2634 -2862 0
-2635 -2863 0
-2636 -2864 0
-2725 -3341 0
-2726 -3342 0
-2727 -3343 0
-2728 -3344 0
-25 -1381 0
-26 -1382 0
-27 -1383 0
-28 -1384 0
-57 -261 0
-58 -262 0
-59 -263 0
-60 -264 0
-101 -457 0
-102 -458 0
-103 -459 0
-104 -460 0
-105 -353 0
-106 -354 0
-107 -355 0
-108 -356 0
-113 -493 0
-114 -494 0
-115 -495 0
-116 -496 0
-137 -289 0
-138 -290 0
-139 -291 0
-140 -292 0
-213 -373 0
-214 -374 0
-215 -375 0
-216 -376 0
-241 -869 0
-242 -870 0
-243 -871 0
-244 -872 0
-285 -481 0
-286 -482 0
-287 -483 0
-288 -484 0
-309 -3033 0
-310 -3034 0
-311 -3035 0
-312 -3036 0
-357 -393 0
-358 -394 0
-359 -395 0
-360 -396 0
-361 -649 0
-362 -650 0
-363 -651 0
-364 -652 0
-365 -573 0
-366 -574 0
-367 -575 0
-368 -576 0
-425 -753 0
-426 -754 0
-427 -755 0
-428 -756 0
-489 -3077 0
-490 -3078 0
-491 -3079 0
-492 -3080 0
-497 -1149 0
-498 -1150 0
-499 -1151 0
-500 -1152 0
-549 -2105 0
-550 -2106 0
-551 -2107 0
-552 -2108 0
-553 -2053 0
-554 -2054 0
-555 -2055 0
-556 -2056 0
-637 -1193 0
-638 -1194 0
-639 -1195 0
-640 -1196 0
-697 -821 0
-698 -822 0
-699 -823 0
-700 -824 0
-813 -845 0
-814 -846 0
-815 -847 0
-816 -848 0
-833 -3057 0
-834 -3058 0
-835 -3059 0
-836 -3060 0
-945 -1993 0
-946 -1994 0
-947 -1995 0
-948 -1996 0
-1037 -3193 0
-1038 -3194 0
-1039 -3195 0
-1040 -3196 0
-1061 -2177 0
-1062 -2178 0
-1063 -2179 0
-1064 -2180 0
-1133 -1885 0
-1134 -1886 0
-1135 -1887 0
-1136 -1888 0
-1173 -1377 0
-1174 -1378 0
-1175 -1379 0
-1176 -1380 0
-1253 -1433 0
-1254 -1434 0
-1255 -1435 0
-1256 -1436 0
-1365 -2145 0
-1366 -2146 0
-1367 -2147 0
-1368 -2148 0
-1577 -1809 0
-1578 -1810 0
-1579 -1811 0
-1580 -1812 0
-1665 -1801 0
-1666 -1802 0
-1667 -1803 0
-1668 -1804 0
-1765 -2789 0
-1766 -2790 0
-1767 -2791 0
-1768 -2792 0
-1793 -2885 0
-1794 -2886 0
-1795 -2887 0
-1796 -2888 0
-2041 -2477 0
-2042 -2478 0
-2043 -2479 0
-2044 -2480 0
-2197 -2569 0
-2198 -2570 0
-2199 -2571 0
-2200 -2572 0
-2209 -2509 0
-2210 -2510 0
-2211 -2511 0
-2212 -2512 0
-2249 -2805 0
-2250 -2806 0
-2251 -2807 0
-2252 -2808 0
-2357 -3029 0
-2358 -3030 0
-2359 -3031 0
-2360 -3032 0
-2469 -2633 0
-2470 -2634 0
-2471 -2635 0
-2472 -2636 0
-2521 -3317 0
-2522 -3318 0
-2523 -3319 0
-2524 -3320 0
-2581 -2713 0
-2582 -2714 0
-2583 -2715 0
-2584 -2716 0
-2625 -2861 0
-2626 -2862 0
-2627 -2863 0
-2628 -2864 0
-33 -405 0
-34 -406 0
-35 -407 0
-36 -408 0
-85 -281 0
-86 -282 0
-87 -283 0
-88 -284 0
-93 -2485 0
-94 -2486 0
-95 -2487 0
-96 -2488 0
-125 -2185 0
-126 -2186 0
-127 -2187 0
-128 -2188 0
-145 -249 0
-146 -250 0
-147 -251 0
-148 -252 0
-173 -1097 0
-174 -1098 0
-175 -1099 0
-176 -1100 0
-177 -293 0
-178 -294 0
-179 -295 0
-180 -296 0
-193 -1265 0
-194 -1266 0
-195 -1267 0
-196 -1268 0
-253 -465 0
-254 -466 0
-255 -467 0
-256 -468 0
-269 -2049 0
-270 -2050 0
-271 -2051 0
-272 -2052 0
-333 -1469 0
-334 -1470 0
-335 -1471 0
-336 -1472 0
-385 -397 0
-386 -398 0
-387 -399 0
-388 -400 0
-497 -645 0
-498 -646 0
-499 -647 0
-500 -648 0
-537 -677 0
-538 -678 0
-539 -679 0
-540 -680 0
-541 -2517 0
-542 -2518 0
-543 -2519 0
-544 -2520 0
-565 -689 0
-566 -690 0
-567 -691 0
-568 -692 0
-997 -1277 0
-998 -1278 0
-999 -1279 0
-1000 -1280 0
-1085 -2513 0
-1086 -2514 0
-1087 -2515 0
-1088 -2516 0
-1205 -1937 0
-1206 -1938 0
-1207 -1939 0
-1208 -1940 0
-1233 -1525 0
-1234 -1526 0
-1235 -1527 0
-1236 -1528 0
-1245 -1389 0
-1246 -1390 0
-1247 -1391 0
-1248 -1392 0
-1317 -1605 0
-1318 -1606 0
-1319 -1607 0
-1320 -1608 0
-1353 -1509 0
-1354 -1510 0
-1355 -1511 0
-1356 -1512 0
-1425 -2093 0
-1426 -2094 0
-1427 -2095 0
-1428 -2096 0
-1429 -2737 0
-1430 -2738 0
-1431 -2739 0
-1432 -2740 0
-1941 -3005 0
-1942 -3006 0
-1943 -3007 0
-1944 -3008 0
-1945 -2325 0
-1946 -2326 0
-1947 -2327 0
-1948 -2328 0
-1961 -2497 0
-1962 -2498 0
-1963 -2499 0
-1964 -2500 0
-2097 -2665 0
-2098 -2666 0
-2099 -2667 0
-2100 -2668 0
-2125 -3221 0
-2126 -3222 0
-2127 -3223 0
-2128 -3224 0
-2137 -2729 0
-2138 -2730 0
-2139 -2731 0
-2140 -2732 0
-2313 -3229 0
-2314 -3230 0
-2315 -3231 0
-2316 -3232 0
-2469 -2797 0
-2470 -2798 0
-2471 -2799 0
-2472 -2800 0
-2637 -2833 0
-2638 -2834 0
-2639 -2835 0
-2640 -2836 0
-2705 -2817 0
-2706 -2818 0
-2707 -2819 0
-2708 -2820 0
-37 -3001 0
-38 -3002 0
-39 -3003 0
-40 -3004 0
-65 -189 0
-66 -190 0
-67 -191 0
-68 -192 0
-85 -665 0
-86 -666 0
-87 -667 0
-88 -668 0
-97 -3197 0
-98 -3198 0
-99 -3199 0
-100 -3200 0
-101 -1113 0
-102 -1114 0
-103 -1115 0
-104 -1116 0
-117 -709 0
-118 -710 0
-119 -711 0
-120 -712 0
-129 -329 0
-130 -330 0
-131 -331 0
-132 -332 0
-133 -685 0
-134 -686 0
-135 -687 0
-136 -688 0
-161 -1485 0
-162 -1486 0
-163 -1487 0
-164 -1488 0
-173 -3113 0
-174 -3114 0
-175 -3115 0
-176 -3116 0
-197 -381 0
-198 -382 0
-199 -383 0
-200 -384 0
-245 -265 0
-246 -266 0
-247 -267 0
-248 -268 0
-309 -717 0
-310 -718 0
-311 -719 0
-312 -720 0
-345 -1273 0
-346 -1274 0
-347 -1275 0
-348 -1276 0
-449 -2365 0
-450 -2366 0
-451 -2367 0
-452 -2368 0
-617 -921 0
-618 -922 0
-619 -923 0
-620 -924 0
-637 -1909 0
-638 -1910 0
-639 -1911 0
-640 -1912 0
-737 -3369 0
-738 -3370 0
-739 -3371 0
-740 -3372 0
-793 -2761 0
-794 -2762 0
-795 -2763 0
-796 -2764 0
-857 -993 0
-858 -994 0
-859 -995 0
-860 -996 0
-965 -1129 0
-966 -1130 0
-967 -1131 0
-968 -1132 0
-985 -1025 0
-986 -1026 0
-987 -1027 0
-988 -1028 0
-997 -1241 0
-998 -1242 0
-999 -1243 0
-1000 -1244 0
-1029 -1809 0
-1030 -1810 0
-1031 -1811 0
-1032 -1812 0
-1041 -2361 0
-1042 -2362 0
-1043 -2363 0
-1044 -2364 0
-1049 -1577 0
-1050 -1578 0
-1051 -1579 0
-1052 -1580 0
-1097 -3073 0
-1098 -3074 0
-1099 -3075 0
-1100 -3076 0
-1133 -2021 0
-1134 -2022 0
-1135 -2023 0
-1136 -2024 0
-1137 -1737 0
-1138 -1738 0
-1139 -1739 0
-1140 -1740 0
-1437 -2461 0
-1438 -2462 0
-1439 -2463 0
-1440 -2464 0
-1753 -1821 0
-1754 -1822 0
-1755 -1823 0
-1756 -1824 0
-1789 -2721 0
-1790 -2722 0
-1791 -2723 0
-1792 -2724 0
-1833 -2413 0
-1834 -2414 0
-1835 -2415 0
-1836 -2416 0
-1913 -3089 0
-1914 -3090 0
-1915 -3091 0
-1916 -3092 0
-1961 -2429 0
-1962 -2430 0
-1963 -2431 0
-1964 -2432 0
-2089 -2701 0
-2090 -2702 0
-2091 -2703 0
-2092 -2704 0
-2313 -2377 0
-2314 -2378 0
-2315 -2379 0
-2316 -2380 0
-2405 -3225 0
-2406 -3226 0
-2407 -3227 0
-2408 -3228 0
-2409 -2877 0
-2410 -2878 0
-2411 -2879 0
-2412 -2880 0
-2545 -2713 0
-2546 -2714 0
-2547 -2715 0
-2548 -2716 0
-2549 -2581 0
-2550 -2582 0
-2551 -2583 0
-2552 -2584 0
-2577 -2857 0
-2578 -2858 0
-2579 -2859 0
-2580 -2860 0
-2681 -3185 0
-2682 -3186 0
-2683 -3187 0
-2684 -3188 0
-3053 -3361 0
-3054 -3362 0
-3055 -3363 0
-3056 -3364 0
-3277 -3325 0
-3278 -3326 0
-3279 -3327 0
-3280 -3328 0
-25 -149 0
-26 -150 0
-27 -151 0
-28 -152 0
-33 -2641 0
-34 -2642 0
-35 -2643 0
-36 -2644 0
-93 -2901 0
-94 -2902 0
-95 -2903 0
-96 -2904 0
-101 -877 0
-102 -878 0
-103 -879 0
-104 -880 0
-169 -401 0
-170 -402 0
-171 -403 0
-172 -404 0
-177 -385 0
-178 -386 0
-179 -387 0
-180 -388 0
-221 -533 0
-222 -534 0
-223 -535 0
-224 -536 0
-293 -397 0
-294 -398 0
-295 -399 0
-296 -400 0
-405 -585 0
-406 -586 0
-407 -587 0
-408 -588 0
-413 -2285 0
-414 -2286 0
-415 -2287 0
-416 -2288 0
-449 -1137 0
-450 -1138 0
-451 -1139 0
-452 -1140 0
-485 -589 0
-486 -590 0
-487 -591 0
-488 -592 0
-541 -2313 0
-542 -2314 0
-543 -2315 0
-544 -2316 0
-597 -2905 0
-598 -2906 0
-599 -2907 0
-600 -2908 0
-601 -2409 0
-602 -2410 0
-603 -2411 0
-604 -2412 0
-637 -3297 0
-638 -3298 0
-639 -3299 0
-640 -3300 0
-701 -2193 0
-702 -2194 0
-703 -2195 0
-704 -2196 0
-725 -3269 0
-726 -3270 0
-727 -3271 0
-728 -3272 0
-805 -1985 0
-806 -1986 0
-807 -1987 0
-808 -1988 0
-957 -1841 0
-958 -1842 0
-959 -1843 0
-960 -1844 0
-1041 -2385 0
-1042 -2386 0
-1043 -2387 0
-1044 -2388 0
-1169 -1461 0
-1170 -1462 0
-1171 -1463 0
-1172 -1464 0
-1173 -3129 0
-1174 -3130 0
-1175 -3131 0
-1176 -3132 0
-1253 -1353 0
-1254 -1354 0
-1255 -1355 0
-1256 -1356 0
-1269 -2725 0
-1270 -2726 0
-1271 -2727 0
-1272 -2728 0
-1273 -3401 0
-1274 -3402 0
-1275 -3403 0
-1276 -3404 0
-1365 -1421 0
-1366 -1422 0
-1367 -1423 0
-1368 -1424 0
-1397 -1541 0
-1398 -1542 0
-1399 -1543 0
-1400 -1544 0
-1405 -3205 0
-1406 -3206 0
-1407 -3207 0
-1408 -3208 0
-1417 -2865 0
-1418 -2866 0
-1419 -2867 0
-1420 -2868 0
-1465 -3161 0
-1466 -3162 0
-1467 -3163 0
-1468 -3164 0
-1661 -2265 0
-1662 -2266 0
-1663 -2267 0
-1664 -2268 0
-1689 -3237 0
-1690 -3238 0
-1691 -3239 0
-1692 -3240 0
-1753 -1933 0
-1754 -1934 0
-1755 -1935 0
-1756 -1936 0
-1869 -2897 0
-1870 -2898 0
-1871 -2899 0
-1872 -2900 0
-1893 -1969 0
-1894 -1970 0
-1895 -1971 0
-1896 -1972 0
-1941 -2653 0
-1942 -2654 0
-1943 -2655 0
-1944 -2656 0
-1965 -2861 0
-1966 -2862 0
-1967 -2863 0
-1968 -2864 0
-2129 -3157 0
-2130 -3158 0
-2131 -3159 0
-2132 -3160 0
-2261 -2845 0
-2262 -2846 0
-2263 -2847 0
-2264 -2848 0
-2289 -3133 0
-2290 -3134 0
-2291 -3135 0
-2292 -3136 0
-2517 -3229 0
-2518 -3230 0
-2519 -3231 0
-2520 -3232 0
-2665 -3093 0
-2666 -3094 0
-2667 -3095 0
-2668 -3096 0
-2697 -3029 0
-2698 -3030 0
-2699 -3031 0
-2700 -3032 0
-2705 -2801 0
-2706 -2802 0
-2707 -2803 0
-2708 -2804 0
-2893 -3173 0
-2894 -3174 0
-2895 -3175 0
-2896 -3176 0
-1 -765 0
-2 -766 0
-3 -767 0
-4 -768 0
-9 -1673 0
-10 -1674 0
-11 -1675 0
-12 -1676 0
-13 -545 0
-14 -546 0
-15 -547 0
-16 -548 0
-25 -1333 0
-26 -1334 0
-27 -1335 0
-28 -1336 0
-57 -1481 0
-58 -1482 0
-59 -1483 0
-60 -1484 0
-89 -853 0
-90 -854 0
-91 -855 0
-92 -856 0
-109 -225 0
-110 -226 0
-111 -227 0
-112 -228 0
-149 -277 0
-150 -278 0
-151 -279 0
-152 -280 0
-153 -317 0
-154 -318 0
-155 -319 0
-156 -320 0
-173 -3257 0
-174 -3258 0
-175 -3259 0
-176 -3260 0
-197 -245 0
-198 -246 0
-199 -247 0
-200 -248 0
-201 -1449 0
-202 -1450 0
-203 -1451 0
-204 -1452 0
-233 -1469 0
-234 -1470 0
-235 -1471 0
-236 -1472 0
-249 -2465 0
-250 -2466 0
-251 -2467 0
-252 -2468 0
-313 -1853 0
-314 -1854 0
-315 -1855 0
-316 -1856 0
-321 -1717 0
-322 -1718 0
-323 -1719 0
-324 -1720 0
-353 -457 0
-354 -458 0
-355 -459 0
-356 -460 0
-397 -613 0
-398 -614 0
-399 -615 0
-400 -616 0
-409 -1781 0
-410 -1782 0
-411 -1783 0
-412 -1784 0
-433 -593 0
-434 -594 0
-435 -595 0
-436 -596 0
-469 -2085 0
-470 -2086 0
-471 -2087 0
-472 -2088 0
-489 -797 0
-490 -798 0
-491 -799 0
-492 -800 0
-517 -637 0
-518 -638 0
-519 -639 0
-520 -640 0
-525 -673 0
-526 -674 0
-527 -675 0
-528 -676 0
-529 -733 0
-530 -734 0
-531 -735 0
-532 -736 0
-629 -1905 0
-630 -1906 0
-631 -1907 0
-632 -1908 0
-693 -1713 0
-694 -1714 0
-695 -1715 0
-696 -1716 0
-701 -2129 0
-702 -2130 0
-703 -2131 0
-704 -2132 0
-833 -1209 0
-834 -1210 0
-835 -1211 0
-836 -1212 0
-941 -1953 0
-942 -1954 0
-943 -1955 0
-944 -1956 0
-989 -1069 0
-990 -1070 0
-991 -1071 0
-992 -1072 0
-1041 -2921 0
-1042 -2922 0
-1043 -2923 0
-1044 -2924 0
-1061 -2389 0
-1062 -2390 0
-1063 -2391 0
-1064 -2392 0
-1073 -1837 0
-1074 -1838 0
-1075 -1839 0
-1076 -1840 0
-1165 -2957 0
-1166 -2958 0
-1167 -2959 0
-1168 -2960 0
-1293 -2917 0
-1294 -2918 0
-1295 -2919 0
-1296 -2920 0
-1433 -3033 0
-1434 -3034 0
-1435 -3035 0
-1436 -3036 0
-1585 -2253 0
-1586 -2254 0
-1587 -2255 0
-1588 -2256 0
-1605 -1937 0
-1606 -1938 0
-1607 -1939 0
-1608 -1940 0
-1645 -2533 0
-1646 -2534 0
-1647 -2535 0
-1648 -2536 0
-1661 -2069 0
-1662 -2070 0
-1663 -2071 0
-1664 -2072 0
-1685 -2189 0
-1686 -2190 0
-1687 -2191 0
-1688 -2192 0
-1693 -2329 0
-1694 -2330 0
-1695 -2331 0
-1696 -2332 0
-1729 -2145 0
-1730 -2146 0
-1731 -2147 0
-1732 -2148 0
-1929 -2481 0
-1930 -2482 0
-1931 -2483 0
-1932 -2484 0
-2117 -3017 0
-2118 -3018 0
-2119 -3019 0
-2120 -3020 0
-2153 -2681 0
-2154 -2682 0
-2155 -2683 0
-2156 -2684 0
-2193 -3157 0
-2194 -3158 0
-2195 -3159 0
-2196 -3160 0
-2249 -2445 0
-2250 -2446 0
-2251 -2447 0
-2252 -2448 0
-2565 -3373 0
-2566 -3374 0
-2567 -3375 0
-2568 -3376 0
-2613 -3009 0
-2614 -3010 0
-2615 -3011 0
-2616 -3012 0
-2693 -2937 0
-2694 -2938 0
-2695 -2939 0
-2696 -2940 0
-3073 -3285 0
-3074 -3286 0
-3075 -3287 0
-3076 -3288 0
-3213 -3397 0
-3214 -3398 0
-3215 -3399 0
-3216 -3400 0
-41 -2477 0
-42 -2478 0
-43 -2479 0
-44 -2480 0
-105 -3225 0
-106 -3226 0
-107 -3227 0
-108 -3228 0
-149 -3057 0
-150 -3058 0
-151 -3059 0
-152 -3060 0
-241 -3305 0
-242 -3306 0
-243 -3307 0
-244 -3308 0
-365 -3369 0
-366 -3370 0
-367 -3371 0
-368 -3372 0
-445 -3069 0
-446 -3070 0
-447 -3071 0
-448 -3072 0
-505 -737 0
-506 -738 0
-507 -739 0
-508 -740 0
-749 -921 0
-750 -922 0
-751 -923 0
-752 -924 0
-1165 -2805 0
-1166 -2806 0
-1167 -2807 0
-1168 -2808 0
-1293 -2525 0
-1294 -2526 0
-1295 -2527 0
-1296 -2528 0
-1517 -2509 0
-1518 -2510 0
-1519 -2511 0
-1520 -2512 0
-1565 -1965 0
-1566 -1966 0
-1567 -1967 0
-1568 -1968 0
-1569 -3097 0
-1570 -3098 0
-1571 -3099 0
-1572 -3100 0
-1585 -1729 0
-1586 -1730 0
-1587 -1731 0
-1588 -1732 0
-1881 -2461 0
-1882 -2462 0
-1883 -2463 0
-1884 -2464 0
-1945 -2825 0
-1946 -2826 0
-1947 -2827 0
-1948 -2828 0
-2013 -3033 0
-2014 -3034 0
-2015 -3035 0
-2016 -3036 0
-2325 -2693 0
-2326 -2694 0
-2327 -2695 0
-2328 -2696 0
-2657 -2945 0
-2658 -2946 0
-2659 -2947 0
-2660 -2948 0
-2809 -3029 0
-2810 -3030 0
-2811 -3031 0
-2812 -3032 0
-25 -701 0
-26 -702 0
-27 -703 0
-28 -704 0
-93 -3289 0
-94 -3290 0
-95 -3291 0
-96 -3292 0
-113 -1621 0
-114 -1622 0
-115 -1623 0
-116 -1624 0
-149 -2193 0
-150 -2194 0
-151 -2195 0
-152 -2196 0
-241 -973 0
-242 -974 0
-243 -975 0
-244 -976 0
-245 -2545 0
-246 -2546 0
-247 -2547 0
-248 -2548 0
-265 -2713 0
-266 -2714 0
-267 -2715 0
-268 -2716 0
-277 -3157 0
-278 -3158 0
-279 -3159 0
-280 -3160 0
-285 -2645 0
-286 -2646 0
-287 -2647 0
-288 -2648 0
-365 -2121 0
-366 -2122 0
-367 -2123 0
-368 -2124 0
-389 -1761 0
-390 -1762 0
-391 -1763 0
-392 -1764 0
-477 -2581 0
-478 -2582 0
-479 -2583 0
-480 -2584 0
-505 -2809 0
-506 -2810 0
-507 -2811 0
-508 -2812 0
-509 -3217 0
-510 -3218 0
-511 -3219 0
-512 -3220 0
-545 -1673 0
-546 -1674 0
-547 -1675 0
-548 -1676 0
-605 -1289 0
-606 -1290 0
-607 -1291 0
-608 -1292 0
-737 -3029 0
-738 -3030 0
-739 -3031 0
-740 -3032 0
-833 -1073 0
-834 -1074 0
-835 -1075 0
-836 -1076 0
-849 -1369 0
-850 -1370 0
-851 -1371 0
-852 -1372 0
-913 -1473 0
-914 -1474 0
-915 -1475 0
-916 -1476 0
-933 -2449 0
-934 -2450 0
-935 -2451 0
-936 -2452 0
-953 -2233 0
-954 -2234 0
-955 -2235 0
-956 -2236 0
-957 -1145 0
-958 -1146 0
-959 -1147 0
-960 -1148 0
-1025 -1129 0
-1026 -1130 0
-1027 -1131 0
-1028 -1132 0
-1029 -1193 0
-1030 -1194 0
-1031 -1195 0
-1032 -1196 0
-1085 -3145 0
-1086 -3146 0
-1087 -3147 0
-1088 -3148 0
-1141 -1373 0
-1142 -1374 0
-1143 -1375 0
-1144 -1376 0
-1209 -1837 0
-1210 -1838 0
-1211 -1839 0
-1212 -1840 0
-1233 -2597 0
-1234 -2598 0
-1235 -2599 0
-1236 -2600 0
-1297 -2849 0
-1298 -2850 0
-1299 -2851 0
-1300 -2852 0
-1333 -2129 0
-1334 -2130 0
-1335 -2131 0
-1336 -2132 0
-1365 -1689 0
-1366 -1690 0
-1367 -1691 0
-1368 -1692 0
-1421 -3237 0
-1422 -3238 0
-1423 -3239 0
-1424 -3240 0
-1437 -1597 0
-1438 -1598 0
-1439 -1599 0
-1440 -1600 0
-1465 -1757 0
-1466 -1758 0
-1467 -1759 0
-1468 -1760 0
-1577 -1909 0
-1578 -1910 0
-1579 -1911 0
-1580 -1912 0
-1749 -1997 0
-1750 -1998 0
-1751 -1999 0
-1752 -2000 0
-1817 -2549 0
-1818 -2550 0
-1819 -2551 0
-1820 -2552 0
-1873 -2661 0
-1874 -2662 0
-1875 -2663 0
-1876 -2664 0
-1941 -2257 0
-1942 -2258 0
-1943 -2259 0
-1944 -2260 0
-2097 -2493 0
-2098 -2494 0
-2099 -2495 0
-2100 -2496 0
-2177 -3077 0
-2178 -3078 0
-2179 -3079 0
-2180 -3080 0
-2261 -2369 0
-2262 -2370 0
-2263 -2371 0
-2264 -2372 0
-2277 -2601 0
-2278 -2602 0
-2279 -2603 0
-2280 -2604 0
-2453 -2793 0
-2454 -2794 0
-2455 -2795 0
-2456 -2796 0
-2553 -2697 0
-2554 -2698 0
-2555 -2699 0
-2556 -2700 0
-2673 -2781 0
-2674 -2782 0
-2675 -2783 0
-2676 -2784 0
-1 -1561 0
-2 -1562 0
-3 -1563 0
-4 -1564 0
-9 -1129 0
-10 -1130 0
-11 -1131 0
-12 -1132 0
-13 -1025 0
-14 -1026 0
-15 -1027 0
-16 -1028 0
-25 -1221 0
-26 -1222 0
-27 -1223 0
-28 -1224 0
-29 -1113 0
-30 -1114 0
-31 -1115 0
-32 -1116 0
-33 -1273 0
-34 -1274 0
-35 -1275 0
-36 -1276 0
-37 -1389 0
-38 -1390 0
-39 -1391 0
-40 -1392 0
-41 -101 0
-42 -102 0
-43 -103 0
-44 -104 0
-89 -705 0
-90 -706 0
-91 -707 0
-92 -708 0
-93 -921 0
-94 -922 0
-95 -923 0
-96 -924 0
-97 -1245 0
-98 -1246 0
-99 -1247 0
-100 -1248 0
-125 -3185 0
-126 -3186 0
-127 -3187 0
-128 -3188 0
-129 -593 0
-130 -594 0
-131 -595 0
-132 -596 0
-133 -609 0
-134 -610 0
-135 -611 0
-136 -612 0
-137 -749 0
-138 -750 0
-139 -751 0
-140 -752 0
-153 -1213 0
-154 -1214 0
-155 -1215 0
-156 -1216 0
-173 -301 0
-174 -302 0
-175 -303 0
-176 -304 0
-193 -345 0
-194 -346 0
-195 -347 0
-196 -348 0
-233 -249 0
-234 -250 0
-235 -251 0
-236 -252 0
-245 -277 0
-246 -278 0
-247 -279 0
-248 -280 0
-289 -653 0
-290 -654 0
-291 -655 0
-292 -656 0
-297 -365 0
-298 -366 0
-299 -367 0
-300 -368 0
-341 -2349 0
-342 -2350 0
-343 -2351 0
-344 -2352 0
-369 -1613 0
-370 -1614 0
-371 -1615 0
-372 -1616 0
-445 -2229 0
-446 -2230 0
-447 -2231 0
-448 -2232 0
-453 -1917 0
-454 -1918 0
-455 -1919 0
-456 -1920 0
-525 -1189 0
-526 -1190 0
-527 -1191 0
-528 -1192 0
-553 -2741 0
-554 -2742 0
-555 -2743 0
-556 -2744 0
-557 -1217 0
-558 -1218 0
-559 -1219 0
-560 -1220 0
-581 -617 0
-582 -618 0
-583 -619 0
-584 -620 0
-729 -949 0
-730 -950 0
-731 -951 0
-732 -952 0
-837 -2321 0
-838 -2322 0
-839 -2323 0
-840 -2324 0
-897 -1125 0
-898 -1126 0
-899 -1127 0
-900 -1128 0
-913 -1209 0
-914 -1210 0
-915 -1211 0
-916 -1212 0
-1105 -3189 0
-1106 -3190 0
-1107 -3191 0
-1108 -3192 0
-1165 -1889 0
-1166 -1890 0
-1167 -1891 0
-1168 -1892 0
-1309 -1521 0
-1310 -1522 0
-1311 -1523 0
-1312 -1524 0
-1321 -3001 0
-1322 -3002 0
-1323 -3003 0
-1324 -3004 0
-1469 -2465 0
-1470 -2466 0
-1471 -2467 0
-1472 -2468 0
-1473 -1837 0
-1474 -1838 0
-1475 -1839 0
-1476 -1840 0
-1553 -2449 0
-1554 -2450 0
-1555 -2451 0
-1556 -2452 0
-1565 -2077 0
-1566 -2078 0
-1567 -2079 0
-1568 -2080 0
-1589 -2821 0
-1590 -2822 0
-1591 -2823 0
-1592 -2824 0
-1729 -3317 0
-1730 -3318 0
-1731 -3319 0
-1732 -3320 0
-2005 -2877 0
-2006 -2878 0
-2007 -2879 0
-2008 -2880 0
-2201 -2677 0
-2202 -2678 0
-2203 -2679 0
-2204 -2680 0
-2261 -2521 0
-2262 -2522 0
-2263 -2523 0
-2264 -2524 0
-2289 -2889 0
-2290 -2890 0
-2291 -2891 0
-2292 -2892 0
-2473 -2737 0
-2474 -2738 0
-2475 -2739 0
-2476 -2740 0
-2505 -2701 0
-2506 -2702 0
-2507 -2703 0
-2508 -2704 0
-2545 -3157 0
-2546 -3158 0
-2547 -3159 0
-2548 -3160 0
-2641 -3401 0
-2642 -3402 0
-2643 -3403 0
-2644 -3404 0
-3129 -3269 0
-3130 -3270 0
-3131 -3271 0
-3132 -3272 0
-5 -841 0
-6 -842 0
-7 -843 0
-8 -844 0
-25 -957 0
-26 -958 0
-27 -959 0
-28 -960 0
-81 -1669 0
-82 -1670 0
-83 -1671 0
-84 -1672 0
-85 -325 0
-86 -326 0
-87 -327 0
-88 -328 0
-97 -369 0
-98 -370 0
-99 -371 0
-100 -372 0
-145 -209 0
-146 -210 0
-147 -211 0
-148 -212 0
-149 -1841 0
-150 -1842 0
-151 -1843 0
-152 -1844 0
-253 -3329 0
-254 -3330 0
-255 -3331 0
-256 -3332 0
-309 -521 0
-310 -522 0
-311 -523 0
-312 -524 0
-333 -721 0
-334 -722 0
-335 -723 0
-336 -724 0
-385 -401 0
-386 -402 0
-387 -403 0
-388 -404 0
-417 -1525 0
-418 -1526 0
-419 -1527 0
-420 -1528 0
-441 -937 0
-442 -938 0
-443 -939 0
-444 -940 0
-529 -3073 0
-530 -3074 0
-531 -3075 0
-532 -3076 0
-537 -2753 0
-538 -2754 0
-539 -2755 0
-540 -2756 0
-637 -2093 0
-638 -2094 0
-639 -2095 0
-640 -2096 0
-701 -1145 0
-702 -1146 0
-703 -1147 0
-704 -1148 0
-733 -3285 0
-734 -3286 0
-735 -3287 0
-736 -3288 0
-749 -2225 0
-750 -2226 0
-751 -2227 0
-752 -2228 0
-769 -917 0
-770 -918 0
-771 -919 0
-772 -920 0
-773 -1345 0
-774 -1346 0
-775 -1347 0
-776 -1348 0
-793 -3265 0
-794 -3266 0
-795 -3267 0
-796 -3268 0
-797 -1717 0
-798 -1718 0
-799 -1719 0
-800 -1720 0
-893 -2161 0
-894 -2162 0
-895 -2163 0
-896 -2164 0
-929 -1233 0
-930 -1234 0
-931 -1235 0
-932 -1236 0
-989 -1097 0
-990 -1098 0
-991 -1099 0
-992 -1100 0
-997 -1925 0
-998 -1926 0
-999 -1927 0
-1000 -1928 0
-1021 -2933 0
-1022 -2934 0
-1023 -2935 0
-1024 -2936 0
-1045 -2777 0
-1046 -2778 0
-1047 -2779 0
-1048 -2780 0
-1053 -1453 0
-1054 -1454 0
-1055 -1455 0
-1056 -1456 0
-1065 -3017 0
-1066 -3018 0
-1067 -3019 0
-1068 -3020 0
-1245 -1613 0
-1246 -1614 0
-1247 -1615 0
-1248 -1616 0
-1285 -1445 0
-1286 -1446 0
-1287 -1447 0
-1288 -1448 0
-1293 -2473 0
-1294 -2474 0
-1295 -2475 0
-1296 -2476 0
-1365 -2445 0
-1366 -2446 0
-1367 -2447 0
-1368 -2448 0
-1385 -3045 0
-1386 -3046 0
-1387 -3047 0
-1388 -3048 0
-1433 -2053 0
-1434 -2054 0
-1435 -2055 0
-1436 -2056 0
-1629 -1845 0
-1630 -1846 0
-1631 -1847 0
-1632 -1848 0
-1685 -3365 0
-1686 -3366 0
-1687 -3367 0
-1688 -3368 0
-1701 -1801 0
-1702 -1802 0
-1703 -1803 0
-1704 -1804 0
-1729 -2805 0
-1730 -2806 0
-1731 -2807 0
-1732 -2808 0
-1897 -2729 0
-1898 -2730 0
-1899 -2731 0
-1900 -2732 0
-1945 -2117 0
-1946 -2118 0
-1947 -2119 0
-1948 -2120 0
-1989 -2181 0
-1990 -2182 0
-1991 -2183 0
-1992 -2184 0
-2253 -2957 0
-2254 -2958 0
-2255 -2959 0
-2256 -2960 0
-2585 -2817 0
-2586 -2818 0
-2587 -2819 0
-2588 -2820 0
-2669 -3321 0
-2670 -3322 0
-2671 -3323 0
-2672 -3324 0
-2701 -3001 0
-2702 -3002 0
-2703 -3003 0
-2704 -3004 0
-13 -1401 0
-14 -1402 0
-15 -1403 0
-16 -1404 0
-25 -1285 0
-26 -1286 0
-27 -1287 0
-28 -1288 0
-37 -1469 0
-38 -1470 0
-39 -1471 0
-40 -1472 0
-97 -333 0
-98 -334 0
-99 -335 0
-100 -336 0
-105 -741 0
-106 -742 0
-107 -743 0
-108 -744 0
-149 -649 0
-150 -650 0
-151 -651 0
-152 -652 0
-221 -673 0
-222 -674 0
-223 -675 0
-224 -676 0
-241 -1157 0
-242 -1158 0
-243 -1159 0
-244 -1160 0
-313 -1261 0
-314 -1262 0
-315 -1263 0
-316 -1264 0
-369 -721 0
-370 -722 0
-371 -723 0
-372 -724 0
-397 -1121 0
-398 -1122 0
-399 -1123 0
-400 -1124 0
-453 -2181 0
-454 -2182 0
-455 -2183 0
-456 -2184 0
-489 -2233 0
-490 -2234 0
-491 -2235 0
-492 -2236 0
-849 -2633 0
-850 -2634 0
-851 -2635 0
-852 -2636 0
-885 -1885 0
-886 -1886 0
-887 -1887 0
-888 -1888 0
-957 -1445 0
-958 -1446 0
-959 -1447 0
-960 -1448 0
-1045 -1741 0
-1046 -1742 0
-1047 -1743 0
-1048 -1744 0
-1049 -2921 0
-1050 -2922 0
-1051 -2923 0
-1052 -2924 0
-1057 -2301 0
-1058 -2302 0
-1059 -2303 0
-1060 -2304 0
-1105 -1477 0
-1106 -1478 0
-1107 -1479 0
-1108 -1480 0
-1249 -3309 0
-1250 -3310 0
-1251 -3311 0
-1252 -3312 0
-1313 -2217 0
-1314 -2218 0
-1315 -2219 0
-1316 -2220 0
-1353 -1989 0
-1354 -1990 0
-1355 -1991 0
-1356 -1992 0
-1389 -2465 0
-1390 -2466 0
-1391 -2467 0
-1392 -2468 0
-1505 -1653 0
-1506 -1654 0
-1507 -1655 0
-1508 -1656 0
-1605 -2905 0
-1606 -2906 0
-1607 -2907 0
-1608 -2908 0
-1661 -1949 0
-1662 -1950 0
-1663 -1951 0
-1664 -1952 0
-1693 -2841 0
-1694 -2842 0
-1695 -2843 0
-1696 -2844 0
-1941 -2961 0
-1942 -2962 0
-1943 -2963 0
-1944 -2964 0
-1997 -2545 0
-1998 -2546 0
-1999 -2547 0
-2000 -2548 0
-2261 -2421 0
-2262 -2422 0
-2263 -2423 0
-2264 -2424 0
-2309 -3217 0
-2310 -3218 0
-2311 -3219 0
-2312 -3220 0
-2441 -3253 0
-2442 -3254 0
-2443 -3255 0
-2444 -3256 0
-2637 -3053 0
-2638 -3054 0
-2639 -3055 0
-2640 -3056 0
-2649 -2969 0
-2650 -2970 0
-2651 -2971 0
-2652 -2972 0
-2873 -3237 0
-2874 -3238 0
-2875 -3239 0
-2876 -3240 0
-3061 -3289 0
-3062 -3290 0
-3063 -3291 0
-3064 -3292 0
-1 -89 0
-2 -90 0
-3 -91 0
-4 -92 0
-13 -1249 0
-14 -1250 0
-15 -1251 0
-16 -1252 0
-17 -185 0
-18 -186 0
-19 -187 0
-20 -188 0
-21 -117 0
-22 -118 0
-23 -119 0
-24 -120 0
-25 -1045 0
-26 -1046 0
-27 -1047 0
-28 -1048 0
-33 -3325 0
-34 -3326 0
-35 -3327 0
-36 -3328 0
-41 -2541 0
-42 -2542 0
-43 -2543 0
-44 -2544 0
-77 -349 0
-78 -350 0
-79 -351 0
-80 -352 0
-105 -2265 0
-106 -2266 0
-107 -2267 0
-108 -2268 0
-169 -285 0
-170 -286 0
-171 -287 0
-172 -288 0
-173 -3129 0
-174 -3130 0
-175 -3131 0
-176 -3132 0
-177 -497 0
-178 -498 0
-179 -499 0
-180 -500 0
-193 -3277 0
-194 -3278 0
-195 -3279 0
-196 -3280 0
-293 -645 0
-294 -646 0
-295 -647 0
-296 -648 0
-301 -3269 0
-302 -3270 0
-303 -3271 0
-304 -3272 0
-309 -2329 0
-310 -2330 0
-311 -2331 0
-312 -2332 0
-321 -1501 0
-322 -1502 0
-323 -1503 0
-324 -1504 0
-417 -513 0
-418 -514 0
-419 -515 0
-420 -516 0
-489 -2873 0
-490 -2874 0
-491 -2875 0
-492 -2876 0
-549 -725 0
-550 -726 0
-551 -727 0
-552 -728 0
-553 -1357 0
-554 -1358 0
-555 -1359 0
-556 -1360 0
-597 -1325 0
-598 -1326 0
-599 -1327 0
-600 -1328 0
-661 -977 0
-662 -978 0
-663 -979 0
-664 -980 0
-741 -1761 0
-742 -1762 0
-743 -1763 0
-744 -1764 0
-765 -853 0
-766 -854 0
-767 -855 0
-768 -856 0
-865 -1985 0
-866 -1986 0
-867 -1987 0
-868 -1988 0
-905 -2205 0
-906 -2206 0
-907 -2207 0
-908 -2208 0
-941 -1661 0
-942 -1662 0
-943 -1663 0
-944 -1664 0
-953 -1421 0
-954 -1422 0
-955 -1423 0
-956 -1424 0
-957 -2777 0
-958 -2778 0
-959 -2779 0
-960 -2780 0
-1041 -1133 0
-1042 -1134 0
-1043 -1135 0
-1044 -1136 0
-1141 -3265 0
-1142 -3266 0
-1143 -3267 0
-1144 -3268 0
-1253 -1693 0
-1254 -1694 0
-1255 -1695 0
-1256 -1696 0
-1261 -2601 0
-1262 -2602 0
-1263 -2603 0
-1264 -2604 0
-1285 -1741 0
-1286 -1742 0
-1287 -1743 0
-1288 -1744 0
-1349 -3341 0
-1350 -3342 0
-1351 -3343 0
-1352 -3344 0
-1373 -3153 0
-1374 -3154 0
-1375 -3155 0
-1376 -3156 0
-1401 -3309 0
-1402 -3310 0
-1403 -3311 0
-1404 -3312 0
-1417 -2009 0
-1418 -2010 0
-1419 -2011 0
-1420 -2012 0
-1477 -2025 0
-1478 -2026 0
-1479 -2027 0
-1480 -2028 0
-1529 -1805 0
-1530 -1806 0
-1531 -1807 0
-1532 -1808 0
-1545 -1589 0
-1546 -1590 0
-1547 -1591 0
-1548 -1592 0
-1565 -3037 0
-1566 -3038 0
-1567 -3039 0
-1568 -3040 0
-1609 -2357 0
-1610 -2358 0
-1611 -2359 0
-1612 -2360 0
-1733 -3229 0
-1734 -3230 0
-1735 -3231 0
-1736 -3232 0
-1757 -2785 0
-1758 -2786 0
-1759 -2787 0
-1760 -2788 0
-1825 -2769 0
-1826 -2770 0
-1827 -2771 0
-1828 -2772 0
-1869 -2929 0
-1870 -2930 0
-1871 -2931 0
-1872 -2932 0
-1921 -2277 0
-1922 -2278 0
-1923 -2279 0
-1924 -2280 0
-1929 -2649 0
-1930 -2650 0
-1931 -2651 0
-1932 -2652 0
-1953 -2069 0
-1954 -2070 0
-1955 -2071 0
-1956 -2072 0
-2013 -3009 0
-2014 -3010 0
-2015 -3011 0
-2016 -3012 0
-2233 -3237 0
-2234 -3238 0
-2235 -3239 0
-2236 -3240 0
-2365 -3001 0
-2366 -3002 0
-2367 -3003 0
-2368 -3004 0
-2461 -2761 0
-2462 -2762 0
-2463 -2763 0
-2464 -2764 0
-2633 -2901 0
-2634 -2902 0
-2635 -2903 0
-2636 -2904 0
-3137 -3273 0
-3138 -3274 0
-3139 -3275 0
-3140 -3276 0
-85 -125 0
-86 -126 0
-87 -127 0
-88 -128 0
-101 -1345 0
-102 -1346 0
-103 -1347 0
-104 -1348 0
-105 -2161 0
-106 -2162 0
-107 -2163 0
-108 -2164 0
-133 -1725 0
-134 -1726 0
-135 -1727 0
-136 -1728 0
-193 -2257 0
-194 -2258 0
-195 -2259 0
-196 -2260 0
-217 -577 0
-218 -578 0
-219 -579 0
-220 -580 0
-229 -329 0
-230 -330 0
-231 -331 0
-232 -332 0
-281 -2185 0
-282 -2186 0
-283 -2187 0
-284 -2188 0
-345 -773 0
-346 -774 0
-347 -775 0
-348 -776 0
-357 -1145 0
-358 -1146 0
-359 -1147 0
-360 -1148 0
-361 -1461 0
-362 -1462 0
-363 -1463 0
-364 -1464 0
-417 -1561 0
-418 -1562 0
-419 -1563 0
-420 -1564 0
-445 -1849 0
-446 -1850 0
-447 -1851 0
-448 -1852 0
-501 -1549 0
-502 -1550 0
-503 -1551 0
-504 -1552 0
-505 -533 0
-506 -534 0
-507 -535 0
-508 -536 0
-513 -705 0
-514 -706 0
-515 -707 0
-516 -708 0
-581 -1377 0
-582 -1378 0
-583 -1379 0
-584 -1380 0
-617 -681 0
-618 -682 0
-619 -683 0
-620 -684 0
-629 -1797 0
-630 -1798 0
-631 -1799 0
-632 -1800 0
-697 -2377 0
-698 -2378 0
-699 -2379 0
-700 -2380 0
-745 -2805 0
-746 -2806 0
-747 -2807 0
-748 -2808 0
-761 -2877 0
-762 -2878 0
-763 -2879 0
-764 -2880 0
-793 -2337 0
-794 -2338 0
-795 -2339 0
-796 -2340 0
-897 -2169 0
-898 -2170 0
-899 -2171 0
-900 -2172 0
-901 -2429 0
-902 -2430 0
-903 -2431 0
-904 -2432 0
-1349 -1737 0
-1350 -1738 0
-1351 -1739 0
-1352 -1740 0
-1353 -1369 0
-1354 -1370 0
-1355 -1371 0
-1356 -1372 0
-1421 -1985 0
-1422 -1986 0
-1423 -1987 0
-1424 -1988 0
-1505 -2617 0
-1506 -2618 0
-1507 -2619 0
-1508 -2620 0
-1565 -1757 0
-1566 -1758 0
-1567 -1759 0
-1568 -1760 0
-1657 -1821 0
-1658 -1822 0
-1659 -1823 0
-1660 -1824 0
-1677 -2005 0
-1678 -2006 0
-1679 -2007 0
-1680 -2008 0
-1693 -3061 0
-1694 -3062 0
-1695 -3063 0
-1696 -3064 0
-1753 -2061 0
-1754 -2062 0
-1755 -2063 0
-1756 -2064 0
-1817 -2137 0
-1818 -2138 0
-1819 -2139 0
-1820 -2140 0
-1845 -3329 0
-1846 -3330 0
-1847 -3331 0
-1848 -3332 0
-1881 -2757 0
-1882 -2758 0
-1883 -2759 0
-1884 -2760 0
-2097 -2825 0
-2098 -2826 0
-2099 -2827 0
-2100 -2828 0
-2133 -2309 0
-2134 -2310 0
-2135 -2311 0
-2136 -2312 0
-2261 -2437 0
-2262 -2438 0
-2263 -2439 0
-2264 -2440 0
-2329 -2837 0
-2330 -2838 0
-2331 -2839 0
-2332 -2840 0
-2357 -2645 0
-2358 -2646 0
-2359 -2647 0
-2360 -2648 0
-2469 -3113 0
-2470 -3114 0
-2471 -3115 0
-2472 -3116 0
-2613 -3145 0
-2614 -3146 0
-2615 -3147 0
-2616 -3148 0
-2665 -2693 0
-2666 -2694 0
-2667 -2695 0
-2668 -2696 0
-2797 -3073 0
-2798 -3074 0
-2799 -3075 0
-2800 -3076 0
-2841 -3289 0
-2842 -3290 0
-2843 -3291 0
-2844 -3292 0
-13 -1197 0
-14 -1198 0
-15 -1199 0
-16 -1200 0
-25 -293 0
-26 -294 0
-27 -295 0
-28 -296 0
-37 -677 0
-38 -678 0
-39 -679 0
-40 -680 0
-53 -1581 0
-54 -1582 0
-55 -1583 0
-56 -1584 0
-97 -537 0
-98 -538 0
-99 -539 0
-100 -540 0
-145 -2449 0
-146 -2450 0
-147 -2451 0
-148 -2452 0
-149 -397 0
-150 -398 0
-151 -399 0
-152 -400 0
-197 -857 0
-198 -858 0
-199 -859 0
-200 -860 0
-201 -465 0
-202 -466 0
-203 -467 0
-204 -468 0
-217 -281 0
-218 -282 0
-219 -283 0
-220 -284 0
-221 -413 0
-222 -414 0
-223 -415 0
-224 -416 0
-245 -713 0
-246 -714 0
-247 -715 0
-248 -716 0
-265 -437 0
-266 -438 0
-267 -439 0
-268 -440 0
-277 -613 0
-278 -614 0
-279 -615 0
-280 -616 0
-297 -461 0
-298 -462 0
-299 -463 0
-300 -464 0
-365 -425 0
-366 -426 0
-367 -427 0
-368 -428 0
-369 -2753 0
-370 -2754 0
-371 -2755 0
-372 -2756 0
-381 -993 0
-382 -994 0
-383 -995 0
-384 -996 0
-441 -1553 0
-442 -1554 0
-443 -1555 0
-444 -1556 0
-525 -1373 0
-526 -1374 0
-527 -1375 0
-528 -1376 0
-533 -2285 0
-534 -2286 0
-535 -2287 0
-536 -2288 0
-541 -601 0
-542 -602 0
-543 -603 0
-544 -604 0
-557 -729 0
-558 -730 0
-559 -731 0
-560 -732 0
-565 -933 0
-566 -934 0
-567 -935 0
-568 -936 0
-573 -753 0
-574 -754 0
-575 -755 0
-576 -756 0
-577 -2185 0
-578 -2186 0
-579 -2187 0
-580 -2188 0
-649 -1121 0
-650 -1122 0
-651 -1123 0
-652 -1124 0
-697 -761 0
-698 -762 0
-699 -763 0
-700 -764 0
-769 -2525 0
-770 -2526 0
-771 -2527 0
-772 -2528 0
-781 -1801 0
-782 -1802 0
-783 -1803 0
-784 -1804 0
-1033 -1701 0
-1034 -1702 0
-1035 -1703 0
-1036 -1704 0
-1185 -1201 0
-1186 -1202 0
-1187 -1203 0
-1188 -1204 0
-1297 -1441 0
-1298 -1442 0
-1299 -1443 0
-1300 -1444 0
-1393 -1573 0
-1394 -1574 0
-1395 -1575 0
-1396 -1576 0
-1489 -1933 0
-1490 -1934 0
-1491 -1935 0
-1492 -1936 0
-1529 -2393 0
-1530 -2394 0
-1531 -2395 0
-1532 -2396 0
-1565 -1609 0
-1566 -1610 0
-1567 -1611 0
-1568 -1612 0
-1593 -1677 0
-1594 -1678 0
-1595 -1679 0
-1596 -1680 0
-1749 -2673 0
-1750 -2674 0
-1751 -2675 0
-1752 -2676 0
-1833 -1857 0
-1834 -1858 0
-1835 -1859 0
-1836 -1860 0
-1929 -2433 0
-1930 -2434 0
-1931 -2435 0
-1932 -2436 0
-1997 -2781 0
-1998 -2782 0
-1999 -2783 0
-2000 -2784 0
-2013 -3373 0
-2014 -3374 0
-2015 -3375 0
-2016 -3376 0
-2033 -2985 0
-2034 -2986 0
-2035 -2987 0
-2036 -2988 0
-2085 -2465 0
-2086 -2466 0
-2087 -2467 0
-2088 -2468 0
-2097 -2589 0
-2098 -2590 0
-2099 -2591 0
-2100 -2592 0
-2313 -2409 0
-2314 -2410 0
-2315 -2411 0
-2316 -2412 0
-2353 -2405 0
-2354 -2406 0
-2355 -2407 0
-2356 -2408 0
-2377 -2877 0
-2378 -2878 0
-2379 -2879 0
-2380 -2880 0
-2853 -2953 0
-2854 -2954 0
-2855 -2955 0
-2856 -2956 0
-2933 -3285 0
-2934 -3286 0
-2935 -3287 0
-2936 -3288 0
-2945 -3097 0
-2946 -3098 0
-2947 -3099 0
-2948 -3100 0
-1 -29 0
-2 -30 0
-3 -31 0
-4 -32 0
-25 -1297 0
-26 -1298 0
-27 -1299 0
-28 -1300 0
-105 -633 0
-106 -634 0
-107 -635 0
-108 -636 0
-149 -365 0
-150 -366 0
-151 -367 0
-152 -368 0
-153 -285 0
-154 -286 0
-155 -287 0
-156 -288 0
-197 -297 0
-198 -298 0
-199 -299 0
-200 -300 0
-241 -477 0
-242 -478 0
-243 -479 0
-244 -480 0
-273 -3045 0
-274 -3046 0
-275 -3047 0
-276 -3048 0
-293 -1441 0
-294 -1442 0
-295 -1443 0
-296 -1444 0
-313 -1537 0
-314 -1538 0
-315 -1539 0
-316 -1540 0
-341 -1357 0
-342 -1358 0
-343 -1359 0
-344 -1360 0
-397 -425 0
-398 -426 0
-399 -427 0
-400 -428 0
-433 -1153 0
-434 -1154 0
-435 -1155 0
-436 -1156 0
-449 -521 0
-450 -522 0
-451 -523 0
-452 -524 0
-489 -657 0
-490 -658 0
-491 -659 0
-492 -660 0
-517 -925 0
-518 -926 0
-519 -927 0
-520 -928 0
-529 -685 0
-530 -686 0
-531 -687 0
-532 -688 0
-621 -1613 0
-622 -1614 0
-623 -1615 0
-624 -1616 0
-693 -777 0
-694 -778 0
-695 -779 0
-696 -780 0
-701 -2849 0
-702 -2850 0
-703 -2851 0
-704 -2852 0
-789 -2721 0
-790 -2722 0
-791 -2723 0
-792 -2724 0
-845 -1237 0
-846 -1238 0
-847 -1239 0
-848 -1240 0
-885 -1249 0
-886 -1250 0
-887 -1251 0
-888 -1252 0
-893 -2429 0
-894 -2430 0
-895 -2431 0
-896 -2432 0
-973 -2581 0
-974 -2582 0
-975 -2583 0
-976 -2584 0
-1041 -3249 0
-1042 -3250 0
-1043 -3251 0
-1044 -3252 0
-1061 -2213 0
-1062 -2214 0
-1063 -2215 0
-1064 -2216 0
-1193 -1673 0
-1194 -1674 0
-1195 -1675 0
-1196 -1676 0
-1265 -1905 0
-1266 -1906 0
-1267 -1907 0
-1268 -1908 0
-1293 -2357 0
-1294 -2358 0
-1295 -2359 0
-1296 -2360 0
-1353 -2625 0
-1354 -2626 0
-1355 -2627 0
-1356 -2628 0
-1433 -1965 0
-1434 -1966 0
-1435 -1967 0
-1436 -1968 0
-1509 -1665 0
-1510 -1666 0
-1511 -1667 0
-1512 -1668 0
-1641 -2333 0
-1642 -2334 0
-1643 -2335 0
-1644 -2336 0
-1681 -2073 0
-1682 -2074 0
-1683 -2075 0
-1684 -2076 0
-1885 -3309 0
-1886 -3310 0
-1887 -3311 0
-1888 -3312 0
-1889 -2225 0
-1890 -2226 0
-1891 -2227 0
-1892 -2228 0
-2089 -2329 0
-2090 -2330 0
-2091 -2331 0
-2092 -2332 0
-2513 -2777 0
-2514 -2778 0
-2515 -2779 0
-2516 -2780 0
-2613 -3037 0
-2614 -3038 0
-2615 -3039 0
-2616 -3040 0
-2693 -3001 0
-2694 -3002 0
-2695 -3003 0
-2696 -3004 0
-2825 -3197 0
-2826 -3198 0
-2827 -3199 0
-2828 -3200 0
-3057 -3369 0
-3058 -3370 0
-3059 -3371 0
-3060 -3372 0
-3093 -3341 0
-3094 -3342 0
-3095 -3343 0
-3096 -3344 0
-1 -353 0
-2 -354 0
-3 -355 0
-4 -356 0
-5 -493 0
-6 -494 0
-7 -495 0
-8 -496 0
-17 -373 0
-18 -374 0
-19 -375 0
-20 -376 0
-25 -1681 0
-26 -1682 0
-27 -1683 0
-28 -1684 0
-29 -209 0
-30 -210 0
-31 -211 0
-32 -212 0
-33 -145 0
-34 -146 0
-35 -147 0
-36 -148 0
-57 -1633 0
-58 -1634 0
-59 -1635 0
-60 -1636 0
-73 -205 0
-74 -206 0
-75 -207 0
-76 -208 0
-77 -165 0
-78 -166 0
-79 -167 0
-80 -168 0
-133 -1933 0
-134 -1934 0
-135 -1935 0
-136 -1936 0
-137 -1489 0
-138 -1490 0
-139 -1491 0
-140 -1492 0
-265 -573 0
-266 -574 0
-267 -575 0
-268 -576 0
-309 -2813 0
-310 -2814 0
-311 -2815 0
-312 -2816 0
-361 -1541 0
-362 -1542 0
-363 -1543 0
-364 -1544 0
-381 -2685 0
-382 -2686 0
-383 -2687 0
-384 -2688 0
-429 -481 0
-430 -482 0
-431 -483 0
-432 -484 0
-437 -753 0
-438 -754 0
-439 -755 0
-440 -756 0
-473 -889 0
-474 -890 0
-475 -891 0
-476 -892 0
-489 -2153 0
-490 -2154 0
-491 -2155 0
-492 -2156 0
-637 -965 0
-638 -966 0
-639 -967 0
-640 -968 0
-657 -1429 0
-658 -1430 0
-659 -1431 0
-660 -1432 0
-685 -1153 0
-686 -1154 0
-687 -1155 0
-688 -1156 0
-797 -2681 0
-798 -2682 0
-799 -2683 0
-800 -2684 0
-925 -1513 0
-926 -1514 0
-927 -1515 0
-928 -1516 0
-973 -2193 0
-974 -2194 0
-975 -2195 0
-976 -2196 0
-993 -1993 0
-994 -1994 0
-995 -1995 0
-996 -1996 0
-1037 -2241 0
-1038 -2242 0
-1039 -2243 0
-1040 -2244 0
-1061 -3345 0
-1062 -3346 0
-1063 -3347 0
-1064 -3348 0
-1169 -1189 0
-1170 -1190 0
-1171 -1191 0
-1172 -1192 0
-1173 -1789 0
-1174 -1790 0
-1175 -1791 0
-1176 -1792 0
-1201 -1801 0
-1202 -1802 0
-1203 -1803 0
-1204 -1804 0
-1241 -2861 0
-1242 -2862 0
-1243 -2863 0
-1244 -2864 0
-1297 -2073 0
-1298 -2074 0
-1299 -2075 0
-1300 -2076 0
-1473 -3029 0
-1474 -3030 0
-1475 -3031 0
-1476 -3032 0
-1897 -3229 0
-1898 -3230 0
-1899 -3231 0
-1900 -3232 0
-1929 -2353 0
-1930 -2354 0
-1931 -2355 0
-1932 -2356 0
-2261 -2417 0
-2262 -2418 0
-2263 -2419 0
-2264 -2420 0
-2289 -3181 0
-2290 -3182 0
-2291 -3183 0
-2292 -3184 0
-2549 -2809 0
-2550 -2810 0
-2551 -2811 0
-2552 -2812 0
-3249 -3301 0
-3250 -3302 0
-3251 -3303 0
-3252 -3304 0
-13 -37 0
-14 -38 0
-15 -39 0
-16 -40 0
-25 -2517 0
-26 -2518 0
-27 -2519 0
-28 -2520 0
-29 -1625 0
-30 -1626 0
-31 -1627 0
-32 -1628 0
-33 -1689 0
-34 -1690 0
-35 -1691 0
-36 -1692 0
-85 -2917 0
-86 -2918 0
-87 -2919 0
-88 -2920 0
-93 -2025 0
-94 -2026 0
-95 -2027 0
-96 -2028 0
-97 -3273 0
-98 -3274 0
-99 -3275 0
-100 -3276 0
-105 -2497 0
-106 -2498 0
-107 -2499 0
-108 -2500 0
-137 -2929 0
-138 -2930 0
-139 -2931 0
-140 -2932 0
-149 -3229 0
-150 -3230 0
-151 -3231 0
-152 -3232 0
-169 -413 0
-170 -414 0
-171 -415 0
-172 -416 0
-177 -601 0
-178 -602 0
-179 -603 0
-180 -604 0
-241 -1897 0
-242 -1898 0
-243 -1899 0
-244 -1900 0
-257 -317 0
-258 -318 0
-259 -319 0
-260 -320 0
-265 -853 0
-266 -854 0
-267 -855 0
-268 -856 0
-269 -2977 0
-270 -2978 0
-271 -2979 0
-272 -2980 0
-297 -2541 0
-298 -2542 0
-299 -2543 0
-300 -2544 0
-385 -2409 0
-386 -2410 0
-387 -2411 0
-388 -2412 0
-401 -2285 0
-402 -2286 0
-403 -2287 0
-404 -2288 0
-445 -3009 0
-446 -3010 0
-447 -3011 0
-448 -3012 0
-453 -2473 0
-454 -2474 0
-455 -2475 0
-456 -2476 0
-509 -1741 0
-510 -1742 0
-511 -1743 0
-512 -1744 0
-553 -2817 0
-554 -2818 0
-555 -2819 0
-556 -2820 0
-565 -617 0
-566 -618 0
-567 -619 0
-568 -620 0
-641 -1449 0
-642 -1450 0
-643 -1451 0
-644 -1452 0
-665 -1837 0
-666 -1838 0
-667 -1839 0
-668 -1840 0
-953 -1069 0
-954 -1070 0
-955 -1071 0
-956 -1072 0
-1017 -2781 0
-1018 -2782 0
-1019 -2783 0
-1020 -2784 0
-1025 -1389 0
-1026 -1390 0
-1027 -1391 0
-1028 -1392 0
-1041 -1265 0
-1042 -1266 0
-1043 -1267 0
-1044 -1268 0
-1185 -1325 0
-1186 -1326 0
-1187 -1327 0
-1188 -1328 0
-1237 -3153 0
-1238 -3154 0
-1239 -3155 0
-1240 -3156 0
-1241 -1473 0
-1242 -1474 0
-1243 -1475 0
-1244 -1476 0
-1253 -2585 0
-1254 -2586 0
-1255 -2587 0
-1256 -2588 0
-1297 -2069 0
-1298 -2070 0
-1299 -2071 0
-1300 -2072 0
-1309 -2577 0
-1310 -2578 0
-1311 -2579 0
-1312 -2580 0
-1317 -1997 0
-1318 -1998 0
-1319 -1999 0
-1320 -2000 0
-1401 -1469 0
-1402 -1470 0
-1403 -1471 0
-1404 -1472 0
-1405 -1869 0
-1406 -1870 0
-1407 -1871 0
-1408 -1872 0
-1417 -2129 0
-1418 -2130 0
-1419 -2131 0
-1420 -2132 0
-1593 -3277 0
-1594 -3278 0
-1595 -3279 0
-1596 -3280 0
-1737 -2185 0
-1738 -2186 0
-1739 -2187 0
-1740 -2188 0
-1809 -2937 0
-1810 -2938 0
-1811 -2939 0
-1812 -2940 0
-1917 -2737 0
-1918 -2738 0
-1919 -2739 0
-1920 -2740 0
-1929 -2609 0
-1930 -2610 0
-1931 -2611 0
-1932 -2612 0
-1941 -2529 0
-1942 -2530 0
-1943 -2531 0
-1944 -2532 0
-1965 -2697 0
-1966 -2698 0
-1967 -2699 0
-1968 -2700 0
-1981 -3005 0
-1982 -3006 0
-1983 -3007 0
-1984 -3008 0
-2425 -3389 0
-2426 -3390 0
-2427 -3391 0
-2428 -3392 0
-2641 -3237 0
-2642 -3238 0
-2643 -3239 0
-2644 -3240 0
-2861 -3029 0
-2862 -3030 0
-2863 -3031 0
-2864 -3032 0
-2865 -3157 0
-2866 -3158 0
-2867 -3159 0
-2868 -3160 0
-2949 -2953 0
-2950 -2954 0
-2951 -2955 0
-2952 -2956 0
-3173 -3297 0
-3174 -3298 0
-3175 -3299 0
-3176 -3300 0
-37 -2485 0
-38 -2486 0
-39 -2487 0
-40 -2488 0
-41 -837 0
-42 -838 0
-43 -839 0
-44 -840 0
-65 -1181 0
-66 -1182 0
-67 -1183 0
-68 -1184 0
-81 -305 0
-82 -306 0
-83 -307 0
-84 -308 0
-85 -229 0
-86 -230 0
-87 -231 0
-88 -232 0
-101 -2321 0
-102 -2322 0
-103 -2323 0
-104 -2324 0
-117 -185 0
-118 -186 0
-119 -187 0
-120 -188 0
-125 -329 0
-126 -330 0
-127 -331 0
-128 -332 0
-177 -2461 0
-178 -2462 0
-179 -2463 0
-180 -2464 0
-193 -2421 0
-194 -2422 0
-195 -2423 0
-196 -2424 0
-221 -2857 0
-222 -2858 0
-223 -2859 0
-224 -2860 0
-237 -1485 0
-238 -1486 0
-239 -1487 0
-240 -1488 0
-245 -561 0
-246 -562 0
-247 -563 0
-248 -564 0
-309 -473 0
-310 -474 0
-311 -475 0
-312 -476 0
-321 -3073 0
-322 -3074 0
-323 -3075 0
-324 -3076 0
-445 -509 0
-446 -510 0
-447 -511 0
-448 -512 0
-489 -529 0
-490 -530 0
-491 -531 0
-492 -532 0
-497 -2761 0
-498 -2762 0
-499 -2763 0
-500 -2764 0
-657 -685 0
-658 -686 0
-659 -687 0
-660 -688 0
-801 -3085 0
-802 -3086 0
-803 -3087 0
-804 -3088 0
-997 -1697 0
-998 -1698 0
-999 -1699 0
-1000 -1700 0
-1049 -1269 0
-1050 -1270 0
-1051 -1271 0
-1052 -1272 0
-1061 -1645 0
-1062 -1646 0
-1063 -1647 0
-1064 -1648 0
-1413 -2797 0
-1414 -2798 0
-1415 -2799 0
-1416 -2800 0
-1457 -2021 0
-1458 -2022 0
-1459 -2023 0
-1460 -2024 0
-1557 -3265 0
-1558 -3266 0
-1559 -3267 0
-1560 -3268 0
-1569 -2745 0
-1570 -2746 0
-1571 -2747 0
-1572 -2748 0
-1717 -3285 0
-1718 -3286 0
-1719 -3287 0
-1720 -3288 0
-1817 -2277 0
-1818 -2278 0
-1819 -2279 0
-1820 -2280 0
-1869 -2981 0
-1870 -2982 0
-1871 -2983 0
-1872 -2984 0
-2113 -3209 0
-2114 -3210 0
-2115 -3211 0
-2116 -3212 0
-2237 -3001 0
-2238 -3002 0
-2239 -3003 0
-2240 -3004 0
-2389 -2533 0
-2390 -2534 0
-2391 -2535 0
-2392 -2536 0
-2549 -2601 0
-2550 -2602 0
-2551 -2603 0
-2552 -2604 0
-2617 -2805 0
-2618 -2806 0
-2619 -2807 0
-2620 -2808 0
-13 -453 0
-14 -454 0
-15 -455 0
-16 -456 0
-25 -105 0
-26 -106 0
-27 -107 0
-28 -108 0
-37 -2473 0
-38 -2474 0
-39 -2475 0
-40 -2476 0
-93 -1237 0
-94 -1238 0
-95 -1239 0
-96 -1240 0
-97 -2801 0
-98 -2802 0
-99 -2803 0
-100 -2804 0
-137 -3133 0
-138 -3134 0
-139 -3135 0
-140 -3136 0
-257 -401 0
-258 -402 0
-259 -403 0
-260 -404 0
-277 -877 0
-278 -878 0
-279 -879 0
-280 -880 0
-309 -1609 0
-310 -1610 0
-311 -1611 0
-312 -1612 0
-317 -2285 0
-318 -2286 0
-319 -2287 0
-320 -2288 0
-541 -1961 0
-542 -1962 0
-543 -1963 0
-544 -1964 0
-569 -1797 0
-570 -1798 0
-571 -1799 0
-572 -1800 0
-617 -1933 0
-618 -1934 0
-619 -1935 0
-620 -1936 0
-805 -1725 0
-806 -1726 0
-807 -1727 0
-808 -1728 0
-833 -945 0
-834 -946 0
-835 -947 0
-836 -948 0
-921 -1153 0
-922 -1154 0
-923 -1155 0
-924 -1156 0
-1021 -1461 0
-1022 -1462 0
-1023 -1463 0
-1024 -1464 0
-1025 -1917 0
-1026 -1918 0
-1027 -1919 0
-1028 -1920 0
-1029 -1137 0
-1030 -1138 0
-1031 -1139 0
-1032 -1140 0
-1045 -2265 0
-1046 -2266 0
-1047 -2267 0
-1048 -2268 0
-1049 -1413 0
-1050 -1414 0
-1051 -1415 0
-1052 -1416 0
-1105 -1497 0
-1106 -1498 0
-1107 -1499 0
-1108 -1500 0
-1217 -1541 0
-1218 -1542 0
-1219 -1543 0
-1220 -1544 0
-1245 -1429 0
-1246 -1430 0
-1247 -1431 0
-1248 -1432 0
-1269 -2797 0
-1270 -2798 0
-1271 -2799 0
-1272 -2800 0
-1389 -2737 0
-1390 -2738 0
-1391 -2739 0
-1392 -2740 0
-1401 -2181 0
-1402 -2182 0
-1403 -2183 0
-1404 -2184 0
-1417 -2597 0
-1418 -2598 0
-1419 -2599 0
-1420 -2600 0
-1741 -1761 0
-1742 -1762 0
-1743 -1763 0
-1744 -1764 0
-1745 -1969 0
-1746 -1970 0
-1747 -1971 0
-1748 -1972 0
-1785 -1841 0
-1786 -1842 0
-1787 -1843 0
-1788 -1844 0
-2009 -2121 0
-2010 -2122 0
-2011 -2123 0
-2012 -2124 0
-2013 -3141 0
-2014 -3142 0
-2015 -3143 0
-2016 -3144 0
-2025 -3153 0
-2026 -3154 0
-2027 -3155 0
-2028 -3156 0
-2057 -3181 0
-2058 -3182 0
-2059 -3183 0
-2060 -3184 0
-2081 -3161 0
-2082 -3162 0
-2083 -3163 0
-2084 -3164 0
-2125 -2641 0
-2126 -2642 0
-2127 -2643 0
-2128 -2644 0
-2197 -2469 0
-2198 -2470 0
-2199 -2471 0
-2200 -2472 0
-2253 -2897 0
-2254 -2898 0
-2255 -2899 0
-2256 -2900 0
-2329 -2357 0
-2330 -2358 0
-2331 -2359 0
-2332 -2360 0
-2505 -2793 0
-2506 -2794 0
-2507 -2795 0
-2508 -2796 0
-2569 -2633 0
-2570 -2634 0
-2571 -2635 0
-2572 -2636 0
-2925 -3013 0
-2926 -3014 0
-2927 -3015 0
-2928 -3016 0
-3041 -3205 0
-3042 -3206 0
-3043 -3207 0
-3044 -3208 0
-5 -69 0
-6 -70 0
-7 -71 0
-8 -72 0
-57 -1661 0
-58 -1662 0
-59 -1663 0
-60 -1664 0
-141 -2645 0
-142 -2646 0
-143 -2647 0
-144 -2648 0
-161 -725 0
-162 -726 0
-163 -727 0
-164 -728 0
-265 -709 0
-266 -710 0
-267 -711 0
-268 -712 0
-1481 -2069 0
-1482 -2070 0
-1483 -2071 0
-1484 -2072 0
-1813 -2297 0
-1814 -2298 0
-1815 -2299 0
-1816 -2300 0
-57 -1861 0
-58 -1862 0
-59 -1863 0
-60 -1864 0
-61 -721 0
-62 -722 0
-63 -723 0
-64 -724 0
-65 -333 0
-66 -334 0
-67 -335 0
-68 -336 0
-73 -429 0
-74 -430 0
-75 -431 0
-76 -432 0
-109 -141 0
-110 -142 0
-111 -143 0
-112 -144 0
-165 -2173 0
-166 -2174 0
-167 -2175 0
-168 -2176 0
-205 -481 0
-206 -482 0
-207 -483 0
-208 -484 0
-337 -673 0
-338 -674 0
-339 -675 0
-340 -676 0
-45 -2773 0
-46 -2774 0
-47 -2775 0
-48 -2776 0
-81 -157 0
-82 -158 0
-83 -159 0
-84 -160 0
-309 -1037 0
-310 -1038 0
-311 -1039 0
-312 -1040 0
-769 -1289 0
-770 -1290 0
-771 -1291 0
-772 -1292 0
-985 -2489 0
-986 -2490 0
-987 -2491 0
-988 -2492 0
-1601 -3025 0
-1602 -3026 0
-1603 -3027 0
-1604 -3028 0
-1685 -2593 0
-1686 -2594 0
-1687 -2595 0
-1688 -2596 0
-1709 -3101 0
-1710 -3102 0
-1711 -3103 0
-1712 -3104 0
-2049 -3209 0
-2050 -3210 0
-2051 -3211 0
-2052 -3212 0
-2281 -2601 0
-2282 -2602 0
-2283 -2603 0
-2284 -2604 0
-3033 -3193 0
-3034 -3194 0
-3035 -3195 0
-3036 -3196 0
-21 -1713 0
-22 -1714 0
-23 -1715 0
-24 -1716 0
-109 -249 0
-110 -250 0
-111 -251 0
-112 -252 0
-113 -889 0
-114 -890 0
-115 -891 0
-116 -892 0
-117 -1449 0
-118 -1450 0
-119 -1451 0
-120 -1452 0
-121 -201 0
-122 -202 0
-123 -203 0
-124 -204 0
-165 -373 0
-166 -374 0
-167 -375 0
-168 -376 0
-181 -693 0
-182 -694 0
-183 -695 0
-184 -696 0
-197 -261 0
-198 -262 0
-199 -263 0
-200 -264 0
-225 -2465 0
-226 -2466 0
-227 -2467 0
-228 -2468 0
-489 -661 0
-490 -662 0
-491 -663 0
-492 -664 0
-981 -2085 0
-982 -2086 0
-983 -2087 0
-984 -2088 0
-57 -113 0
-58 -114 0
-59 -115 0
-60 -116 0
-261 -493 0
-262 -494 0
-263 -495 0
-264 -496 0
-337 -2241 0
-338 -2242 0
-339 -2243 0
-340 -2244 0
-1361 -1857 0
-1362 -1858 0
-1363 -1859 0
-1364 -1860 0
-1493 -3125 0
-1494 -3126 0
-1495 -3127 0
-1496 -3128 0
-1585 -1721 0
-1586 -1722 0
-1587 -1723 0
-1588 -1724 0
-53 -73 0
-54 -74 0
-55 -75 0
-56 -76 0
-61 -1077 0
-62 -1078 0
-63 -1079 0
-64 -1080 0
-213 -3209 0
-214 -3210 0
-215 -3211 0
-216 -3212 0
-1177 -3117 0
-1178 -3118 0
-1179 -3119 0
-1180 -3120 0
-1385 -1685 0
-1386 -1686 0
-1387 -1687 0
-1388 -1688 0
-1565 -2109 0
-1566 -2110 0
-1567 -2111 0
-1568 -2112 0
-2597 -2773 0
-2598 -2774 0
-2599 -2775 0
-2600 -2776 0
-3045 -3365 0
-3046 -3366 0
-3047 -3367 0
-3048 -3368 0
-21 -61 0
-22 -62 0
-23 -63 0
-24 -64 0
-45 -1801 0
-46 -1802 0
-47 -1803 0
-48 -1804 0
-49 -781 0
-50 -782 0
-51 -783 0
-52 -784 0
-53 -1805 0
-54 -1806 0
-55 -1807 0
-56 -1808 0
-77 -2141 0
-78 -2142 0
-79 -2143 0
-80 -2144 0
-81 -1973 0
-82 -1974 0
-83 -1975 0
-84 -1976 0
-157 -1761 0
-158 -1762 0
-159 -1763 0
-160 -1764 0
-161 -389 0
-162 -390 0
-163 -391 0
-164 -392 0
-181 -1177 0
-182 -1178 0
-183 -1179 0
-184 -1180 0
-237 -365 0
-238 -366 0
-239 -367 0
-240 -368 0
-1581 -1665 0
-1582 -1666 0
-1583 -1667 0
-1584 -1668 0
-1601 -2345 0
-1602 -2346 0
-1603 -2347 0
-1604 -2348 0
-1945 -2269 0
-1946 -2270 0
-1947 -2271 0
-1948 -2272 0
-5 -45 0
-6 -46 0
-7 -47 0
-8 -48 0
-65 -965 0
-66 -966 0
-67 -967 0
-68 -968 0
-77 -321 0
-78 -322 0
-79 -323 0
-80 -324 0
-161 -2113 0
-162 -2114 0
-163 -2115 0
-164 -2116 0
-189 -1129 0
-190 -1130 0
-191 -1131 0
-192 -1132 0
-265 -1225 0
-266 -1226 0
-267 -1227 0
-268 -1228 0
-305 -465 0
-306 -466 0
-307 -467 0
-308 -468 0
-349 -1501 0
-350 -1502 0
-351 -1503 0
-352 -1504 0
-561 -1077 0
-562 -1078 0
-563 -1079 0
-564 -1080 0
-1229 -1581 0
-1230 -1582 0
-1231 -1583 0
-1232 -1584 0
-1721 -2153 0
-1722 -2154 0
-1723 -2155 0
-1724 -2156 0
-1957 -2093 0
-1958 -2094 0
-1959 -2095 0
-1960 -2096 0
-2277 -2401 0
-2278 -2402 0
-2279 -2403 0
-2280 -2404 0
-57 -2281 0
-58 -2282 0
-59 -2283 0
-60 -2284 0
-161 -2189 0
-162 -2190 0
-163 -2191 0
-164 -2192 0
-825 -1289 0
-826 -1290 0
-827 -1291 0
-828 -1292 0
-1081 -1201 0
-1082 -1202 0
-1083 -1203 0
-1084 -1204 0
-1165 -3101 0
-1166 -3102 0
-1167 -3103 0
-1168 -3104 0
-1309 -1861 0
-1310 -1862 0
-1311 -1863 0
-1312 -1864 0
-1633 -1973 0
-1634 -1974 0
-1635 -1975 0
-1636 -1976 0
-5 -265 0
-6 -266 0
-7 -267 0
-8 -268 0
-17 -2933 0
-18 -2934 0
-19 -2935 0
-20 -2936 0
-21 -3017 0
-22 -3018 0
-23 -3019 0
-24 -3020 0
-45 -1225 0
-46 -1226 0
-47 -1227 0
-48 -1228 0
-65 -981 0
-66 -982 0
-67 -983 0
-68 -984 0
-69 -709 0
-70 -710 0
-71 -711 0
-72 -712 0
-81 -117 0
-82 -118 0
-83 -119 0
-84 -120 0
-113 -365 0
-114 -366 0
-115 -367 0
-116 -368 0
-177 -237 0
-178 -238 0
-179 -239 0
-180 -240 0
-181 -2117 0
-182 -2118 0
-183 -2119 0
-184 -2120 0
-213 -2225 0
-214 -2226 0
-215 -2227 0
-216 -2228 0
-493 -573 0
-494 -574 0
-495 -575 0
-496 -576 0
-1621 -2121 0
-1622 -2122 0
-1623 -2123 0
-1624 -2124 0
-377 -841 0
-378 -842 0
-379 -843 0
-380 -844 0
-909 -1081 0
-910 -1082 0
-911 -1083 0
-912 -1084 0
-1557 -1669 0
-1558 -1670 0
-1559 -1671 0
-1560 -1672 0
-1817 -1957 0
-1818 -1958 0
-1819 -1959 0
-1820 -1960 0
-17 -3193 0
-18 -3194 0
-19 -3195 0
-20 -3196 0
-53 -3125 0
-54 -3126 0
-55 -3127 0
-56 -3128 0
-57 -65 0
-58 -66 0
-59 -67 0
-60 -68 0
-73 -2001 0
-74 -2002 0
-75 -2003 0
-76 -2004 0
-213 -2241 0
-214 -2242 0
-215 -2243 0
-216 -2244 0
-605 -821 0
-606 -822 0
-607 -823 0
-608 -824 0
-1081 -1305 0
-1082 -1306 0
-1083 -1307 0
-1084 -1308 0
-2113 -2681 0
-2114 -2682 0
-2115 -2683 0
-2116 -2684 0
-49 -1809 0
-50 -1810 0
-51 -1811 0
-52 -1812 0
-53 -1577 0
-54 -1578 0
-55 -1579 0
-56 -1580 0
-57 -1269 0
-58 -1270 0
-59 -1271 0
-60 -1272 0
-141 -437 0
-142 -438 0
-143 -439 0
-144 -440 0
-157 -733 0
-158 -734 0
-159 -735 0
-160 -736 0
-161 -2533 0
-162 -2534 0
-163 -2535 0
-164 -2536 0
-261 -1009 0
-262 -1010 0
-263 -1011 0
-264 -1012 0
-969 -2389 0
-970 -2390 0
-971 -2391 0
-972 -2392 0
-21 -49 0
-22 -50 0
-23 -51 0
-24 -52 0
-61 -781 0
-62 -782 0
-63 -783 0
-64 -784 0
-65 -1033 0
-66 -1034 0
-67 -1035 0
-68 -1036 0
-77 -381 0
-78 -382 0
-79 -383 0
-80 -384 0
-81 -769 0
-82 -770 0
-83 -771 0
-84 -772 0
-157 -1289 0
-158 -1290 0
-159 -1291 0
-160 -1292 0
-161 -605 0
-162 -606 0
-163 -607 0
-164 -608 0
-165 -2685 0
-166 -2686 0
-167 -2687 0
-168 -2688 0
-237 -2413 0
-238 -2414 0
-239 -2415 0
-240 -2416 0
-337 -469 0
-338 -470 0
-339 -471 0
-340 -472 0
-797 -2001 0
-798 -2002 0
-799 -2003 0
-800 -2004 0
-969 -1833 0
-970 -1834 0
-971 -1835 0
-972 -1836 0
-1097 -3117 0
-1098 -3118 0
-1099 -3119 0
-1100 -3120 0
-185 -1077 0
-186 -1078 0
-187 -1079 0
-188 -1080 0
-189 -1305 0
-190 -1306 0
-191 -1307 0
-192 -1308 0
-497 -1857 0
-498 -1858 0
-499 -1859 0
-500 -1860 0
-709 -1225 0
-710 -1226 0
-711 -1227 0
-712 -1228 0
-725 -2113 0
-726 -2114 0
-727 -2115 0
-728 -2116 0
-749 -2489 0
-750 -2490 0
-751 -2491 0
-752 -2492 0
-5 -2605 0
-6 -2606 0
-7 -2607 0
-8 -2608 0
-17 -405 0
-18 -406 0
-19 -407 0
-20 -408 0
-21 -637 0
-22 -638 0
-23 -639 0
-24 -640 0
-113 -1829 0
-114 -1830 0
-115 -1831 0
-116 -1832 0
-161 -2537 0
-162 -2538 0
-163 -2539 0
-164 -2540 0
-169 -1581 0
-170 -1582 0
-171 -1583 0
-172 -1584 0
-181 -517 0
-182 -518 0
-183 -519 0
-184 -520 0
-213 -501 0
-214 -502 0
-215 -503 0
-216 -504 0
-493 -1701 0
-494 -1702 0
-495 -1703 0
-496 -1704 0
-681 -977 0
-682 -978 0
-683 -979 0
-684 -980 0
-841 -1201 0
-842 -1202 0
-843 -1203 0
-844 -1204 0
-1301 -2873 0
-1302 -2874 0
-1303 -2875 0
-1304 -2876 0
-1861 -2281 0
-1862 -2282 0
-1863 -2283 0
-1864 -2284 0
-661 -961 0
-662 -962 0
-663 -963 0
-664 -964 0
-989 -1361 0
-990 -1362 0
-991 -1363 0
-992 -1364 0
-1261 -1957 0
-1262 -1958 0
-1263 -1959 0
-1264 -1960 0
-1373 -1669 0
-1374 -1670 0
-1375 -1671 0
-1376 -1672 0
-1721 -1833 0
-1722 -1834 0
-1723 -1835 0
-1724 -1836 0
-389 -2141 0
-390 -2142 0
-391 -2143 0
-392 -2144 0
-581 -2397 0
-582 -2398 0
-583 -2399 0
-584 -2400 0
-593 -2773 0
-594 -2774 0
-595 -2775 0
-596 -2776 0
-617 -2109 0
-618 -2110 0
-619 -2111 0
-620 -2112 0
-689 -1081 0
-690 -1082 0
-691 -1083 0
-692 -1084 0
-793 -1685 0
-794 -1686 0
-795 -1687 0
-796 -1688 0
-829 -3025 0
-830 -3026 0
-831 -3027 0
-832 -3028 0
-1037 -2749 0
-1038 -2750 0
-1039 -2751 0
-1040 -2752 0
-1481 -1957 0
-1482 -1958 0
-1483 -1959 0
-1484 -1960 0
-1861 -3321 0
-1862 -3322 0
-1863 -3323 0
-1864 -3324 0
-2241 -2597 0
-2242 -2598 0
-2243 -2599 0
-2244 -2600 0
-2489 -2561 0
-2490 -2562 0
-2491 -2563 0
-2492 -2564 0
-3265 -3365 0
-3266 -3366 0
-3267 -3367 0
-3268 -3368 0
-45 -1193 0
-46 -1194 0
-47 -1195 0
-48 -1196 0
-53 -1493 0
-54 -1494 0
-55 -1495 0
-56 -1496 0
-57 -1517 0
-58 -1518 0
-59 -1519 0
-60 -1520 0
-141 -2545 0
-142 -2546 0
-143 -2547 0
-144 -2548 0
-161 -2253 0
-162 -2254 0
-163 -2255 0
-164 -2256 0
-213 -337 0
-214 -338 0
-215 -339 0
-216 -340 0
-237 -1065 0
-238 -1066 0
-239 -1067 0
-240 -1068 0
-365 -981 0
-366 -982 0
-367 -983 0
-368 -984 0
-1141 -3293 0
-1142 -3294 0
-1143 -3295 0
-1144 -3296 0
-1229 -3201 0
-1230 -3202 0
-1231 -3203 0
-1232 -3204 0
-69 -717 0
-70 -718 0
-71 -719 0
-72 -720 0
-73 -1577 0
-74 -1578 0
-75 -1579 0
-76 -1580 0
-77 -3281 0
-78 -3282 0
-79 -3283 0
-80 -3284 0
-81 -309 0
-82 -310 0
-83 -311 0
-84 -312 0
-157 -1037 0
-158 -1038 0
-159 -1039 0
-160 -1040 0
-165 -1233 0
-166 -1234 0
-167 -1235 0
-168 -1236 0
-205 -1025 0
-206 -1026 0
-207 -1027 0
-208 -1028 0
-305 -473 0
-306 -474 0
-307 -475 0
-308 -476 0
-349 -477 0
-350 -478 0
-351 -479 0
-352 -480 0
-1177 -1529 0
-1178 -1530 0
-1179 -1531 0
-1180 -1532 0
-225 -2001 0
-226 -2002 0
-227 -2003 0
-228 -2004 0
-365 -2413 0
-366 -2414 0
-367 -2415 0
-368 -2416 0
-389 -605 0
-390 -606 0
-391 -607 0
-392 -608 0
-505 -1833 0
-506 -1834 0
-507 -1835 0
-508 -1836 0
-1081 -3089 0
-1082 -3090 0
-1083 -3091 0
-1084 -3092 0
-1481 -3021 0
-1482 -3022 0
-1483 -3023 0
-1484 -3024 0
-2109 -2825 0
-2110 -2826 0
-2111 -2827 0
-2112 -2828 0
-2189 -2273 0
-2190 -2274 0
-2191 -2275 0
-2192 -2276 0
-2281 -2505 0
-2282 -2506 0
-2283 -2507 0
-2284 -2508 0
-17 -1533 0
-18 -1534 0
-19 -1535 0
-20 -1536 0
-21 -2573 0
-22 -2574 0
-23 -2575 0
-24 -2576 0
-109 -2385 0
-110 -2386 0
-111 -2387 0
-112 -2388 0
-117 -245 0
-118 -246 0
-119 -247 0
-120 -248 0
-121 -197 0
-122 -198 0
-123 -199 0
-124 -200 0
-185 -561 0
-186 -562 0
-187 -563 0
-188 -564 0
-201 -261 0
-202 -262 0
-203 -263 0
-204 -264 0
-213 -1101 0
-214 -1102 0
-215 -1103 0
-216 -1104 0
-285 -377 0
-286 -378 0
-287 -379 0
-288 -380 0
-961 -1029 0
-962 -1030 0
-963 -1031 0
-964 -1032 0
-1129 -1305 0
-1130 -1306 0
-1131 -1307 0
-1132 -1308 0
-1301 -2653 0
-1302 -2654 0
-1303 -2655 0
-1304 -2656 0
-1621 -1989 0
-1622 -1990 0
-1623 -1991 0
-1624 -1992 0
-377 -909 0
-378 -910 0
-379 -911 0
-380 -912 0
-817 -1361 0
-818 -1362 0
-819 -1363 0
-820 -1364 0
-841 -1081 0
-842 -1082 0
-843 -1083 0
-844 -1084 0
-937 -1177 0
-938 -1178 0
-939 -1179 0
-940 -1180 0
-2189 -2537 0
-2190 -2538 0
-2191 -2539 0
-2192 -2540 0
-605 -2945 0
-606 -2946 0
-607 -2947 0
-608 -2948 0
-1021 -3021 0
-1022 -3022 0
-1023 -3023 0
-1024 -3024 0
-1461 -2109 0
-1462 -2110 0
-1463 -2111 0
-1464 -2112 0
-1761 -1973 0
-1762 -1974 0
-1763 -1975 0
-1764 -1976 0
-1969 -2397 0
-1970 -2398 0
-1971 -2399 0
-1972 -2400 0
-2241 -2813 0
-2242 -2814 0
-2243 -2815 0
-2244 -2816 0
-17 -77 0
-18 -78 0
-19 -79 0
-20 -80 0
-45 -1017 0
-46 -1018 0
-47 -1019 0
-48 -1020 0
-49 -1317 0
-50 -1318 0
-51 -1319 0
-52 -1320 0
-185 -349 0
-186 -350 0
-187 -351 0
-188 -352 0
-305 -1685 0
-306 -1686 0
-307 -1687 0
-308 -1688 0
-337 -3025 0
-338 -3026 0
-339 -3027 0
-340 -3028 0
-469 -2269 0
-470 -2270 0
-471 -2271 0
-472 -2272 0
-473 -1229 0
-474 -1230 0
-475 -1231 0
-476 -1232 0
-681 -1301 0
-682 -1302 0
-683 -1303 0
-684 -1304 0
-689 -909 0
-690 -910 0
-691 -911 0
-692 -912 0
-977 -2873 0
-978 -2874 0
-979 -2875 0
-980 -2876 0
-1305 -3173 0
-1306 -3174 0
-1307 -3175 0
-1308 -3176 0
-1481 -1817 0
-1482 -1818 0
-1483 -1819 0
-1484 -1820 0
-1633 -2157 0
-1634 -2158 0
-1635 -2159 0
-1636 -2160 0
-65 -1517 0
-66 -1518 0
-67 -1519 0
-68 -1520 0
-69 -569 0
-70 -570 0
-71 -571 0
-72 -572 0
-81 -2609 0
-82 -2610 0
-83 -2611 0
-84 -2612 0
-141 -3101 0
-142 -3102 0
-143 -3103 0
-144 -3104 0
-165 -1165 0
-166 -1166 0
-167 -1167 0
-168 -1168 0
-189 -485 0
-190 -486 0
-191 -487 0
-192 -488 0
-205 -2513 0
-206 -2514 0
-207 -2515 0
-208 -2516 0
-425 -2401 0
-426 -2402 0
-427 -2403 0
-428 -2404 0
-753 -1077 0
-754 -1078 0
-755 -1079 0
-756 -1080 0
-761 -2537 0
-762 -2538 0
-763 -2539 0
-764 -2540 0
-1993 -3117 0
-1994 -3118 0
-1995 -3119 0
-1996 -3120 0
-593 -2241 0
-594 -2242 0
-595 -2243 0
-596 -2244 0
-733 -1037 0
-734 -1038 0
-735 -1039 0
-736 -1040 0
-1081 -1529 0
-1082 -1530 0
-1083 -1531 0
-1084 -1532 0
-1361 -1601 0
-1362 -1602 0
-1363 -1603 0
-1364 -1604 0
-2001 -3125 0
-2002 -3126 0
-2003 -3127 0
-2004 -3128 0
-17 -2973 0
-18 -2974 0
-19 -2975 0
-20 -2976 0
-109 -489 0
-110 -490 0
-111 -491 0
-112 -492 0
-113 -177 0
-114 -178 0
-115 -179 0
-116 -180 0
-117 -1013 0
-118 -1014 0
-119 -1015 0
-120 -1016 0
-185 -805 0
-186 -806 0
-187 -807 0
-188 -808 0
-213 -549 0
-214 -550 0
-215 -551 0
-216 -552 0
-225 -797 0
-226 -798 0
-227 -799 0
-228 -800 0
-249 -661 0
-250 -662 0
-251 -663 0
-252 -664 0
-373 -2105 0
-374 -2106 0
-375 -2107 0
-376 -2108 0
-505 -969 0
-506 -970 0
-507 -971 0
-508 -972 0
-909 -1061 0
-910 -1062 0
-911 -1063 0
-912 -1064 0
-981 -1065 0
-982 -1066 0
-983 -1067 0
-984 -1068 0
-205 -605 0
-206 -606 0
-207 -607 0
-208 -608 0
-249 -1181 0
-250 -1182 0
-251 -1183 0
-252 -1184 0
-637 -3201 0
-638 -3202 0
-639 -3203 0
-640 -3204 0
-961 -3021 0
-962 -3022 0
-963 -3023 0
-964 -3024 0
-1669 -1861 0
-1670 -1862 0
-1671 -1863 0
-1672 -1864 0
-2001 -2125 0
-2002 -2126 0
-2003 -2127 0
-2004 -2128 0
-141 -165 0
-142 -166 0
-143 -167 0
-144 -168 0
-225 -2489 0
-226 -2490 0
-227 -2491 0
-228 -2492 0
-1037 -1117 0
-1038 -1118 0
-1039 -1119 0
-1040 -1120 0
-1473 -2109 0
-1474 -2110 0
-1475 -2111 0
-1476 -2112 0
-1685 -1813 0
-1686 -1814 0
-1687 -1815 0
-1688 -1816 0
-1857 -3345 0
-1858 -3346 0
-1859 -3347 0
-1860 -3348 0
-2549 -3025 0
-2550 -3026 0
-2551 -3027 0
-2552 -3028 0
-49 -1433 0
-50 -1434 0
-51 -1435 0
-52 -1436 0
-53 -1253 0
-54 -1254 0
-55 -1255 0
-56 -1256 0
-141 -1553 0
-142 -1554 0
-143 -1555 0
-144 -1556 0
-157 -1597 0
-158 -1598 0
-159 -1599 0
-160 -1600 0
-161 -1437 0
-162 -1438 0
-163 -1439 0
-164 -1440 0
-185 -305 0
-186 -306 0
-187 -307 0
-188 -308 0
-349 -1685 0
-350 -1686 0
-351 -1687 0
-352 -1688 0
-377 -1573 0
-378 -1574 0
-379 -1575 0
-380 -1576 0
-477 -1229 0
-478 -1230 0
-479 -1231 0
-480 -1232 0
-1481 -1825 0
-1482 -1826 0
-1483 -1827 0
-1484 -1828 0
-1485 -2461 0
-1486 -2462 0
-1487 -2463 0
-1488 -2464 0
-2957 -3293 0
-2958 -3294 0
-2959 -3295 0
-2960 -3296 0
-17 -161 0
-18 -162 0
-19 -163 0
-20 -164 0
-21 -969 0
-22 -970 0
-23 -971 0
-24 -972 0
-45 -1857 0
-46 -1858 0
-47 -1859 0
-48 -1860 0
-49 -1833 0
-50 -1834 0
-51 -1835 0
-52 -1836 0
-61 -505 0
-62 -506 0
-63 -507 0
-64 -508 0
-69 -497 0
-70 -498 0
-71 -499 0
-72 -500 0
-81 -2989 0
-82 -2990 0
-83 -2991 0
-84 -2992 0
-189 -697 0
-190 -698 0
-191 -699 0
-192 -700 0
-305 -793 0
-306 -794 0
-307 -795 0
-308 -796 0
-337 -829 0
-338 -830 0
-339 -831 0
-340 -832 0
-405 -2537 0
-406 -2538 0
-407 -2539 0
-408 -2540 0
-1177 -2157 0
-1178 -2158 0
-1179 -2159 0
-1180 -2160 0
-141 -3365 0
-142 -3366 0
-143 -3367 0
-144 -3368 0
-225 -2401 0
-226 -2402 0
-227 -2403 0
-228 -2404 0
-333 -1861 0
-334 -1862 0
-335 -1863 0
-336 -1864 0
-593 -3209 0
-594 -3210 0
-595 -3211 0
-596 -3212 0
-1721 -1813 0
-1722 -1814 0
-1723 -1815 0
-1724 -1816 0
-2109 -2249 0
-2110 -2250 0
-2111 -2251 0
-2112 -2252 0
-2545 -3101 0
-2546 -3102 0
-2547 -3103 0
-2548 -3104 0
-2773 -3073 0
-2774 -3074 0
-2775 -3075 0
-2776 -3076 0
-5 -441 0
-6 -442 0
-7 -443 0
-8 -444 0
-17 -525 0
-18 -526 0
-19 -527 0
-20 -528 0
-73 -121 0
-74 -122 0
-75 -123 0
-76 -124 0
-213 -3181 0
-214 -3182 0
-215 -3183 0
-216 -3184 0
-225 -2809 0
-226 -2810 0
-227 -2811 0
-228 -2812 0
-689 -1633 0
-690 -1634 0
-691 -1635 0
-692 -1636 0
-709 -2785 0
-710 -2786 0
-711 -2787 0
-712 -2788 0
-841 -937 0
-842 -938 0
-843 -939 0
-844 -940 0
-909 -2157 0
-910 -2158 0
-911 -2159 0
-912 -2160 0
-1049 -1601 0
-1050 -1602 0
-1051 -1603 0
-1052 -1604 0
-1081 -1177 0
-1082 -1178 0
-1083 -1179 0
-1084 -1180 0
-1229 -1385 0
-1230 -1386 0
-1231 -1387 0
-1232 -1388 0
-1645 -1813 0
-1646 -1814 0
-1647 -1815 0
-1648 -1816 0
-189 -1037 0
-190 -1038 0
-191 -1039 0
-192 -1040 0
-205 -2113 0
-206 -2114 0
-207 -2115 0
-208 -2116 0
-261 -3293 0
-262 -3294 0
-263 -3295 0
-264 -3296 0
-885 -1361 0
-886 -1362 0
-887 -1363 0
-888 -1364 0
-917 -1669 0
-918 -1670 0
-919 -1671 0
-920 -1672 0
-1185 -1957 0
-1186 -1958 0
-1187 -1959 0
-1188 -1960 0
-1225 -1717 0
-1226 -1718 0
-1227 -1719 0
-1228 -1720 0
-2269 -3025 0
-2270 -3026 0
-2271 -3027 0
-2272 -3028 0
-2629 -3201 0
-2630 -3202 0
-2631 -3203 0
-2632 -3204 0
-45 -69 0
-46 -70 0
-47 -71 0
-48 -72 0
-713 -2189 0
-714 -2190 0
-715 -2191 0
-716 -2192 0
-857 -1685 0
-858 -1686 0
-859 -1687 0
-860 -1688 0
-1029 -3021 0
-1030 -3022 0
-1031 -3023 0
-1032 -3024 0
-1137 -2109 0
-1138 -2110 0
-1139 -2111 0
-1140 -2112 0
-1277 -2281 0
-1278 -2282 0
-1279 -2283 0
-1280 -2284 0
-53 -1465 0
-54 -1466 0
-55 -1467 0
-56 -1468 0
-57 -1309 0
-58 -1310 0
-59 -1311 0
-60 -1312 0
-109 -165 0
-110 -166 0
-111 -167 0
-112 -168 0
-141 -2173 0
-142 -2174 0
-143 -2175 0
-144 -2176 0
-157 -881 0
-158 -882 0
-159 -883 0
-160 -884 0
-249 -373 0
-250 -374 0
-251 -375 0
-252 -376 0
-661 -2105 0
-662 -2106 0
-663 -2107 0
-664 -2108 0
-1265 -3293 0
-1266 -3294 0
-1267 -3295 0
-1268 -3296 0
-61 -741 0
-62 -742 0
-63 -743 0
-64 -744 0
-65 -2301 0
-66 -2302 0
-67 -2303 0
-68 -2304 0
-73 -529 0
-74 -530 0
-75 -531 0
-76 -532 0
-81 -1597 0
-82 -1598 0
-83 -1599 0
-84 -1600 0
-117 -157 0
-118 -158 0
-119 -159 0
-120 -160 0
-205 -433 0
-206 -434 0
-207 -435 0
-208 -436 0
-349 -2593 0
-350 -2594 0
-351 -2595 0
-352 -2596 0
-1225 -2773 0
-1226 -2774 0
-1227 -2775 0
-1228 -2776 0
-77 -161 0
-78 -162 0
-79 -163 0
-80 -164 0
-321 -2113 0
-322 -2114 0
-323 -2115 0
-324 -2116 0
-381 -605 0
-382 -606 0
-383 -607 0
-384 -608 0
-1017 -1857 0
-1018 -1858 0
-1019 -1859 0
-1020 -1860 0
-1177 -1633 0
-1178 -1634 0
-1179 -1635 0
-1180 -1636 0
-1317 -1833 0
-1318 -1834 0
-1319 -1835 0
-1320 -1836 0
-2281 -2769 0
-2282 -2770 0
-2283 -2771 0
-2284 -2772 0
-3073 -3209 0
-3074 -3210 0
-3075 -3211 0
-3076 -3212 0
-21 -169 0
-22 -170 0
-23 -171 0
-24 -172 0
-65 -113 0
-66 -114 0
-67 -115 0
-68 -116 0
-109 -945 0
-110 -946 0
-111 -947 0
-112 -948 0
-117 -285 0
-118 -286 0
-119 -287 0
-120 -288 0
-121 -1793 0
-122 -1794 0
-123 -1795 0
-124 -1796 0
-181 -2689 0
-182 -2690 0
-183 -2691 0
-184 -2692 0
-225 -425 0
-226 -426 0
-227 -427 0
-228 -428 0
-245 -377 0
-246 -378 0
-247 -379 0
-248 -380 0
-637 -1581 0
-638 -1582 0
-639 -1583 0
-640 -1584 0
-961 -2557 0
-962 -2558 0
-963 -2559 0
-964 -2560 0
-1021 -1485 0
-1022 -1486 0
-1023 -1487 0
-1024 -1488 0
-1585 -1813 0
-1586 -1814 0
-1587 -1815 0
-1588 -1816 0
-3101 -3365 0
-3102 -3366 0
-3103 -3367 0
-3104 -3368 0
-53 -121 0
-54 -122 0
-55 -123 0
-56 -124 0
-189 -1289 0
-190 -1290 0
-191 -1291 0
-192 -1292 0
-237 -1301 0
-238 -1302 0
-239 -1303 0
-240 -1304 0
-521 -1669 0
-522 -1670 0
-523 -1671 0
-524 -1672 0
-929 -1721 0
-930 -1722 0
-931 -1723 0
-932 -1724 0
-1049 -1361 0
-1050 -1362 0
-1051 -1363 0
-1052 -1364 0
-1081 -3117 0
-1082 -3118 0
-1083 -3119 0
-1084 -3120 0
-1229 -1685 0
-1230 -1686 0
-1231 -1687 0
-1232 -1688 0
-1957 -3101 0
-1958 -3102 0
-1959 -3103 0
-1960 -3104 0
-49 -61 0
-50 -62 0
-51 -63 0
-52 -64 0
-73 -2401 0
-74 -2402 0
-75 -2403 0
-76 -2404 0
-381 -2141 0
-382 -2142 0
-383 -2143 0
-384 -2144 0
-769 -1973 0
-770 -1974 0
-771 -1975 0
-772 -1976 0
-1289 -1761 0
-1290 -1762 0
-1291 -1763 0
-1292 -1764 0
-1945 -3025 0
-1946 -3026 0
-1947 -3027 0
-1948 -3028 0
33 0
94 0
139 0
