# 852 vertices, 4487 edges: a b (0-based vertex indices into core852a.json)
0 216
2 31
3 64
6 263
9 79
10 814
13 59
14 40
22 496
26 75
30 325
49 663
50 170
54 69
62 148
70 153
78 335
98 114
101 183
112 445
117 163
121 255
125 152
131 220
142 201
149 191
159 199
173 526
175 193
192 287
234 543
239 363
241 670
262 597
268 719
277 697
282 796
283 355
286 336
317 633
323 602
346 677
379 563
478 544
482 485
565 573
566 817
577 594
666 808
0 701
2 229
8 23
21 184
31 120
33 816
44 67
48 145
60 156
73 512
77 638
78 562
86 154
90 97
101 621
104 172
150 744
166 842
231 339
264 604
273 285
279 380
290 576
292 714
313 792
335 469
342 721
402 461
422 506
463 611
467 644
477 750
507 846
524 736
542 584
581 628
607 680
647 774
660 725
737 764
760 839
3 491
6 202
9 674
22 822
27 405
38 63
49 110
54 813
61 83
99 612
147 804
172 222
214 388
246 703
247 399
257 758
271 442
274 343
283 710
353 402
375 661
392 407
396 443
411 615
509 623
551 709
640 649
664 787
0 132
2 268
3 208
6 630
7 171
9 161
10 33
21 190
23 690
24 124
25 152
26 189
31 719
48 224
49 711
52 288
54 128
55 181
61 355
68 203
72 537
81 106
86 281
88 108
89 125
110 625
111 174
113 236
114 148
130 360
131 466
133 817
136 302
144 176
145 198
155 303
160 230
186 686
194 455
226 669
234 309
249 419
257 808
277 323
286 387
291 777
296 505
298 738
344 584
345 829
348 837
351 470
361 580
376 392
401 828
418 459
439 607
462 594
482 565
484 705
485 573
492 648
499 718
513 806
588 604
636 809
707 831
716 850
1 4
2 286
3 239
8 292
16 84
21 25
23 714
24 55
28 53
31 336
36 297
37 472
44 137
48 467
49 291
57 580
61 739
63 515
64 363
66 733
77 488
83 168
91 556
109 821
110 131
111 200
124 181
127 771
141 380
145 644
166 278
174 187
196 429
214 274
221 628
225 722
228 611
232 279
248 768
268 387
301 754
312 694
323 624
329 529
337 381
342 540
346 572
350 361
368 406
392 708
397 682
407 438
464 528
504 728
509 581
522 629
549 741
579 593
596 753
605 745
711 777
22 32
34 763
60 238
78 273
85 601
95 658
121 321
128 237
129 641
142 369
146 280
147 162
156 167
159 843
208 233
226 445
231 402
243 558
251 349
268 612
296 350
330 619
331 367
332 413
339 461
373 503
375 571
415 438
436 740
451 825
468 507
499 697
508 784
534 814
610 703
776 815
0 492
3 74
6 34
9 635
11 35
18 87
26 783
38 782
44 677
62 440
101 650
116 788
132 648
138 761
159 637
226 534
235 572
241 702
262 454
270 535
276 293
282 530
298 636
303 817
313 346
317 569
433 724
445 814
477 645
512 816
522 819
544 663
610 759
627 742
629 732
675 831
738 809
9 50
10 131
21 36
24 442
25 297
33 466
37 206
38 197
43 412
48 443
54 117
60 314
61 72
69 163
71 680
77 202
79 170
80 540
99 108
103 515
106 288
112 173
115 309
122 223
126 372
130 194
136 160
159 175
164 607
204 344
246 420
254 342
257 345
265 334
299 806
301 462
335 689
337 561
355 537
356 439
360 455
364 577
368 822
376 588
389 447
392 604
419 625
441 490
445 526
476 487
499 786
550 609
579 765
595 795
611 714
620 727
688 832
808 829
3 717
6 276
15 417
16 20
21 134
25 103
26 374
34 293
36 63
37 38
49 410
52 832
60 550
61 204
62 116
66 107
69 79
70 169
72 344
74 583
81 688
86 150
89 704
97 816
121 142
126 389
128 161
139 145
154 744
159 746
163 170
172 512
185 343
195 229
205 287
219 571
238 475
251 415
256 639
260 608
262 748
265 851
275 285
296 330
297 515
301 320
305 797
314 609
321 369
332 427
349 438
350 619
351 525
364 579
365 431
372 447
373 508
379 652
385 483
391 676
398 720
425 631
426 585
435 506
440 788
444 646
502 709
503 784
524 791
530 661
531 568
535 841
537 584
555 708
561 806
563 632
577 765
671 721
723 766
731 751
752 818
804 822
2 7
6 741
9 611
36 840
38 469
50 714
58 209
62 580
85 562
98 361
117 771
122 335
144 733
155 363
159 463
175 292
223 689
231 384
260 480
264 470
283 569
338 617
342 778
377 699
444 811
478 495
494 553
499 534
524 549
546 821
606 812
646 770
697 814
723 820
0 26
1 28
2 378
4 53
7 158
8 225
10 595
22 566
31 357
32 483
49 539
60 468
61 126
65 408
66 91
72 372
82 288
101 125
118 414
121 251
131 795
132 189
142 415
160 518
162 385
167 846
204 389
238 507
243 665
292 722
296 451
300 416
310 656
321 349
330 339
332 586
344 447
345 420
350 825
354 519
368 589
369 438
432 604
434 479
473 572
485 659
492 783
496 817
544 836
546 684
591 685
620 810
636 702
643 815
707 759
740 763
0 564
3 24
6 135
9 818
26 490
37 578
54 752
70 729
73 150
99 602
101 422
112 784
113 700
132 542
138 676
146 809
226 253
248 501
252 536
256 311
262 516
270 527
275 763
283 819
284 697
296 707
300 368
317 341
353 441
382 391
383 740
392 747
401 499
411 573
416 589
450 757
451 759
478 780
505 831
512 744
613 720
617 677
2 58
3 186
5 823
7 209
8 605
12 65
13 14
17 76
21 182
24 145
31 32
42 285
44 359
47 295
55 644
64 167
66 140
71 816
77 456
80 274
91 97
111 139
119 569
122 247
124 198
159 316
199 267
208 686
226 751
253 632
266 563
278 580
292 745
310 424
352 471
357 483
373 379
508 652
520 839
582 692
640 753
645 650
655 731
661 788
707 742
3 138
6 235
9 704
21 402
22 449
24 676
32 343
34 572
38 374
49 68
54 89
60 78
72 131
74 761
79 103
91 158
111 391
119 384
120 832
126 595
140 209
144 286
154 438
156 562
160 194
162 185
163 297
167 285
170 515
174 225
176 387
184 461
187 722
212 672
213 406
228 510
230 455
238 273
255 292
256 685
261 415
266 728
289 315
301 356
302 360
304 349
312 339
332 404
333 488
337 598
341 770
372 795
435 487
436 473
437 762
452 591
478 794
484 523
485 525
502 712
522 646
551 593
594 607
681 699
736 792
764 806
2 342
3 212
6 334
7 778
9 38
10 43
14 453
15 41
16 430
21 96
25 75
29 325
50 197
58 211
61 663
62 108
70 99
81 100
101 132
105 790
117 206
118 615
121 314
125 189
131 412
138 672
142 609
157 203
168 220
175 223
180 543
191 216
195 671
213 496
229 721
241 538
246 836
257 544
262 265
283 711
286 540
292 689
298 769
317 411
339 448
341 573
350 658
368 501
373 486
379 396
406 431
415 574
422 542
428 526
435 537
450 498
459 719
502 594
506 584
552 565
635 782
748 851
0 291
8 34
21 126
31 133
36 372
44 659
57 97
63 447
73 708
77 810
86 207
104 555
132 777
134 389
179 324
191 739
202 514
232 735
233 846
250 576
268 566
278 556
338 539
358 588
368 635
369 644
390 472
402 595
422 732
434 460
501 782
524 664
558 724
623 653
626 662
642 839
719 817
723 776
738 807
2 491
9 638
22 23
27 28
37 141
38 67
49 348
60 549
62 222
85 792
99 233
101 118
125 414
129 313
132 615
144 160
175 202
176 230
214 393
217 642
221 736
241 703
247 359
254 614
274 285
291 327
298 758
316 456
323 407
352 767
365 840
387 455
509 524
653 787
711 837
724 763
2 698
3 613
6 565
21 419
24 720
25 33
26 203
31 501
36 625
37 711
52 309
54 283
55 293
69 355
81 115
86 224
88 211
89 157
92 583
111 398
112 608
130 510
133 782
136 228
141 837
143 725
154 198
163 537
170 584
172 686
175 592
191 272
193 542
226 550
230 690
239 562
241 323
246 392
263 573
279 470
286 449
297 466
305 630
308 617
321 605
328 662
333 341
336 431
345 432
350 424
362 506
363 469
365 648
381 699
420 604
445 475
452 826
472 777
488 770
502 831
554 742
559 579
752 819
789 809
803 848
2 175
3 6
7 292
9 629
10 467
11 165
15 84
21 86
24 135
31 193
35 39
42 137
49 396
52 297
61 563
64 263
66 255
71 181
91 187
95 314
105 200
106 152
107 201
109 183
110 443
111 290
120 170
126 207
130 488
134 150
136 333
138 235
143 163
158 722
166 318
178 267
190 281
196 199
204 632
208 630
209 745
212 334
214 247
228 341
256 305
284 433
309 466
329 486
332 379
339 415
352 713
356 728
368 422
388 399
397 474
401 581
418 532
424 605
427 652
448 574
460 472
497 575
501 542
510 770
618 624
635 732
639 797
764 829
0 102
7 42
8 44
22 38
23 67
34 659
37 836
54 246
57 233
58 601
60 265
90 507
95 212
97 846
117 420
119 553
127 141
140 167
142 276
144 155
176 303
191 445
209 285
217 544
255 263
272 475
283 392
310 614
314 334
330 717
332 376
364 494
397 668
436 485
440 483
473 525
506 744
550 851
552 691
626 791
636 697
667 833
683 748
805 808
6 351
9 10
18 19
22 492
37 801
38 43
50 131
62 185
73 273
79 814
101 315
116 343
120 543
124 677
142 473
154 763
170 220
172 275
176 365
197 412
208 617
229 234
230 840
241 785
246 815
252 383
256 308
257 643
276 525
282 649
317 480
330 830
339 761
394 820
415 572
425 497
450 545
477 687
536 740
566 783
626 667
791 833
24 787
25 349
31 36
38 604
55 514
61 139
64 141
66 127
69 304
79 154
81 825
103 438
122 264
133 372
134 407
153 237
155 420
159 444
164 225
178 182
191 321
213 435
218 576
219 385
254 338
266 290
272 605
335 470
356 391
360 414
363 380
364 533
368 710
375 566
403 518
406 487
418 813
431 466
434 561
437 664
463 811
496 537
499 653
501 625
550 565
558 575
559 610
678 804
717 792
733 771
21 24
25 55
27 30
32 344
33 293
36 442
37 271
54 328
69 218
73 276
81 92
86 135
101 142
108 197
115 583
125 415
128 261
132 609
148 170
152 181
159 508
166 799
178 204
183 201
189 574
196 320
199 253
214 410
236 448
238 485
260 482
267 632
268 765
273 525
275 327
283 662
284 654
288 680
289 436
299 717
300 330
304 576
308 366
315 473
316 652
319 427
321 727
349 514
353 762
402 676
419 720
459 709
498 721
507 659
530 696
548 786
558 564
580 714
647 791
666 838
729 818
805 834
3 495
9 751
21 238
24 485
31 216
54 731
71 469
83 740
111 760
124 573
134 475
164 335
192 432
208 411
225 470
229 701
241 433
282 390
302 633
324 741
339 562
350 383
416 699
423 565
487 745
566 777
607 689
702 724
0 78
1 307
2 231
7 384
11 395
12 13
31 164
32 33
36 225
37 468
50 415
52 158
58 157
61 454
62 125
64 553
66 119
82 171
108 189
110 346
117 251
131 572
140 569
148 152
160 324
163 187
170 181
173 235
191 463
192 423
195 451
197 574
216 335
222 414
229 339
234 761
252 317
257 262
258 533
269 600
284 353
297 722
321 811
350 812
352 364
362 517
367 476
369 770
383 480
425 457
428 488
432 565
478 541
548 665
636 637
654 762
9 24
33 677
50 442
54 111
58 110
89 391
104 232
125 225
128 174
144 462
146 660
157 346
159 504
176 594
186 348
239 366
252 642
283 398
286 439
299 614
300 310
317 549
331 707
387 607
416 656
446 520
450 715
460 790
555 735
580 840
608 833
618 700
673 706
686 837
731 760
750 799
753 801
768 778
2 277
3 376
4 823
7 10
8 48
13 400
17 20
18 340
23 145
31 697
57 182
59 242
71 389
91 126
101 316
107 204
109 178
118 456
119 454
121 379
124 747
127 139
132 247
142 652
158 595
164 441
176 807
183 267
187 207
201 632
208 392
255 563
268 323
288 483
292 467
296 332
300 319
308 815
314 396
324 810
330 427
350 413
354 503
365 724
387 624
390 433
451 586
459 729
502 752
530 702
577 653
649 785
706 780
709 818
733 739
21 77
22 142
25 488
26 235
32 369
33 770
36 202
38 276
43 525
49 482
52 194
57 118
61 620
69 333
72 727
75 137
81 130
88 173
90 811
91 324
106 360
113 138
114 428
115 510
126 810
143 160
162 321
166 179
182 456
184 638
205 250
214 608
215 226
216 743
221 838
254 766
283 552
288 455
303 797
323 646
332 749
364 679
372 514
375 593
392 691
397 683
401 803
434 591
440 487
471 627
479 685
484 849
498 806
499 508
530 712
618 704
668 748
695 746
697 784
5 45
9 85
10 68
15 294
21 338
25 26
29 30
31 342
32 211
33 203
40 453
42 672
64 212
66 95
70 377
71 448
77 313
81 113
83 110
86 264
103 374
106 236
109 248
112 794
120 721
126 539
130 138
143 671
152 189
154 604
163 206
170 197
178 214
180 234
181 574
188 498
193 223
196 254
201 609
204 410
218 271
220 412
228 613
245 567
255 314
257 478
262 541
263 334
266 486
269 779
301 329
336 540
341 565
347 587
355 711
368 698
406 449
422 592
452 772
502 577
511 524
638 792
683 848
705 828
709 765
3 776
23 34
32 724
57 90
63 490
67 659
82 365
107 534
116 624
118 811
120 133
134 441
141 735
154 207
160 200
172 555
188 219
192 653
208 468
222 349
228 454
233 507
250 290
252 731
268 665
287 578
299 353
309 783
368 637
369 467
434 640
452 655
455 722
461 595
506 732
512 708
527 756
536 563
638 810
642 760
658 801
717 762
0 495
2 3
8 549
22 156
27 227
31 64
32 167
35 94
36 141
39 40
58 186
62 172
63 67
72 839
101 317
110 348
116 512
122 265
129 541
131 327
132 411
144 446
146 681
159 262
164 553
183 633
185 275
192 736
193 263
199 597
223 334
241 246
277 376
292 741
297 380
315 480
323 392
336 363
388 393
406 611
409 494
431 469
449 562
462 520
483 846
490 659
538 836
542 573
624 708
625 837
631 774
646 691
653 664
687 820
726 844
738 808
746 748
785 815
788 816
6 482
7 830
8 667
9 427
21 249
26 68
36 110
37 49
38 410
44 833
52 234
54 332
57 424
70 319
71 583
73 608
79 204
81 481
89 404
99 214
104 260
106 115
108 211
124 720
125 157
128 283
137 525
141 348
153 178
155 654
158 761
166 310
170 344
172 186
174 398
181 293
183 272
189 203
190 419
193 564
208 613
225 346
233 393
241 277
246 376
255 436
261 662
263 485
268 698
279 351
288 309
292 473
333 620
357 700
360 510
365 492
387 449
420 588
435 742
502 707
521 554
527 599
559 585
629 652
639 717
670 697
2 623
3 524
7 8
9 522
10 48
15 16
25 86
26 264
33 224
41 430
42 44
55 135
66 531
71 124
74 398
80 122
89 444
91 174
103 150
105 111
106 190
107 568
113 338
115 419
120 287
131 443
133 578
136 511
138 313
143 205
144 713
152 281
158 225
160 250
185 575
194 202
195 258
200 290
209 605
278 318
285 359
291 396
296 657
299 647
300 651
306 500
309 625
330 626
339 423
343 399
356 504
375 718
389 747
401 509
406 422
416 457
431 542
434 737
449 592
451 533
469 573
489 800
546 738
562 565
571 602
583 720
600 634
635 819
654 780
717 791
10 762
21 494
32 38
57 208
58 85
61 437
62 587
72 271
90 468
114 155
139 664
140 156
146 828
148 303
149 803
178 668
182 392
183 669
191 226
209 562
213 551
238 265
260 541
272 550
309 448
343 374
368 579
383 495
406 593
418 559
424 613
440 566
456 691
466 574
475 851
619 717
627 838
9 112
30 45
33 273
34 351
38 102
50 173
61 643
79 445
85 794
91 308
97 275
119 820
126 815
140 383
156 495
170 526
174 232
176 390
187 279
192 358
198 359
201 743
221 478
229 513
293 525
323 641
362 428
364 723
416 598
448 672
505 590
530 649
579 766
626 845
645 687
702 785
720 833
729 843
0 260
2 606
7 812
22 283
32 182
38 392
52 825
55 810
63 407
72 139
75 507
80 353
107 228
120 184
142 552
148 237
155 246
163 304
175 444
191 730
197 604
201 341
216 238
220 763
223 264
226 262
253 516
268 457
271 664
276 691
292 811
297 349
369 456
406 476
442 787
472 555
506 692
529 776
696 759
9 328
11 12
21 111
25 200
27 567
31 462
32 72
33 34
38 271
42 366
56 245
57 127
62 117
63 442
64 520
79 218
80 529
81 105
86 290
100 790
101 121
108 206
122 486
125 251
132 314
146 147
148 163
152 187
154 576
159 373
161 261
167 839
183 255
196 301
199 266
237 304
238 760
247 396
254 329
267 563
268 577
272 436
273 351
274 291
285 327
316 379
319 332
323 653
353 776
367 554
368 707
369 727
392 664
399 443
407 787
416 451
429 754
438 514
457 533
459 502
475 485
498 671
507 735
580 771
589 759
651 657
661 696
729 752
3 478
23 432
24 780
25 433
31 769
33 247
34 396
42 102
52 88
64 544
66 217
81 284
92 654
115 214
136 257
138 794
160 345
166 737
225 264
230 829
278 390
302 808
357 538
364 509
402 641
459 738
461 601
502 713
510 608
517 629
530 548
611 751
696 786
9 683
15 489
16 800
25 463
26 78
28 307
32 272
37 60
38 550
50 142
62 101
72 436
75 335
85 848
91 119
97 569
98 149
108 132
110 667
114 191
117 121
126 454
131 473
133 534
141 549
148 183
154 341
155 226
158 384
162 289
163 255
170 201
172 317
184 228
185 315
192 626
195 296
197 609
205 531
206 314
229 330
234 830
246 262
256 394
258 657
275 480
282 477
284 386
287 568
303 669
308 820
349 811
358 845
380 741
425 651
438 770
440 650
461 510
493 570
526 743
530 645
561 590
601 608
610 679
649 687
764 826
22 95
25 308
32 658
33 617
38 212
55 366
62 561
70 337
86 232
89 382
101 590
116 806
133 790
134 614
145 348
159 723
161 208
169 299
198 837
207 735
218 520
323 338
341 549
374 672
431 778
463 820
476 812
522 524
536 642
563 760
589 656
673 772
709 799
724 801
746 766
4 5
7 356
8 504
14 400
22 499
23 24
32 697
33 441
40 242
47 781
58 277
62 241
66 301
95 329
97 126
101 159
107 320
108 538
109 196
121 373
142 508
146 824
148 670
151 458
156 437
172 246
183 199
185 785
186 376
198 747
201 253
208 494
222 703
230 311
248 254
252 257
255 266
268 409
275 815
288 357
292 728
296 426
309 700
314 486
321 503
330 585
341 516
369 784
383 643
432 780
435 752
440 702
466 490
506 818
537 578
562 762
590 723
733 754
10 620
21 511
22 834
25 333
32 536
33 341
36 250
43 485
52 160
58 627
68 482
75 263
80 226
81 136
85 838
88 345
99 808
106 302
108 829
115 228
131 727
133 218
146 805
157 552
158 324
185 321
189 630
203 565
211 432
231 679
248 826
268 675
274 751
323 522
338 524
342 706
343 369
372 576
375 551
377 666
378 610
404 749
434 452
441 516
461 638
498 764
501 568
523 849
527 755
539 664
546 734
548 713
595 810
624 629
640 655
661 709
702 752
715 767
10 404
21 606
25 89
32 58
33 157
38 85
41 294
42 138
43 68
44 313
61 332
66 296
67 792
71 339
86 444
91 451
96 338
99 377
100 113
102 794
103 704
106 416
107 330
109 300
120 229
122 129
124 423
126 586
137 235
143 195
150 646
164 231
167 186
174 533
178 319
181 415
187 251
188 450
190 457
204 427
205 258
213 331
215 401
218 328
226 803
238 260
242 400
253 508
265 541
266 373
267 316
301 426
303 587
308 382
311 610
320 585
341 552
357 378
429 523
431 449
469 562
475 608
501 698
531 657
536 627
542 592
547 570
550 848
568 626
571 618
578 653
620 749
632 652
729 847
3 723
7 687
9 159
22 243
24 504
32 558
38 122
50 175
52 649
55 728
71 164
79 199
85 129
92 356
140 289
141 232
143 716
160 354
167 238
170 193
186 260
192 623
197 223
198 224
209 315
218 266
221 509
230 318
271 486
312 364
327 351
328 373
344 564
362 532
389 441
446 655
447 490
460 640
518 519
566 665
601 641
635 637
717 766
2 401
8 60
17 18
20 340
23 156
24 437
28 227
31 215
36 37
44 265
50 628
52 460
57 681
77 262
118 317
131 291
134 668
160 446
168 739
175 581
179 394
185 753
192 221
194 239
225 468
268 828
297 472
313 541
321 731
349 555
350 844
354 655
358 478
368 397
369 751
391 776
406 682
418 484
422 474
425 773
438 708
439 529
459 705
466 777
497 596
560 622
625 711
676 762
38 654
57 350
62 98
71 92
73 112
86 503
91 105
99 284
101 149
115 481
146 726
150 784
157 404
164 356
182 413
183 191
187 200
225 391
238 643
261 328
283 332
318 354
341 620
364 426
411 495
421 599
435 554
457 606
468 776
507 815
542 564
552 749
579 585
602 697
681 844
6 524
7 310
10 249
26 338
33 419
34 398
42 614
50 192
52 715
62 425
73 647
75 96
80 254
89 606
93 123
101 651
103 134
116 631
117 258
121 657
125 457
142 626
144 352
152 190
158 656
160 767
163 205
170 287
173 358
175 623
185 497
194 491
201 568
209 424
235 313
251 533
255 531
276 791
285 393
293 720
327 348
333 511
343 388
365 660
390 737
415 423
428 758
431 501
449 698
466 625
473 667
487 710
512 774
514 787
517 582
525 833
562 613
640 793
732 819
21 364
36 577
57 505
63 765
77 679
79 551
83 707
99 828
103 593
112 803
114 144
134 579
145 662
148 176
153 705
154 261
178 397
182 283
184 312
267 474
284 401
285 562
343 449
359 565
388 698
393 613
399 592
407 423
433 581
456 552
475 550
483 566
536 834
602 718
608 848
7 591
10 112
22 673
29 240
33 73
39 165
43 102
49 478
61 257
66 452
68 794
71 639
72 345
83 758
90 104
91 256
95 772
97 172
110 358
115 299
119 394
126 246
131 173
133 155
140 252
158 685
168 428
181 797
187 305
213 734
220 526
234 513
283 666
309 806
355 808
365 390
372 420
398 524
419 647
537 829
566 587
583 717
660 737
662 838
667 845
720 791
725 764
0 386
6 262
22 397
23 228
26 353
31 196
32 178
34 454
38 668
52 81
58 319
62 70
63 134
82 109
88 284
110 249
116 169
135 516
142 683
144 484
148 153
176 705
193 199
211 214
220 814
230 302
234 481
250 511
263 597
271 437
276 748
286 523
292 463
321 730
336 429
514 810
548 824
9 54
11 326
17 47
22 147
23 127
24 111
29 245
30 567
31 716
32 162
33 90
42 308
43 801
44 232
50 117
55 200
67 141
71 91
73 104
76 295
80 640
92 105
120 143
124 174
135 290
137 279
138 382
154 304
181 187
192 258
197 206
201 255
214 596
226 655
253 266
254 793
272 289
274 753
299 337
311 557
339 451
362 521
388 497
399 575
423 533
461 825
485 760
501 660
510 812
528 622
626 657
659 735
674 813
695 824
714 771
719 850
762 776
770 811
8 623
10 277
23 192
25 241
33 323
34 653
57 425
60 509
66 352
75 538
78 129
119 364
127 258
140 471
156 221
158 378
164 409
171 268
183 738
191 298
216 769
255 713
273 641
278 282
285 601
317 666
324 610
327 588
341 522
365 548
380 420
476 847
485 780
633 808
681 773
25 191
33 272
34 436
37 217
71 107
75 216
89 149
90 289
97 140
106 109
124 568
128 805
137 743
141 642
152 183
154 536
172 252
174 531
181 201
187 255
207 563
208 826
236 248
241 298
246 257
256 452
261 834
275 383
313 845
346 667
347 734
353 386
423 626
457 651
461 619
490 564
514 727
530 678
533 657
538 769
555 731
556 733
560 798
574 609
587 673
703 758
708 751
735 760
761 830
8 590
21 337
25 381
31 434
33 699
36 561
48 260
55 239
61 844
63 806
83 350
86 104
124 208
133 460
134 299
145 186
154 172
168 361
193 390
198 686
207 555
218 446
266 655
287 764
293 562
323 377
344 701
355 681
357 479
402 598
431 768
485 495
504 723
506 621
508 803
522 666
563 731
568 826
632 751
636 726
706 772
709 750
718 828
724 753
9 559
10 356
16 781
23 799
33 164
40 59
46 177
48 504
49 329
57 166
61 301
62 282
72 462
101 477
118 179
131 439
148 796
151 603
154 311
157 231
162 716
172 256
178 196
185 649
204 320
211 342
214 254
252 452
260 723
269 306
275 308
283 364
291 529
304 557
315 687
317 394
321 354
323 409
327 366
332 426
349 519
367 418
392 494
393 614
396 486
427 585
432 706
435 502
440 530
466 607
467 728
480 820
487 712
506 709
512 639
537 594
552 679
596 793
608 766
621 750
739 754
0 217
2 352
7 66
8 531
10 61
25 69
26 37
33 355
36 205
42 64
43 663
52 143
55 218
58 471
63 287
73 808
77 511
80 215
85 221
101 805
102 544
112 257
125 128
129 509
130 136
137 263
142 834
157 283
173 345
175 713
202 250
203 711
231 364
239 446
309 725
313 524
327 839
346 398
351 760
366 520
369 536
377 773
416 835
431 496
439 462
466 537
467 563
490 578
491 767
514 576
519 557
624 807
649 716
0 149
19 489
22 331
26 89
31 418
32 367
33 476
36 813
37 54
40 370
42 130
44 77
49 332
63 674
64 136
67 638
68 404
72 554
80 523
88 98
95 296
102 112
122 159
124 582
137 488
148 616
163 521
170 362
181 517
193 532
198 692
214 319
215 484
226 849
236 416
238 730
247 316
248 300
263 333
264 444
271 328
303 347
323 847
329 426
335 463
338 606
359 456
374 704
410 427
421 570
432 627
466 487
469 611
470 811
482 749
485 620
539 586
550 683
578 752
602 729
607 712
617 812
625 710
648 650
659 810
725 827
37 737
74 310
91 166
156 826
187 318
200 354
239 591
261 675
271 706
283 651
392 647
446 452
482 845
483 612
586 606
628 673
694 750
762 766
3 401
6 581
8 243
21 824
24 499
36 548
42 80
44 122
57 146
64 215
71 375
77 159
83 636
124 718
127 147
130 523
134 695
136 484
154 807
179 477
194 286
208 828
225 665
228 397
250 713
275 753
302 705
308 640
341 474
350 726
366 529
380 472
438 624
442 786
461 618
465 775
611 682
8 354
22 144
23 160
32 114
34 200
38 155
48 503
58 98
60 655
71 403
74 105
124 311
132 390
156 446
161 347
171 278
174 557
208 256
209 361
214 284
225 519
236 479
247 433
248 434
268 282
346 391
368 418
369 428
397 484
407 703
410 654
421 527
422 532
423 610
435 521
534 754
602 670
660 716
683 849
710 813
719 796
4 210
8 310
10 481
25 81
26 113
33 115
34 74
36 715
40 94
44 614
48 249
50 229
55 92
62 450
73 299
75 100
101 300
103 688
104 337
108 498
117 195
121 296
122 254
125 416
128 835
131 234
132 248
142 330
148 188
154 184
168 180
173 513
185 545
189 236
197 721
202 491
206 671
220 543
223 342
224 419
225 656
230 842
250 767
251 451
253 320
261 312
264 338
266 301
276 717
279 308
293 583
316 319
321 350
349 825
359 393
369 619
373 426
390 434
435 827
438 461
444 606
470 617
473 830
490 700
508 585
515 832
537 725
565 613
572 761
592 698
689 778
731 844
811 812
3 296
6 121
9 331
24 707
31 678
33 650
36 804
37 147
43 492
63 822
64 66
73 101
75 365
79 213
96 660
99 146
103 406
112 149
122 243
124 831
134 368
137 292
145 742
150 422
154 435
164 645
184 827
208 505
238 289
273 315
284 726
299 300
311 502
357 530
359 605
363 733
374 449
380 771
389 635
393 424
407 710
438 487
441 637
512 621
524 657
538 548
602 809
639 750
647 651
670 789
703 813
747 819
0 673
5 240
7 750
8 675
25 347
26 587
33 161
34 261
39 244
41 51
42 639
48 522
49 221
68 85
74 312
75 303
90 128
110 192
137 797
168 362
191 734
209 621
238 808
260 666
279 305
285 512
289 805
291 628
335 669
346 423
348 736
356 559
388 631
391 610
393 774
436 834
467 629
470 630
482 838
534 551
558 738
596 773
658 764
724 807
6 226
21 196
23 107
24 320
25 429
26 80
34 534
37 215
54 484
57 109
62 546
86 199
89 523
111 301
117 144
128 705
135 253
145 204
200 754
258 352
260 386
261 551
283 397
297 336
313 766
323 695
359 475
392 668
415 593
423 579
443 564
461 688
483 571
552 683
580 821
588 654
630 669
646 746
691 748
763 814
3 337
6 104
9 70
12 326
22 146
23 57
29 56
32 280
34 90
38 99
49 596
50 62
63 612
67 233
71 106
72 162
79 153
85 377
107 109
110 497
120 188
124 190
131 185
133 219
138 598
145 182
154 237
156 681
192 425
221 773
229 450
234 545
239 381
291 753
312 835
329 793
339 416
362 616
372 385
423 457
439 649
443 575
447 483
462 716
499 824
529 640
551 705
562 699
594 850
620 730
626 651
706 737
784 843
0 2
6 610
26 378
32 757
33 589
34 759
43 700
60 364
75 357
78 231
122 409
132 268
140 827
156 312
167 184
183 459
191 418
201 709
217 352
226 559
247 323
255 502
260 606
263 311
265 494
267 729
272 368
273 402
274 618
275 825
279 519
285 461
292 712
314 577
316 847
321 813
341 582
351 391
359 407
363 403
365 530
369 674
380 518
396 653
431 661
436 707
480 812
525 676
550 579
563 752
605 710
609 765
617 656
632 818
642 767
658 715
681 835
6 345
14 65
25 114
26 88
28 123
34 72
53 93
60 217
71 120
77 758
89 98
90 162
91 143
106 188
122 769
124 287
137 526
138 513
159 298
174 205
203 211
208 764
236 498
259 798
265 544
283 471
293 344
313 358
341 536
394 452
416 450
441 697
448 721
510 619
549 642
552 627
562 701
589 757
617 658
630 829
645 678
656 715
8 101
21 70
23 621
31 546
36 62
43 274
44 73
48 316
63 116
67 512
83 367
96 99
124 161
134 169
135 629
141 172
249 319
271 628
301 484
308 381
311 347
329 401
338 377
356 523
357 684
485 751
486 581
490 624
524 666
531 805
534 682
578 807
617 699
659 708
676 704
9 750
16 47
21 166
24 799
25 278
29 177
32 82
33 171
40 371
43 778
49 95
61 66
77 179
86 318
112 591
154 230
159 477
184 842
198 690
214 248
241 282
246 256
249 310
257 452
260 590
262 394
274 768
283 505
284 434
359 615
438 455
447 680
458 603
478 772
490 607
522 675
578 594
601 806
602 719
636 678
637 645
644 714
670 796
763 840
819 831
6 37
8 660
23 725
25 219
42 100
44 96
55 133
73 99
101 146
103 571
112 284
121 147
135 578
149 726
150 602
159 824
175 548
181 817
201 496
239 460
260 596
292 365
293 782
313 338
317 681
318 850
341 355
349 385
351 801
354 716
366 790
415 566
422 809
438 483
467 724
473 492
485 663
491 715
532 789
565 711
572 783
629 807
666 773
674 757
676 700
723 793
0 191
2 418
3 136
6 333
14 370
22 213
27 56
37 69
38 79
43 814
49 61
50 362
58 367
62 616
78 463
80 429
88 114
99 153
102 445
108 148
117 521
122 199
129 159
131 168
132 183
157 476
173 428
175 532
208 302
235 488
247 267
260 730
265 597
268 459
291 739
323 729
358 758
396 563
401 484
411 633
415 517
421 547
423 582
432 536
482 620
529 754
538 670
548 789
562 611
641 843
653 752
673 734
768 821
803 849
10 619
26 806
37 764
60 826
91 842
111 767
126 184
187 230
291 701
323 631
379 627
391 491
392 774
396 432
470 615
486 706
503 758
581 673
664 736
702 757
6 175
23 822
28 405
37 548
60 243
61 636
66 678
69 789
71 661
91 530
97 440
119 645
126 702
127 804
136 418
151 322
184 757
208 268
212 342
228 368
233 612
238 558
239 286
256 282
257 298
271 786
285 343
302 459
308 649
324 712
333 532
341 422
355 809
359 399
366 439
394 477
437 499
454 637
468 665
485 564
524 623
544 769
565 592
569 650
613 698
638 674
668 695
0 390
2 282
3 256
6 305
7 278
8 318
9 347
10 25
22 176
23 230
24 311
31 796
32 148
33 152
34 187
38 303
43 75
48 86
58 62
61 69
72 163
74 91
85 587
92 403
111 557
113 479
131 297
138 685
139 304
145 154
182 237
209 580
224 281
228 302
276 797
291 472
327 380
330 750
367 616
368 459
388 612
391 519
397 705
432 829
501 719
550 669
565 630
572 722
618 684
626 675
636 789
660 850
782 817
1 210
6 239
20 417
21 81
24 92
36 52
37 460
63 832
77 130
83 180
96 100
104 381
110 234
132 768
134 688
159 523
175 286
183 821
187 556
192 229
193 336
198 816
199 429
223 540
232 308
247 274
249 481
255 733
261 694
263 363
266 754
311 403
321 361
323 618
341 611
346 761
358 513
407 461
421 841
425 450
432 701
474 682
486 529
497 545
563 739
646 704
667 830
675 750
3 350
6 321
9 367
24 83
26 185
37 162
55 168
60 289
78 315
92 180
99 280
113 545
122 558
212 658
221 471
239 361
261 435
262 730
264 575
276 369
312 827
328 554
338 497
347 616
376 413
401 726
415 487
423 710
485 740
499 636
565 605
577 804
610 813
659 763
662 742
718 809
765 822
0 22
3 312
4 46
5 29
6 261
8 831
10 635
19 87
26 566
42 71
43 782
44 124
48 819
73 161
75 817
77 582
80 375
104 128
122 718
137 181
138 339
149 331
165 244
185 440
191 213
216 496
226 551
235 415
238 355
239 694
260 283
285 816
313 423
315 650
321 435
337 835
343 788
350 827
354 502
369 506
382 451
386 397
391 759
402 589
433 807
439 696
456 692
467 732
480 569
482 662
488 517
503 752
558 809
591 750
615 690
658 725
784 818
21 31
25 336
26 540
33 431
48 564
54 144
57 82
70 546
86 193
89 286
90 365
104 390
111 462
125 387
126 133
128 176
145 344
154 170
157 449
174 594
186 701
190 719
198 584
224 542
225 607
337 434
338 342
355 496
376 654
391 439
414 455
419 501
423 765
438 515
454 534
461 832
470 689
524 706
533 577
565 609
582 709
589 661
617 778
653 786
666 673
699 768
710 822
3 299
6 73
9 169
13 395
24 134
36 612
37 99
49 214
50 116
54 70
55 103
61 178
66 109
69 153
74 115
91 106
92 688
95 248
110 388
131 343
133 571
135 150
139 182
141 233
143 188
144 546
162 280
174 190
192 631
195 450
258 425
296 300
324 360
348 393
372 483
382 598
391 402
398 419
437 668
458 464
482 608
499 695
503 843
508 746
521 616
524 647
578 602
588 601
594 719
713 738
733 821
736 774
0 7
6 324
26 158
37 91
38 71
49 74
60 119
68 761
73 360
78 384
85 339
99 106
108 288
112 130
122 164
129 231
132 171
155 403
173 194
175 712
197 680
211 309
221 312
223 607
243 645
260 812
265 553
298 418
316 476
323 589
338 656
358 491
377 416
410 583
420 518
471 827
472 556
522 582
628 694
653 759
673 750
706 799
764 842
773 835
0 88
1 123
4 93
6 420
7 52
8 36
14 408
18 51
19 41
33 483
34 372
66 143
77 703
90 385
95 671
107 120
109 188
118 222
122 538
159 241
164 357
171 288
199 670
231 378
243 548
248 498
259 560
265 836
292 297
293 447
300 450
310 715
324 518
368 757
474 807
482 588
565 604
572 795
637 702
812 825
3 9
6 629
7 406
8 422
21 729
23 506
24 818
26 624
34 732
37 807
42 103
44 150
60 474
64 79
66 213
67 744
74 635
96 602
100 571
111 752
113 618
127 435
138 704
141 154
160 362
166 459
238 267
254 695
256 347
260 316
296 331
309 788
310 368
313 646
324 517
327 644
329 499
350 367
351 467
354 532
398 819
434 546
452 734
479 684
482 652
485 632
491 674
495 751
606 847
660 809
715 757
716 789
737 738
793 824
9 621
10 209
16 295
20 76
21 57
25 580
29 46
31 82
44 615
48 605
55 714
59 371
61 140
77 118
80 768
111 127
122 132
124 690
164 171
200 771
249 424
262 317
265 411
353 699
364 505
389 816
392 686
429 821
454 569
467 745
528 802
559 750
597 633
637 650
654 701
3 113
6 26
9 618
23 309
24 700
34 783
64 100
69 219
77 402
79 571
135 490
142 449
154 483
201 431
208 236
230 288
255 365
256 479
257 284
261 566
262 353
276 374
304 385
311 357
317 699
347 684
350 545
354 649
435 440
436 492
446 460
502 530
503 785
506 788
514 795
520 790
531 660
549 617
563 724
582 589
626 698
642 658
731 753
760 801
1 17
14 415
35 661
40 181
66 177
370 517
453 574
14 465
15 180
16 83
18 107
27 35
41 543
51 120
84 168
11 693
20 39
77 259
192 322
246 622
400 756
421 648
427 775
512 802
570 650
758 798
5 428
27 62
28 222
29 362
30 50
41 93
45 173
49 65
56 616
122 165
245 521
14 28
65 123
84 560
340 464
373 781
396 430
13 18
15 269
53 802
294 779
346 421
391 527
649 693
761 841
5 15
11 450
12 195
13 451
19 535
20 493
39 440
40 97
45 294
59 91
395 416
400 586
486 567
1 11
16 241
19 80
40 528
47 282
66 306
76 116
87 375
140 269
307 395
430 538
489 523
569 600
14 570
40 547
206 322
270 300
291 775
327 465
408 493
1 66
4 733
5 754
11 306
16 245
17 177
20 29
28 91
44 59
45 529
53 556
123 143
405 530
94 210
227 270
389 417
454 489
4 798
13 781
14 16
18 500
53 560
151 205
270 326
528 670
12 452
13 394
14 317
35 109
39 183
40 633
65 252
242 597
5 12
15 195
16 258
19 95
20 192
39 322
40 151
41 671
59 603
84 117
199 500
242 458
274 779
46 269
47 326
124 464
177 306
181 528
187 622
1 651
4 101
5 159
28 457
40 634
42 395
45 129
53 125
123 425
170 244
210 300
325 718
465 570
165 240
247 340
315 489
343 417
430 458
97 535
145 599
148 693
154 527
172 270
198 421
207 756
259 687
370 489
465 830
560 649
622 640
816 841
11 298
13 373
14 379
35 636
40 563
53 84
59 266
91 245
285 823
307 800
17 179
18 394
19 820
20 77
39 259
41 308
51 256
76 118
87 119
294 382
56 500
91 603
97 151
126 458
270 772
370 755
527 706
547 568
570 626
4 383
5 643
27 596
29 61
30 49
46 140
50 65
53 275
71 94
240 257
282 326
325 663
405 497
94 227
204 340
210 270
234 294
547 634
151 736
255 755
365 527
440 493
492 599
560 703
4 19
11 254
12 329
46 87
76 421
84 756
117 567
118 307
170 325
172 227
244 718
326 793
370 454
408 539
16 379
17 142
20 652
35 775
41 291
47 121
51 628
106 600
188 269
190 634
498 779
148 560
183 259
270 382
340 400
500 781
4 743
27 122
28 44
29 253
46 201
53 137
56 199
62 165
93 526
126 242
227 265
245 266
51 151
62 295
159 800
240 755
417 465
500 531
35 41
56 622
259 279
368 527
421 453
464 836
637 756
12 358
13 313
35 388
39 399
40 359
46 76
87 421
94 393
119 307
370 456
371 615
739 823
4 40
5 242
11 464
12 458
15 126
17 124
20 747
47 174
76 198
84 207
101 634
294 539
35 841
56 600
83 465
148 802
430 453
527 562
636 775
693 768
1 110
4 131
18 30
53 795
56 702
172 408
177 696
210 234
227 539
262 400
270 294
307 346
411 453
47 259
51 528
65 823
221 340
229 417
296 489
306 429
567 756
657 800
11 17
178 547
214 421
257 755
284 527
319 570
13 366
14 327
27 41
35 543
39 220
62 93
165 526
316 823
15 185
16 575
18 132
20 399
29 39
51 108
87 648
306 693
19 40
80 528
95 151
254 464
294 408
329 458
570 692
768 802
5 42
16 28
27 236
29 71
30 448
45 672
56 106
61 94
159 395
240 639
255 371
396 453
775 841
13 30
47 322
59 325
130 417
232 430
262 340
270 779
307 421
489 775
12 15
18 600
95 535
192 493
322 440
486 756
