# 1023 vertices, 5440 edges: a b (0-based vertex indices into g1023.json)
0 242
2 31
3 69
6 290
9 89
10 957
12 855
13 64
14 40
22 556
26 85
27 727
30 357
52 761
53 190
58 77
67 167
78 172
88 367
101 410
110 130
114 203
128 497
134 183
138 282
142 171
148 246
159 223
168 211
179 221
193 590
195 214
212 315
261 610
266 399
268 768
289 674
295 829
304 806
310 925
311 387
314 368
349 722
355 684
378 777
419 636
534 611
538 544
638 646
639 960
640 752
650 671
764 947
871 996
0 810
2 255
8 23
21 204
31 137
33 959
45 74
51 163
65 175
82 575
87 732
88 635
96 173
100 109
114 710
117 192
169 862
186 1005
258 371
291 687
300 313
306 420
320 649
322 824
345 921
367 524
374 831
445 514
470 568
516 696
521 739
533 873
570 1012
588 849
609 657
654 717
691 780
742 898
758 837
852 888
883 992
3 550
6 224
9 774
13 456
14 177
22 966
27 450
30 525
38 68
52 125
54 165
58 955
66 93
105 132
111 697
166 943
192 248
225 1003
238 429
273 812
274 442
284 881
298 493
301 375
311 819
385 445
415 759
435 453
439 494
443 782
459 702
572 712
619 818
640 915
734 744
762 916
0 149
2 295
3 231
6 719
7 191
9 181
10 33
21 210
23 791
24 141
25 171
26 209
31 829
48 225
51 250
52 820
56 318
58 145
59 201
66 387
72 389
75 226
81 602
91 119
96 309
98 123
99 142
125 714
127 194
129 263
130 167
147 395
148 520
150 960
153 333
161 196
163 220
174 335
180 256
206 787
215 507
252 767
261 341
276 467
284 947
304 355
314 428
321 902
326 567
328 856
376 657
377 975
380 990
383 526
397 653
416 435
444 973
466 512
490 691
515 671
538 638
543 814
544 646
551 743
559 828
576 945
663 687
726 948
816 980
826 1017
1 4
2 314
3 266
8 322
11 241
16 94
20 934
21 25
23 824
24 59
27 854
28 57
31 368
35 511
36 327
37 528
45 154
51 521
52 321
62 653
66 857
68 578
69 399
73 846
84 317
87 547
93 188
102 628
105 823
124 964
125 148
127 222
141 201
144 895
158 420
163 739
186 305
194 207
218 477
238 301
247 717
251 832
253 802
254 696
259 306
275 892
295 428
332 877
339 603
344 800
355 713
361 593
369 421
374 607
378 645
382 397
404 451
435 817
440 783
453 487
510 660
518 592
560 617
565 841
572 654
586 718
616 859
652 670
673 876
689 863
772 939
820 902
22 32
34 887
65 265
88 300
95 681
97 1021
106 755
138 353
145 264
146 735
159 405
164 308
166 182
175 187
179 1007
231 260
252 497
258 445
270 631
278 381
295 697
326 382
362 707
363 403
364 461
371 514
413 564
415 644
463 487
485 858
503 970
522 570
559 806
571 912
598 957
695 812
901 958
0 551
3 83
6 34
9 725
11 35
18 97
26 911
38 910
45 777
54 126
67 491
114 745
133 917
149 743
155 885
179 728
241 511
252 598
262 645
268 811
289 506
297 600
303 323
310 594
328 726
335 960
345 378
349 642
358 699
482 834
497 957
533 740
575 959
586 962
611 761
695 882
716 860
718 845
775 980
799 836
856 948
905 1004
9 53
10 148
21 36
24 493
25 327
33 520
37 229
38 219
43 460
51 494
58 134
65 346
66 81
77 183
80 780
87 224
89 190
90 607
111 123
116 578
119 318
128 193
131 341
139 249
143 412
147 215
153 180
179 195
184 691
227 376
273 468
281 374
284 377
292 366
329 945
332 515
367 790
369 634
387 602
388 490
395 507
400 650
404 966
416 663
431 499
435 687
467 714
492 549
497 590
532 546
559 914
618 693
652 889
672 924
696 824
709 840
789 983
947 975
3 827
6 303
15 465
16 20
21 151
25 116
26 414
28 540
34 323
36 68
37 38
41 931
52 458
56 983
60 120
61 539
65 618
66 227
67 133
73 122
77 89
78 189
81 376
83 656
91 789
94 934
96 169
99 813
109 959
138 159
143 431
145 181
156 163
173 862
179 864
183 190
192 575
205 375
217 255
228 315
245 644
253 731
265 531
278 463
283 733
287 692
289 866
292 1018
302 313
326 362
327 578
332 352
337 926
346 693
353 405
364 475
381 487
382 707
383 589
400 652
401 480
412 499
413 571
419 747
425 542
426 438
434 776
441 830
446 569
473 720
474 658
484 568
491 917
496 741
563 818
564 912
588 920
594 759
595 641
600 998
602 657
606 1015
626 817
634 945
636 721
650 889
769 831
833 890
844 874
875 961
943 966
2 7
6 859
9 696
16 60
20 120
36 994
38 524
53 824
63 232
67 653
95 635
110 397
134 895
139 367
161 846
174 399
179 516
195 322
249 790
258 424
287 536
291 526
311 642
370 705
374 903
417 808
488 1020
496 950
534 555
554 623
559 598
588 616
613 964
690 953
741 894
806 957
833 963
0 26
1 28
2 418
4 57
7 178
8 251
10 672
17 1003
18 225
19 952
22 639
31 392
32 542
52 606
65 522
66 143
70 454
73 102
79 988
81 412
92 318
114 142
135 462
138 278
148 924
149 209
159 463
180 581
182 425
187 1012
227 431
265 570
270 763
296 683
322 832
326 503
330 464
342 753
353 381
362 371
364 659
376 499
377 468
382 970
386 582
404 664
405 487
458 1015
481 687
483 535
529 645
544 757
548 937
551 911
556 960
611 989
613 785
667 786
709 949
726 811
738 958
816 882
858 887
0 637
3 24
6 152
9 961
26 549
37 651
58 875
78 842
82 169
111 684
114 470
128 912
129 809
149 609
155 776
164 948
252 280
275 561
279 601
283 343
289 579
297 591
302 887
311 962
312 806
326 816
330 404
349 373
385 492
422 434
423 858
435 865
444 559
459 646
464 664
502 880
503 882
534 907
567 980
575 862
698 830
705 777
2 63
3 206
5 967
7 232
8 689
11 316
12 70
13 14
17 86
21 202
24 163
31 32
42 313
45 394
50 325
59 739
69 187
73 157
80 959
87 508
90 301
102 109
107 407
127 156
136 642
139 274
141 220
179 348
221 294
231 787
252 874
280 721
293 636
305 653
322 863
342 472
384 527
392 542
413 419
438 839
571 747
584 992
655 793
734 876
740 745
751 844
759 917
816 860
928 978
3 155
6 262
9 813
21 445
22 501
24 776
32 375
34 645
38 414
52 75
58 99
65 88
81 148
83 885
89 116
102 178
127 434
136 424
137 983
143 672
157 232
161 314
173 487
175 635
180 215
182 205
183 327
187 313
190 578
194 251
196 428
204 514
207 832
235 770
236 451
254 573
256 507
265 300
282 322
283 786
288 463
293 841
319 347
332 388
333 395
336 381
344 371
364 449
365 547
369 675
373 894
412 924
484 546
485 529
486 886
504 667
534 923
543 587
544 589
563 821
586 741
619 670
671 691
781 808
849 921
868 956
888 945
2 374
3 235
6 366
7 903
9 38
10 43
13 798
14 505
15 41
16 479
21 108
25 85
29 357
53 219
61 727
63 234
66 761
67 123
78 111
91 113
94 257
101 1011
114 149
118 919
134 229
135 702
138 346
142 209
148 460
155 770
159 693
162 489
176 226
188 246
195 249
200 610
211 242
217 769
236 556
255 831
268 605
272 752
273 989
284 611
289 292
311 820
314 607
322 790
328 893
349 459
371 500
373 646
382 755
396 410
404 561
413 545
419 439
451 480
452 495
463 647
465 931
470 609
476 590
484 602
502 558
512 829
563 671
568 657
583 640
622 638
678 1000
725 910
866 1018
937 952
0 321
8 34
21 143
31 150
36 412
44 126
45 757
62 109
68 499
71 452
82 817
87 949
96 230
117 626
149 902
151 431
199 356
211 857
224 577
259 848
260 1012
277 649
295 639
305 628
370 606
393 663
404 725
405 739
433 528
445 672
470 845
483 513
561 910
588 762
631 834
712 748
715 760
736 992
829 960
833 901
856 946
2 550
9 732
18 835
19 906
22 23
27 28
30 749
35 132
37 158
38 74
52 380
65 616
67 248
95 921
106 1010
111 260
114 135
142 462
146 345
149 702
161 180
162 177
195 224
196 256
238 436
243 736
247 849
268 812
274 394
281 701
301 313
321 359
328 881
348 508
355 453
384 891
401 994
428 507
447 986
572 588
617 996
748 916
820 990
834 887
904 978
2 807
3 698
6 638
21 467
24 830
25 33
26 226
31 561
36 714
37 820
48 870
56 341
58 311
59 323
77 387
91 131
94 1019
96 250
98 234
99 176
103 656
127 441
128 692
147 573
150 910
153 254
158 990
160 837
173 220
183 602
190 657
192 787
195 669
211 299
214 609
252 618
256 791
266 635
268 355
273 435
290 646
306 526
314 501
327 520
337 719
340 705
353 689
360 760
365 373
368 480
377 481
382 472
398 568
399 524
401 743
421 808
468 687
497 531
504 971
528 902
547 894
563 980
625 860
632 652
875 962
918 948
942 1014
2 195
3 6
7 322
9 718
10 521
11 185
12 936
15 94
21 96
24 152
31 214
35 39
41 257
42 154
52 439
54 307
56 327
66 636
69 290
73 282
80 201
84 271
102 207
106 346
118 222
119 171
122 223
124 203
125 494
127 320
137 190
140 620
143 230
147 547
151 169
153 365
155 262
160 183
178 832
186 350
198 294
210 309
218 221
227 721
231 719
232 863
235 366
238 274
254 373
283 337
312 482
338 617
341 520
361 545
364 419
371 463
384 822
388 841
404 470
429 442
440 530
444 654
465 934
466 596
472 689
475 747
500 647
513 528
557 648
561 609
573 894
676 694
682 854
706 713
725 845
733 926
888 975
0 115
7 42
8 45
22 38
23 74
34 757
37 989
58 273
62 260
63 681
65 292
100 570
106 235
109 1012
134 468
136 623
144 158
157 187
159 303
161 174
196 335
211 497
232 313
243 611
282 290
299 531
311 435
342 701
346 366
362 827
364 416
400 554
440 766
485 544
491 542
529 589
568 862
618 1018
622 792
715 920
726 806
765 984
784 866
944 947
6 383
9 10
18 19
22 551
37 932
38 43
53 148
67 205
82 300
89 957
114 347
133 375
137 610
141 777
159 529
173 887
190 246
192 302
196 401
219 460
225 952
231 705
255 261
256 994
268 913
273 958
279 423
283 340
284 738
303 589
310 744
317 511
349 536
362 976
371 885
406 1004
437 963
455 699
463 645
473 557
502 612
533 788
560 869
601 858
639 911
715 765
799 933
835 906
853 935
920 984
18 851
19 47
24 916
25 381
31 36
38 687
59 577
66 156
69 158
73 144
77 336
89 173
91 970
116 487
139 291
150 412
151 453
172 264
174 468
179 496
184 251
198 202
211 353
236 484
244 649
245 425
281 370
293 320
299 689
367 526
388 434
395 462
399 420
400 597
404 819
415 639
448 581
451 546
466 955
480 520
483 634
486 762
516 950
556 602
559 748
561 714
618 638
631 648
632 695
778 943
827 921
846 895
15 452
21 24
25 59
27 30
28 749
32 376
33 323
36 493
37 298
41 495
58 360
77 244
82 303
91 103
96 152
114 159
123 219
131 656
142 463
145 288
149 693
167 190
171 201
179 571
186 929
198 227
203 223
209 647
218 352
221 280
238 458
253 977
263 500
265 544
287 538
294 721
295 889
300 589
302 359
311 760
312 750
318 780
319 485
329 827
330 362
336 649
340 402
347 529
348 747
351 475
353 840
381 577
385 886
445 776
450 525
455 553
467 830
488 941
512 818
558 831
570 757
594 805
615 914
631 637
653 824
742 920
764 991
842 961
944 985
3 555
9 874
16 1022
21 265
24 544
31 242
58 844
80 524
93 858
127 883
141 646
151 531
184 367
212 481
231 459
251 526
255 810
268 482
310 433
333 722
356 859
371 635
382 423
464 808
471 638
546 863
639 902
691 790
811 834
0 88
1 339
2 258
4 603
7 424
11 438
12 13
15 937
31 184
32 33
36 251
37 522
41 952
53 463
54 225
56 178
63 176
66 506
67 142
69 623
73 136
92 191
123 209
125 378
134 278
148 645
157 642
165 1003
167 171
170 334
180 356
183 207
190 201
193 262
211 516
212 471
217 503
219 647
242 367
248 462
255 371
261 885
279 349
284 289
285 597
296 678
312 385
316 839
327 832
338 1002
353 950
358 426
382 953
384 400
398 580
403 532
405 894
423 536
473 509
476 547
481 638
517 951
534 608
615 763
661 836
686 700
726 728
750 886
9 24
33 777
53 493
58 127
63 125
99 434
117 259
142 251
145 194
161 515
164 758
176 378
179 565
196 671
206 380
266 402
279 736
311 441
314 490
329 701
330 342
349 616
363 816
428 691
464 753
498 584
502 825
513 919
626 848
653 994
692 984
706 809
773 815
787 990
844 883
873 929
876 932
892 903
2 304
3 416
4 967
7 10
8 51
13 443
17 20
18 372
23 163
31 806
62 202
64 269
80 431
102 143
114 348
122 227
124 198
135 508
136 506
138 419
141 865
144 156
149 274
159 747
178 672
184 492
196 946
203 294
207 230
223 721
231 435
282 636
295 355
318 542
322 521
326 364
330 351
340 958
346 439
356 949
362 475
382 461
386 564
396 407
401 834
428 713
433 482
456 782
500 1015
503 659
512 842
563 875
594 811
650 748
744 913
815 907
818 961
846 857
933 956
21 87
22 159
25 547
26 262
32 405
33 894
36 224
38 303
43 589
52 538
56 215
62 135
66 709
77 365
81 840
85 154
91 147
98 193
100 950
102 356
119 395
129 155
130 476
131 573
143 949
160 180
182 353
186 199
202 508
204 732
228 277
238 692
240 252
242 861
247 991
281 890
311 622
318 507
335 926
355 741
364 867
400 779
412 577
415 670
435 792
440 784
444 942
483 667
491 546
527 716
535 786
543 1016
558 945
559 571
594 821
706 813
766 866
803 864
806 912
5 46
9 95
10 75
15 324
16 566
21 370
25 26
29 30
31 374
32 234
33 226
39 489
40 505
42 770
64 798
69 235
73 106
78 417
80 500
87 345
91 129
93 125
96 291
116 414
119 263
124 275
128 923
137 831
143 606
147 155
160 769
171 209
173 687
183 229
190 219
198 238
200 261
201 647
208 558
214 249
218 281
223 693
227 458
244 298
246 460
254 698
272 640
282 346
284 534
286 951
289 608
290 366
293 545
296 904
332 361
338 968
368 607
373 638
379 662
387 820
404 807
410 1011
431 1015
446 629
451 501
470 669
504 896
563 650
574 588
732 921
784 1014
814 973
818 889
3 901
23 34
32 834
62 100
68 549
74 757
86 1019
92 401
122 598
133 713
135 950
137 150
151 492
158 848
173 230
180 222
192 626
208 245
212 748
231 522
248 381
254 506
260 570
277 320
279 844
295 763
315 651
329 385
341 911
404 728
405 521
483 734
504 751
507 832
514 672
568 845
575 817
591 879
601 636
732 949
736 883
755 932
827 886
0 555
2 3
8 616
17 835
22 175
27 253
30 977
31 69
32 187
35 105
36 158
39 40
63 206
67 192
68 74
81 992
114 349
125 380
133 575
139 292
146 608
148 359
149 459
161 498
164 781
179 289
184 623
203 722
205 302
212 849
214 290
221 674
237 407
249 366
268 273
304 416
322 859
327 420
347 536
355 435
368 399
389 986
391 411
429 436
451 696
457 554
480 524
488 884
489 505
501 635
511 823
515 584
525 749
542 1012
549 757
569 1006
605 989
609 646
661 982
713 817
714 990
720 898
723 965
729 772
741 792
748 762
756 796
788 963
838 1008
856 947
864 866
913 958
917 959
6 538
7 976
8 765
9 475
21 276
26 75
36 125
37 52
38 458
45 984
56 261
58 364
62 472
78 351
80 656
82 692
89 227
91 537
99 449
111 238
117 287
119 131
123 234
141 830
142 176
145 311
154 589
158 380
172 198
174 750
178 885
186 342
190 376
192 206
194 441
201 323
203 299
209 226
210 467
214 637
225 870
231 698
251 378
260 436
268 304
273 416
282 485
288 760
290 544
295 807
306 383
318 341
322 529
365 709
392 809
395 573
401 551
428 501
468 663
484 860
563 816
585 625
591 677
632 658
711 868
718 747
733 827
768 806
2 712
3 588
7 8
9 586
10 51
15 16
25 96
26 291
33 250
35 562
41 479
42 45
59 152
73 595
80 141
83 441
90 139
99 496
102 194
104 620
105 239
116 169
118 127
119 210
122 641
129 370
131 467
137 315
148 494
150 651
153 574
155 345
160 228
161 822
171 309
178 251
180 277
205 648
215 224
216 325
217 285
222 320
232 689
305 350
313 394
321 439
324 566
326 754
329 742
330 746
338 560
341 714
362 715
371 471
375 442
388 565
391 624
415 828
431 865
444 572
451 470
464 509
480 609
483 852
501 669
503 597
524 646
548 930
604 703
613 856
635 638
644 684
656 830
678 724
725 962
750 907
827 920
933 951
10 886
15 48
21 554
32 38
62 231
63 95
66 486
67 662
81 298
100 522
130 174
156 762
157 175
164 973
167 335
168 942
198 766
202 435
203 767
211 252
232 635
236 619
265 292
287 608
299 618
325 851
341 500
375 414
404 652
423 555
451 670
466 632
472 698
491 639
508 792
520 647
531 1018
707 827
716 991
9 128
18 409
30 46
33 300
34 383
38 115
44 55
53 193
66 738
89 497
95 923
102 340
109 302
136 963
143 958
157 423
175 555
190 590
194 259
196 433
197 954
207 306
212 393
220 394
223 861
247 534
255 576
296 686
323 589
334 730
354 517
355 735
398 476
400 833
406 905
464 675
500 770
567 665
594 744
652 890
661 940
678 700
688 771
715 1009
740 788
811 913
830 984
836 933
842 1007
0 287
2 690
7 953
22 311
32 202
38 435
56 970
59 949
68 453
81 156
85 570
90 385
122 254
137 204
159 622
167 264
174 273
183 336
195 496
211 843
219 687
223 373
242 265
246 887
249 291
252 289
280 579
295 509
298 762
303 792
322 950
327 381
405 508
451 532
493 916
528 626
568 793
593 901
805 882
9 360
11 12
21 127
25 222
27 640
31 515
32 81
33 34
38 298
42 402
61 272
62 144
67 134
68 493
69 584
84 553
89 244
90 593
91 118
96 320
113 919
114 138
123 229
139 545
142 278
149 346
164 166
167 183
171 207
173 649
179 413
181 288
185 936
187 992
203 282
218 332
221 293
264 336
265 883
274 439
281 361
294 636
295 650
299 485
300 383
301 321
313 359
348 419
351 364
355 748
385 901
403 625
404 816
405 840
435 762
442 494
446 583
450 915
453 916
464 503
477 877
487 577
509 597
512 563
531 544
540 749
558 769
570 848
592 660
653 895
664 882
727 752
731 977
746 754
759 805
797 878
842 875
3 534
23 481
24 907
25 482
31 893
33 274
34 439
42 115
56 98
60 1022
69 611
73 243
91 312
103 750
131 238
153 284
155 923
180 377
186 852
251 291
256 975
305 433
333 947
392 605
400 572
445 735
512 856
514 681
563 822
573 692
580 718
594 615
696 874
805 914
9 784
15 548
16 930
25 516
26 88
28 339
32 299
37 65
38 618
53 159
57 603
67 114
81 485
85 367
95 1014
102 136
109 642
110 168
123 149
125 765
130 211
134 138
143 506
148 529
150 598
158 616
167 203
170 430
173 373
174 252
178 424
182 319
183 282
190 223
192 349
204 254
205 347
212 715
217 326
219 693
228 595
229 346
255 362
261 976
273 289
283 437
285 754
302 536
310 533
312 427
315 641
335 767
340 963
381 950
393 1009
420 859
473 746
487 894
491 745
514 573
552 643
590 861
594 740
634 665
676 965
681 692
695 779
744 788
888 971
22 106
23 1010
25 340
32 755
33 705
38 235
59 402
67 634
78 369
96 259
99 422
114 665
120 906
133 945
150 919
151 701
163 380
179 833
181 231
189 329
220 990
230 848
244 584
355 370
373 616
414 770
480 903
516 963
532 953
586 588
601 736
636 883
664 753
773 896
818 929
834 932
864 890
4 5
7 388
8 565
14 443
22 559
23 24
28 938
32 806
33 492
40 269
50 908
63 304
67 268
73 332
79 267
106 361
109 143
114 179
122 352
123 605
124 218
138 413
159 571
164 969
167 768
170 510
175 486
177 782
192 273
203 221
205 913
206 416
220 865
223 280
231 554
248 812
256 343
275 281
279 284
282 293
295 457
302 958
318 392
322 841
326 474
341 809
346 545
353 564
354 679
362 658
373 579
405 912
423 738
481 907
484 875
491 811
520 549
568 961
602 651
635 886
665 833
846 877
10 709
21 574
22 985
25 365
32 601
33 373
36 277
43 544
56 180
63 716
75 538
85 290
90 252
91 153
95 991
98 377
111 947
119 333
123 975
131 254
148 840
150 244
164 944
176 622
178 356
205 353
209 719
226 638
234 481
258 779
275 971
295 775
301 874
355 586
370 588
374 815
375 405
412 649
415 619
417 764
418 695
449 867
483 504
492 579
514 732
558 888
561 641
587 1016
591 878
606 762
613 847
615 822
672 949
713 718
734 751
759 818
811 875
825 891
5 905
10 449
21 690
25 99
27 629
29 406
32 63
33 176
35 391
38 95
39 162
41 324
42 155
43 75
45 345
61 446
66 364
73 326
74 921
80 371
96 496
102 503
105 411
108 370
111 417
113 129
115 923
116 813
119 464
122 362
124 330
137 255
139 146
141 471
143 659
154 262
160 217
169 741
184 258
185 804
187 206
194 597
198 351
201 463
207 278
208 502
210 509
227 475
228 285
236 363
240 444
244 360
252 942
265 287
269 443
272 583
280 571
292 608
293 413
294 348
332 474
335 662
340 422
343 695
352 658
373 622
392 418
477 587
479 566
480 501
510 621
524 635
531 692
539 569
561 807
562 624
595 754
601 716
609 669
614 643
617 909
618 1014
641 715
644 706
651 748
709 867
721 747
842 1013
3 833
7 788
9 179
22 270
24 565
32 631
38 139
53 195
56 744
59 841
80 184
89 221
95 146
103 388
157 319
158 259
160 826
180 386
187 265
190 214
206 287
212 712
219 249
220 250
232 347
244 293
247 572
256 350
298 545
344 400
359 383
360 413
376 637
398 596
431 492
498 751
499 549
513 734
581 582
639 763
681 735
725 728
827 890
1 331
2 444
8 65
17 18
20 372
23 175
24 486
28 253
31 240
35 390
36 37
45 292
53 717
56 513
57 802
62 781
71 121
87 289
135 349
140 884
148 321
151 766
180 498
188 857
195 654
199 437
205 876
212 247
215 266
251 522
295 973
327 528
345 608
353 844
381 626
382 1008
386 751
389 447
393 534
404 440
405 874
434 901
451 783
466 543
470 530
473 897
487 817
490 593
512 814
520 902
540 731
557 673
633 711
714 820
749 977
776 886
872 879
17 71
18 121
38 750
54 801
62 382
67 110
80 103
82 128
96 564
102 118
111 312
114 168
131 537
164 838
169 912
176 449
184 388
202 461
203 211
207 222
251 434
265 738
288 360
311 364
334 478
350 386
373 709
400 474
459 555
469 677
484 625
509 690
522 901
570 958
609 637
622 867
652 658
684 806
781 1008
6 588
7 342
10 276
15 599
26 370
33 467
34 441
39 562
40 239
42 701
49 213
53 212
56 825
67 473
82 742
85 108
90 281
99 690
104 140
114 746
116 151
133 720
134 285
138 754
142 509
159 715
161 384
162 624
171 210
178 753
180 891
183 228
190 315
193 393
195 712
205 557
215 550
223 641
232 472
237 703
257 479
262 345
278 597
282 595
296 668
303 920
313 436
323 830
359 380
365 574
375 429
401 758
433 852
463 471
465 523
476 881
480 561
501 807
520 714
529 765
546 819
575 898
577 916
580 655
589 984
635 698
711 974
734 922
845 962
21 400
36 650
62 567
68 889
87 779
89 619
93 816
111 973
116 670
128 942
130 161
151 652
163 760
167 196
172 814
173 288
198 440
202 311
204 344
294 530
312 444
313 635
375 501
394 638
429 807
436 698
442 669
453 471
482 654
508 622
531 618
542 639
601 985
684 828
692 1014
7 667
10 128
19 409
22 773
29 267
33 82
39 185
43 115
49 79
52 534
66 284
73 504
75 923
80 733
81 377
93 881
100 117
102 283
106 896
109 192
125 393
131 329
136 437
143 273
148 193
150 174
157 279
162 804
178 786
188 476
201 926
207 337
236 847
246 590
261 576
311 764
341 945
387 947
401 433
412 468
441 588
467 742
602 975
614 797
639 662
656 827
758 852
760 991
765 1009
830 920
837 888
0 427
6 289
22 440
23 254
26 385
31 218
32 198
34 506
38 766
56 91
63 351
67 78
68 151
92 124
98 312
125 276
133 189
152 579
159 784
161 543
167 172
196 814
214 221
234 238
246 957
256 333
261 537
277 574
290 674
298 486
303 866
314 587
322 516
353 843
368 477
577 949
615 969
9 58
11 358
17 50
22 166
23 144
24 127
29 272
30 640
31 826
32 182
33 100
35 699
42 340
43 932
45 259
53 134
59 222
74 158
80 102
82 117
84 455
86 325
90 734
103 118
137 160
141 194
152 320
154 306
155 422
173 336
201 207
212 285
219 229
223 282
238 673
252 751
280 293
281 922
299 319
301 876
329 369
343 630
357 752
371 503
398 585
406 583
429 557
442 648
471 597
514 970
518 974
519 935
523 599
525 915
544 883
561 758
573 953
592 711
680 853
715 754
757 848
774 955
803 969
824 895
829 1017
886 901
894 950
900 981
8 712
10 304
23 212
25 268
33 355
34 748
47 566
62 473
65 572
73 384
85 605
88 146
136 400
144 285
157 527
175 247
178 418
184 457
191 295
203 856
211 328
242 893
282 822
300 735
305 310
313 681
349 764
356 695
359 663
373 586
401 615
420 468
478 621
532 1013
544 907
722 947
781 897
15 999
25 211
33 299
34 485
37 243
48 121
54 666
76 233
80 122
85 242
99 168
100 319
109 157
119 124
141 641
145 944
154 861
158 736
171 203
173 601
192 279
194 595
201 223
207 282
230 636
231 971
253 331
263 275
268 328
273 284
283 504
288 985
302 423
334 430
345 1009
378 765
379 847
385 427
471 715
509 746
514 707
518 737
549 637
577 840
594 778
597 754
605 893
626 844
628 846
633 927
647 693
662 773
812 881
817 874
848 883
885 976
8 665
21 369
25 421
31 483
33 808
36 634
51 287
59 266
66 1008
68 945
93 382
96 117
141 231
150 513
151 329
163 206
173 192
188 397
214 433
220 787
230 626
244 498
293 751
315 888
323 635
355 417
376 810
387 781
392 535
445 675
480 892
544 555
565 833
568 710
571 942
586 764
636 844
641 971
721 874
726 838
815 896
818 873
828 973
834 876
4 954
9 632
10 388
16 908
23 929
33 184
40 64
49 197
51 565
52 361
62 186
66 332
67 310
81 515
114 533
135 199
148 490
167 925
170 685
173 343
176 258
177 456
182 826
192 283
198 218
205 744
216 541
227 352
234 374
238 281
279 504
287 833
296 338
302 340
311 400
321 593
336 630
347 788
349 437
353 386
355 457
359 402
364 474
381 582
403 466
408 771
435 554
436 701
439 545
475 658
481 815
484 563
491 594
505 798
520 691
521 841
536 963
546 821
552 688
568 818
575 733
602 671
622 779
673 922
678 1002
692 890
710 873
857 877
900 995
904 968
0 243
2 384
7 73
8 595
10 66
25 77
26 37
33 387
36 228
42 69
43 761
46 794
56 160
59 244
63 527
68 315
82 947
87 574
90 240
95 247
114 944
115 611
128 284
142 145
146 572
147 153
154 290
159 985
176 311
193 377
195 822
224 277
226 820
258 400
266 498
341 837
345 588
359 992
378 441
383 883
402 584
405 601
417 897
464 987
480 556
490 515
520 602
521 636
549 651
550 891
577 649
582 630
713 946
744 826
0 168
19 548
22 363
26 99
27 446
30 406
31 466
32 403
33 532
35 604
36 955
37 58
39 237
40 407
42 147
45 87
46 905
52 364
55 72
64 107
68 774
69 153
74 732
75 449
81 625
90 587
98 110
106 326
115 128
139 179
141 655
154 547
167 704
170 853
183 585
190 398
201 580
214 596
220 793
238 351
240 543
252 1016
263 464
265 843
274 348
275 330
290 365
291 496
298 360
335 379
355 1013
361 474
367 516
370 690
394 508
414 813
458 475
469 643
481 716
520 546
524 696
526 950
538 867
544 709
562 703
606 659
618 784
651 875
684 842
691 821
705 953
714 819
731 1006
743 745
757 949
837 972
15 72
37 852
41 55
83 342
102 186
175 971
207 350
222 386
266 667
288 775
298 815
311 746
435 742
498 504
538 1009
542 697
659 690
717 773
800 873
886 890
3 444
6 654
8 270
21 969
24 559
36 615
42 90
45 139
57 854
62 164
69 240
76 682
80 415
87 179
93 726
105 390
140 488
141 828
144 166
147 587
151 803
153 543
165 432
173 946
199 533
215 314
231 973
251 763
254 440
277 822
302 876
333 814
340 734
373 530
382 838
402 593
420 528
487 713
493 914
514 706
519 900
680 1001
696 783
871 909
928 968
935 981
8 386
22 161
23 180
32 130
34 222
38 174
51 564
63 110
65 751
80 448
83 118
141 343
149 433
175 498
181 379
191 305
194 630
231 283
232 397
238 312
251 582
263 535
274 482
275 483
295 310
378 434
404 466
405 476
440 543
453 812
458 750
469 591
470 596
471 695
484 585
598 877
684 768
758 826
784 1016
819 955
829 925
4 233
8 342
10 537
14 411
16 599
20 523
25 91
26 129
33 131
34 83
36 825
40 105
45 701
51 276
53 255
57 76
59 103
67 502
82 329
85 113
104 627
114 330
116 789
117 369
123 558
134 217
138 326
139 281
142 464
145 987
148 261
149 275
159 362
162 391
167 208
173 204
188 200
193 576
205 612
209 263
219 831
224 550
229 769
237 604
246 610
249 374
250 467
251 753
256 1005
277 891
278 503
280 352
286 899
288 344
291 370
293 332
303 827
306 340
323 656
348 351
353 382
381 970
394 436
405 707
413 474
433 483
484 972
487 514
496 690
526 705
529 976
549 809
571 658
578 983
602 837
638 698
645 885
669 807
790 903
844 1008
950 953
3 326
6 138
9 363
24 816
31 778
33 745
36 943
37 166
43 551
68 966
69 73
82 114
85 401
89 236
108 758
111 164
116 451
128 168
139 270
141 980
151 404
154 322
163 860
169 470
173 484
184 740
204 972
231 567
265 319
300 347
312 838
329 330
343 563
392 594
394 689
399 846
414 501
420 895
431 725
436 472
453 819
487 546
492 728
575 710
588 754
592 993
605 615
684 948
733 873
742 746
768 918
812 955
865 962
868 981
0 773
4 79
5 267
7 873
8 775
25 379
26 662
33 181
34 288
35 84
39 271
41 54
42 733
47 851
51 586
52 247
57 988
75 95
83 344
85 335
100 145
125 212
154 926
188 398
211 847
232 710
257 307
265 947
287 764
306 337
313 575
319 944
321 717
367 767
378 471
380 849
388 632
429 720
434 695
436 898
485 985
519 680
521 718
526 719
538 991
598 619
600 708
631 856
673 897
755 888
834 946
900 1001
6 252
21 218
23 122
24 352
25 477
26 90
34 598
37 240
58 543
62 124
67 613
96 221
99 587
127 332
134 161
145 814
152 280
163 227
222 877
285 384
287 427
288 619
311 440
327 368
345 890
355 803
394 531
435 766
463 670
471 652
494 637
514 789
542 644
622 784
653 964
663 750
719 767
741 864
792 866
887 957
3 369
6 117
9 78
12 358
13 426
17 389
18 447
22 164
23 62
29 61
32 308
34 100
38 111
52 673
53 67
68 697
71 72
74 260
80 119
81 182
89 172
95 417
122 124
125 557
137 208
141 210
148 205
150 245
155 675
163 202
173 264
175 781
212 473
247 897
255 502
261 612
266 421
321 876
344 987
357 727
361 922
371 464
398 704
406 446
412 425
471 509
490 744
494 648
499 542
510 974
515 826
559 969
593 734
619 814
635 808
660 711
671 1017
709 843
715 746
756 795
815 852
835 986
912 1007
0 2
6 695
26 418
32 880
33 664
34 882
43 809
65 400
85 392
88 258
139 457
149 295
157 972
175 344
187 204
203 512
211 466
223 818
243 384
252 632
274 355
282 563
287 690
290 343
292 554
294 842
299 404
300 445
301 706
302 970
306 582
313 514
322 821
346 650
348 1013
353 955
373 655
383 434
394 453
399 448
401 594
405 774
420 581
439 748
480 759
485 816
536 953
589 776
591 688
618 652
636 875
689 819
693 889
705 753
721 961
736 891
755 825
781 987
6 377
14 70
18 666
25 130
26 98
27 488
28 140
30 941
34 81
48 801
57 104
64 855
65 243
76 627
80 137
87 881
99 110
100 182
101 112
102 160
119 208
139 893
141 315
154 590
155 576
179 328
194 228
226 234
231 888
253 884
263 558
286 927
292 611
311 527
323 376
345 393
373 601
437 504
464 502
492 806
500 831
548 999
573 707
616 736
622 716
635 810
664 880
705 755
719 975
740 778
753 825
933 940
8 114
21 78
23 710
31 613
36 67
43 301
45 82
51 348
68 133
74 575
93 403
108 111
141 181
151 189
152 718
158 192
276 351
298 717
332 543
340 421
343 379
361 444
370 417
388 587
392 785
544 874
545 654
549 713
588 764
595 944
598 783
651 946
705 808
757 817
776 813
5 954
9 873
14 101
15 541
16 50
21 186
24 929
25 305
29 197
32 92
33 191
40 410
43 903
52 106
66 73
70 112
87 199
96 350
128 667
173 256
179 533
204 1005
220 791
238 275
268 310
273 283
276 342
284 504
287 665
289 437
301 892
311 567
312 483
380 1010
394 702
487 507
499 780
505 1011
510 685
534 896
549 691
586 775
651 671
676 928
681 945
684 829
726 778
728 740
739 824
768 925
887 994
962 980
4 1020
6 37
8 758
17 44
23 837
25 245
42 113
45 108
59 150
82 111
114 164
116 644
120 1021
128 312
138 166
152 651
168 838
169 684
179 969
195 615
201 960
223 556
266 513
287 673
322 401
323 910
345 370
349 781
350 1017
373 387
381 425
383 932
386 826
402 919
463 639
470 948
487 542
521 834
529 551
544 761
550 825
596 918
638 820
645 911
718 946
764 897
774 880
776 809
833 922
0 211
2 466
3 153
6 365
13 107
14 407
22 236
27 61
37 77
38 89
43 957
47 60
52 66
53 398
63 403
67 704
88 516
90 477
98 130
101 396
111 172
115 497
123 167
134 585
139 221
146 179
148 188
149 203
162 237
176 532
193 476
195 596
231 333
262 547
274 294
287 843
292 674
295 512
321 857
355 842
391 604
393 881
439 636
444 543
459 722
463 580
469 614
471 655
481 601
517 927
538 709
593 877
605 768
615 918
624 703
635 696
735 1007
748 875
773 847
892 964
942 1016
10 707
26 945
37 888
65 971
102 1005
127 891
143 204
207 256
321 810
355 720
419 716
434 550
435 898
439 481
526 702
545 815
564 881
654 773
762 849
811 880
6 195
14 162
23 966
28 450
37 615
54 432
65 270
66 726
73 778
77 918
80 759
102 594
109 491
136 740
143 811
144 943
153 466
170 354
204 880
231 295
235 374
239 562
254 404
260 697
265 631
266 314
283 310
284 328
298 914
313 375
333 512
340 744
356 821
365 596
373 470
387 948
394 442
402 490
437 533
486 559
506 728
510 679
522 763
544 637
588 712
611 893
638 669
642 745
698 807
730 951
732 774
766 803
802 854
0 433
2 310
3 283
6 337
7 305
8 350
9 379
10 25
22 196
23 256
24 343
31 925
32 167
33 171
34 207
38 335
43 85
51 96
63 67
66 77
81 183
83 102
95 662
103 448
127 630
129 535
148 327
155 786
156 336
163 173
202 264
232 653
250 309
254 333
303 926
321 528
359 420
362 873
403 704
404 512
429 697
434 582
440 814
481 975
561 829
618 767
638 719
645 832
706 785
715 775
726 918
758 1017
900 993
910 960
1 233
6 266
20 465
21 91
24 103
27 682
28 76
36 56
37 513
39 511
40 823
50 541
68 983
87 147
93 200
108 113
117 421
125 261
140 627
149 892
151 789
170 982
179 587
185 241
195 314
203 964
207 628
212 255
214 368
220 959
221 477
249 607
259 340
271 317
274 301
276 537
282 846
288 800
290 399
293 877
343 448
353 397
354 661
355 706
373 696
378 885
393 576
453 514
469 998
473 502
481 810
517 940
530 783
545 593
557 612
636 857
741 813
765 976
775 873
3 382
6 353
9 403
24 93
26 205
37 182
59 188
65 319
88 347
103 200
111 308
121 999
129 612
139 631
235 755
247 527
266 397
288 484
289 843
291 648
303 405
344 972
360 625
370 557
379 704
416 461
444 838
463 546
471 819
478 935
544 858
559 726
638 689
650 943
695 955
757 887
760 860
828 948
889 966
0 22
1 213
3 344
4 49
5 29
6 288
8 980
10 725
11 84
12 553
19 97
26 639
41 126
42 80
43 910
45 141
51 962
82 181
85 960
87 655
90 415
117 145
139 828
154 201
155 371
168 363
185 271
205 491
211 236
241 317
242 556
252 619
262 463
265 387
266 800
287 311
297 708
313 959
345 471
347 745
353 484
358 455
369 987
375 917
382 972
386 563
405 568
408 552
422 503
427 440
434 882
445 664
482 946
490 805
508 793
521 845
536 642
538 760
547 580
564 875
631 948
667 873
702 791
755 837
912 961
21 31
25 368
26 607
33 480
51 637
58 161
62 92
78 613
96 214
99 314
100 401
117 433
127 515
142 428
143 150
145 196
163 376
173 190
176 501
194 671
206 810
210 829
220 657
250 609
251 691
369 483
370 374
387 556
416 750
434 490
462 507
467 561
471 889
487 578
506 598
514 983
526 790
588 815
591 756
597 650
638 693
655 818
664 759
705 903
748 914
764 773
808 892
819 966
3 329
6 82
9 189
13 438
14 839
24 151
29 539
36 697
37 111
50 389
52 238
53 133
58 78
59 116
66 198
70 316
73 124
77 172
83 131
102 119
103 789
106 275
125 429
148 375
150 644
152 169
156 202
158 260
160 208
161 613
170 772
182 308
194 210
212 720
217 502
285 473
326 330
354 729
356 395
380 436
406 569
412 542
422 675
434 445
441 467
452 465
486 766
495 931
510 518
538 692
559 803
564 1007
571 864
585 704
588 742
651 684
663 681
671 829
822 856
846 964
849 898
0 7
6 356
26 178
37 102
38 80
52 83
65 136
75 885
82 395
88 424
95 371
111 119
123 318
128 147
139 184
146 258
149 191
174 448
193 215
195 821
219 780
234 341
247 344
249 691
270 740
287 953
292 623
328 466
348 532
355 664
370 753
393 550
417 464
458 656
468 581
527 972
528 628
586 655
717 800
748 882
773 873
815 929
888 1005
897 987
0 98
1 140
4 104
6 468
7 56
8 36
14 454
17 165
18 54
19 41
33 542
34 412
73 160
87 812
97 126
100 425
106 769
121 801
122 137
124 208
135 248
139 605
179 268
184 392
191 318
221 768
233 627
258 418
270 615
275 558
286 633
292 989
322 327
323 499
330 502
331 884
342 825
356 581
404 880
530 946
538 663
638 687
645 924
678 683
728 811
878 997
953 970
3 9
6 718
7 451
8 470
21 842
23 568
24 961
26 713
34 845
37 946
42 116
45 169
47 1019
65 530
69 89
73 236
74 862
83 725
108 684
113 644
127 875
129 706
144 484
155 813
158 173
180 398
186 512
265 294
281 803
283 379
287 348
326 363
341 917
342 404
345 741
356 580
359 739
361 559
382 403
383 521
386 596
441 962
483 613
504 847
535 785
538 747
544 721
550 774
555 874
690 1013
730 850
758 948
825 880
826 918
852 856
922 969
9 710
10 232
12 112
13 101
15 216
16 325
20 86
21 62
25 653
29 49
31 92
45 702
51 689
59 824
64 410
66 157
87 135
90 892
107 396
127 144
139 149
141 791
184 191
222 895
276 472
289 349
292 459
385 808
400 567
431 959
435 787
477 964
506 642
518 772
521 863
592 939
632 873
674 722
676 978
728 745
750 810
798 1011
3 129
6 26
9 706
23 341
24 809
34 911
69 113
77 245
87 445
89 644
152 549
159 501
173 542
223 480
231 263
256 318
282 401
283 535
284 312
288 639
289 385
303 414
336 425
343 392
349 808
379 785
382 612
386 744
484 491
485 551
498 513
563 594
564 913
568 917
577 924
584 919
595 758
616 705
636 834
655 664
715 807
736 755
844 876
883 932
1 17
14 463
28 1003
35 759
40 201
73 197
125 525
140 165
192 988
198 539
296 317
297 799
351 569
364 406
380 749
390 415
407 580
436 540
505 647
536 603
599 688
600 836
14 519
15 200
16 93
18 122
27 35
28 132
41 610
48 103
54 137
94 188
146 723
337 996
426 899
446 604
608 965
730 906
802 823
9 993
11 795
20 39
87 286
155 933
212 354
255 661
267 617
273 711
345 951
364 981
371 836
393 517
411 600
416 868
443 879
465 511
469 743
475 900
510 752
518 727
575 939
576 940
599 699
621 640
643 745
658 995
720 729
731 1000
782 872
792 850
881 927
5 476
13 871
18 79
27 67
28 248
29 398
30 53
41 104
46 193
52 70
61 704
64 996
90 241
106 112
136 396
139 185
146 804
225 988
238 316
272 585
479 620
510 997
545 936
869 927
0 55
14 28
22 44
53 165
70 140
94 633
114 389
162 450
349 986
364 599
372 518
406 688
413 908
439 479
443 938
463 1003
475 523
548 899
617 925
12 666
13 18
15 296
28 772
46 979
57 939
87 797
324 904
378 469
402 796
406 1001
426 447
434 591
450 729
490 756
503 708
599 668
744 795
885 998
952 1000
4 216
5 15
11 502
12 217
13 503
18 708
19 600
20 552
39 491
40 109
42 76
46 324
64 102
90 682
146 629
179 446
242 1020
413 583
438 464
443 659
545 640
592 683
611 884
796 982
866 1006
926 988
1 11
4 241
16 268
19 90
40 592
49 317
50 310
73 338
86 133
97 415
101 799
106 968
109 683
136 1002
138 909
157 296
239 518
282 617
339 438
354 432
380 676
423 686
479 605
536 700
548 587
600 682
642 678
14 643
15 604
16 703
40 614
46 723
54 84
94 237
123 729
170 213
229 354
297 330
321 900
324 391
340 899
359 519
454 552
479 562
528 993
566 624
593 995
611 737
717 1001
1 73
4 846
5 877
11 338
16 272
17 197
20 29
28 102
45 64
46 593
57 628
87 107
133 317
135 396
140 160
185 617
212 553
238 390
313 823
375 511
438 1002
450 594
479 752
525 805
557 699
566 640
723 995
804 909
978 982
21 72
24 71
41 940
64 954
66 999
102 541
105 233
109 216
126 661
210 389
225 799
253 297
292 409
357 756
431 465
443 905
479 517
506 548
727 795
4 927
13 908
14 16
18 560
19 869
30 679
57 633
155 771
170 228
253 974
297 358
371 688
411 599
430 595
469 562
592 768
600 699
643 703
645 872
796 855
12 504
13 437
14 349
20 797
27 447
28 986
35 124
39 203
40 722
46 409
52 331
53 79
70 279
269 674
490 954
495 796
511 964
624 746
749 835
4 112
5 12
15 217
16 285
19 106
20 212
29 553
39 354
40 170
41 769
42 928
60 144
61 455
64 685
90 968
94 134
198 668
221 560
269 510
301 904
313 978
407 853
409 896
443 621
511 661
547 871
678 708
823 982
850 851
872 915
906 1010
4 686
34 868
49 296
50 358
86 316
97 390
101 297
141 518
170 884
177 408
194 974
197 338
201 592
207 711
213 668
354 488
456 771
603 700
641 737
645 956
693 979
872 913
1 746
4 114
5 179
15 446
28 509
40 724
42 438
46 146
57 142
76 464
93 703
125 624
140 473
148 162
160 455
188 237
190 271
193 804
200 604
233 330
261 391
313 839
324 629
340 426
357 828
460 489
465 569
519 643
884 897
0 121
26 48
47 478
86 680
98 801
148 452
162 406
185 267
209 225
226 870
257 660
274 372
325 853
347 548
354 553
375 465
429 523
450 688
460 495
479 510
505 977
557 599
566 621
620 997
702 835
839 1006
20 723
29 995
54 968
57 933
104 940
109 600
163 677
167 795
173 591
190 756
192 297
220 469
230 879
286 788
407 548
519 976
633 744
711 734
959 998
11 328
13 413
14 419
35 726
40 636
57 94
64 293
101 138
102 272
155 905
233 999
235 794
313 967
339 930
371 406
503 583
600 981
799 909
823 857
831 941
835 878
885 1004
17 199
18 437
19 963
20 87
27 426
29 107
35 899
39 286
41 340
44 186
49 396
53 871
54 283
86 135
97 136
190 996
257 306
301 700
307 337
324 422
415 1002
458 965
489 951
505 730
679 908
756 954
772 986
831 928
61 560
76 928
94 936
102 685
109 170
143 510
198 737
205 517
296 666
297 896
301 979
407 878
511 756
591 815
614 641
643 715
682 968
4 423
5 738
18 331
27 673
29 66
30 52
49 157
53 70
54 884
57 302
79 279
80 105
84 668
133 316
141 239
225 253
241 686
267 284
310 358
357 761
371 411
432 488
450 557
594 699
854 876
934 967
23 851
80 225
105 253
120 850
124 447
125 566
190 307
227 372
233 297
246 257
261 324
391 629
511 854
614 724
656 870
668 897
858 1022
19 965
35 523
41 676
49 680
170 849
183 997
203 797
205 408
257 694
282 878
401 591
410 835
491 552
551 677
594 688
633 812
678 1006
744 771
772 898
4 19
11 281
12 361
49 97
57 952
86 469
94 879
134 640
135 339
167 727
177 378
183 752
190 357
192 253
216 600
237 728
271 828
279 331
296 390
317 415
358 922
377 794
407 506
454 606
575 731
812 938
939 1000
16 419
17 159
20 747
35 900
41 321
50 138
54 717
72 168
84 1001
119 678
132 519
208 296
210 724
310 909
558 904
699 981
701 965
771 905
11 771
17 456
20 782
39 872
79 871
84 688
86 177
124 899
149 951
157 935
167 633
175 478
203 286
247 621
297 422
301 956
316 408
354 915
372 443
459 730
518 938
560 908
678 937
892 933
900 1004
4 861
27 139
28 45
29 280
49 223
57 154
61 221
67 185
104 590
126 357
134 936
143 269
160 855
213 641
253 292
272 293
297 409
391 723
406 571
411 965
454 694
455 560
488 893
541 954
569 864
661 756
668 737
699 869
731 1018
853 878
904 979
15 935
18 430
25 60
26 47
42 906
48 478
54 170
67 325
84 213
116 120
179 930
225 334
267 878
465 519
482 1022
539 614
560 595
569 643
644 1021
662 851
713 1019
723 765
733 835
928 1010
20 694
29 660
35 41
39 257
61 711
122 796
271 307
286 306
339 730
404 591
469 505
518 989
523 676
539 592
668 884
678 802
728 879
12 393
13 345
15 408
35 429
39 442
40 394
49 86
80 540
84 720
97 469
105 436
136 339
183 620
296 316
407 508
410 702
455 473
660 694
678 839
857 967
1 239
4 40
5 269
11 518
12 510
15 143
17 141
20 865
50 194
55 108
86 220
94 230
101 334
112 170
114 724
121 486
193 694
241 592
324 606
358 974
576 676
771 938
892 1000
933 952
35 998
50 101
61 678
93 519
96 850
127 478
140 978
160 982
167 939
194 334
259 730
286 603
310 799
455 708
479 505
488 904
510 977
518 731
591 635
594 836
711 802
726 900
727 1000
744 933
795 892
893 979
913 956
918 993
1 125
4 148
17 525
18 30
50 915
57 924
61 811
87 782
114 162
135 177
149 489
192 454
197 805
199 456
233 261
253 606
286 872
289 443
297 324
330 391
339 378
389 450
459 505
548 1004
560 679
603 645
666 941
700 956
731 1015
23 120
50 286
53 934
54 592
70 967
84 539
101 603
213 614
229 257
247 372
255 465
297 700
324 956
326 548
338 477
503 937
640 879
754 930
831 931
837 1021
11 17
198 614
238 469
253 334
284 878
312 591
331 430
351 643
676 749
682 836
772 791
13 402
14 359
18 796
27 41
30 495
35 610
39 246
67 104
84 137
164 1020
185 590
339 906
348 967
406 452
471 749
502 627
533 954
560 855
572 794
678 823
708 982
12 517
13 951
15 205
16 648
18 149
20 442
29 39
30 489
54 123
84 729
97 743
107 286
332 869
338 795
658 723
12 997
19 40
46 694
88 850
90 592
106 170
275 772
281 518
324 454
326 853
361 510
362 680
391 552
517 620
593 660
643 793
682 683
771 812
799 988
892 939
922 974
954 996
5 42
12 928
15 76
16 28
20 540
27 263
29 80
30 500
46 770
61 119
66 105
70 978
93 132
179 438
267 733
282 410
346 1011
348 839
364 411
372 731
439 505
446 464
488 558
545 798
879 952
900 998
12 941
13 30
42 931
50 354
64 357
102 126
147 465
259 479
289 372
297 904
310 432
339 469
358 488
389 729
402 495
409 979
456 525
504 666
541 661
547 934
548 900
950 1019
12 15
13 937
18 678
46 956
54 683
106 600
112 216
212 552
354 491
393 408
409 700
430 642
545 879
621 659
679 811
794 868
796 823
798 952
