c growth H3 n=1023 -> 4-core 1023 vertices 5440 edges; triangle [8, 23, 34] fixed to colours 0,1,2
p cnf 4092 22786
1 2 3 4 0
5 6 7 8 0
9 10 11 12 0
13 14 15 16 0
17 18 19 20 0
21 22 23 24 0
25 26 27 28 0
29 30 31 32 0
33 34 35 36 0
37 38 39 40 0
41 42 43 44 0
45 46 47 48 0
49 50 51 52 0
53 54 55 56 0
57 58 59 60 0
61 62 63 64 0
65 66 67 68 0
69 70 71 72 0
73 74 75 76 0
77 78 79 80 0
81 82 83 84 0
85 86 87 88 0
89 90 91 92 0
93 94 95 96 0
97 98 99 100 0
101 102 103 104 0
105 106 107 108 0
109 110 111 112 0
113 114 115 116 0
117 118 119 120 0
121 122 123 124 0
125 126 127 128 0
129 130 131 132 0
133 134 135 136 0
137 138 139 140 0
141 142 143 144 0
145 146 147 148 0
149 150 151 152 0
153 154 155 156 0
157 158 159 160 0
161 162 163 164 0
165 166 167 168 0
169 170 171 172 0
173 174 175 176 0
177 178 179 180 0
181 182 183 184 0
185 186 187 188 0
189 190 191 192 0
193 194 195 196 0
197 198 199 200 0
201 202 203 204 0
205 206 207 208 0
209 210 211 212 0
213 214 215 216 0
217 218 219 220 0
221 222 223 224 0
225 226 227 228 0
229 230 231 232 0
233 234 235 236 0
237 238 239 240 0
241 242 243 244 0
245 246 247 248 0
249 250 251 252 0
253 254 255 256 0
257 258 259 260 0
261 262 263 264 0
265 266 267 268 0
269 270 271 272 0
273 274 275 276 0
277 278 279 280 0
281 282 283 284 0
285 286 287 288 0
289 290 291 292 0
293 294 295 296 0
297 298 299 300 0
301 302 303 304 0
305 306 307 308 0
309 310 311 312 0
313 314 315 316 0
317 318 319 320 0
321 322 323 324 0
325 326 327 328 0
329 330 331 332 0
333 334 335 336 0
337 338 339 340 0
341 342 343 344 0
345 346 347 348 0
349 350 351 352 0
353 354 355 356 0
357 358 359 360 0
361 362 363 364 0
365 366 367 368 0
369 370 371 372 0
373 374 375 376 0
377 378 379 380 0
381 382 383 384 0
385 386 387 388 0
389 390 391 392 0
393 394 395 396 0
397 398 399 400 0
401 402 403 404 0
405 406 407 408 0
409 410 411 412 0
413 414 415 416 0
417 418 419 420 0
421 422 423 424 0
425 426 427 428 0
429 430 431 432 0
433 434 435 436 0
437 438 439 440 0
441 442 443 444 0
445 446 447 448 0
449 450 451 452 0
453 454 455 456 0
457 458 459 460 0
461 462 463 464 0
465 466 467 468 0
469 470 471 472 0
473 474 475 476 0
477 478 479 480 0
481 482 483 484 0
485 486 487 488 0
489 490 491 492 0
493 494 495 496 0
497 498 499 500 0
501 502 503 504 0
505 506 507 508 0
509 510 511 512 0
513 514 515 516 0
517 518 519 520 0
521 522 523 524 0
525 526 527 528 0
529 530 531 532 0
533 534 535 536 0
537 538 539 540 0
541 542 543 544 0
545 546 547 548 0
549 550 551 552 0
553 554 555 556 0
557 558 559 560 0
561 562 563 564 0
565 566 567 568 0
569 570 571 572 0
573 574 575 576 0
577 578 579 580 0
581 582 583 584 0
585 586 587 588 0
589 590 591 592 0
593 594 595 596 0
597 598 599 600 0
601 602 603 604 0
605 606 607 608 0
609 610 611 612 0
613 614 615 616 0
617 618 619 620 0
621 622 623 624 0
625 626 627 628 0
629 630 631 632 0
633 634 635 636 0
637 638 639 640 0
641 642 643 644 0
645 646 647 648 0
649 650 651 652 0
653 654 655 656 0
657 658 659 660 0
661 662 663 664 0
665 666 667 668 0
669 670 671 672 0
673 674 675 676 0
677 678 679 680 0
681 682 683 684 0
685 686 687 688 0
689 690 691 692 0
693 694 695 696 0
697 698 699 700 0
701 702 703 704 0
705 706 707 708 0
709 710 711 712 0
713 714 715 716 0
717 718 719 720 0
721 722 723 724 0
725 726 727 728 0
729 730 731 732 0
733 734 735 736 0
737 738 739 740 0
741 742 743 744 0
745 746 747 748 0
749 750 751 752 0
753 754 755 756 0
757 758 759 760 0
761 762 763 764 0
765 766 767 768 0
769 770 771 772 0
773 774 775 776 0
777 778 779 780 0
781 782 783 784 0
785 786 787 788 0
789 790 791 792 0
793 794 795 796 0
797 798 799 800 0
801 802 803 804 0
805 806 807 808 0
809 810 811 812 0
813 814 815 816 0
817 818 819 820 0
821 822 823 824 0
825 826 827 828 0
829 830 831 832 0
833 834 835 836 0
837 838 839 840 0
841 842 843 844 0
845 846 847 848 0
849 850 851 852 0
853 854 855 856 0
857 858 859 860 0
861 862 863 864 0
865 866 867 868 0
869 870 871 872 0
873 874 875 876 0
877 878 879 880 0
881 882 883 884 0
885 886 887 888 0
889 890 891 892 0
893 894 895 896 0
897 898 899 900 0
901 902 903 904 0
905 906 907 908 0
909 910 911 912 0
913 914 915 916 0
917 918 919 920 0
921 922 923 924 0
925 926 927 928 0
929 930 931 932 0
933 934 935 936 0
937 938 939 940 0
941 942 943 944 0
945 946 947 948 0
949 950 951 952 0
953 954 955 956 0
957 958 959 960 0
961 962 963 964 0
965 966 967 968 0
969 970 971 972 0
973 974 975 976 0
977 978 979 980 0
981 982 983 984 0
985 986 987 988 0
989 990 991 992 0
993 994 995 996 0
997 998 999 1000 0
1001 1002 1003 1004 0
1005 1006 1007 1008 0
1009 1010 1011 1012 0
1013 1014 1015 1016 0
1017 1018 1019 1020 0
1021 1022 1023 1024 0
1025 1026 1027 1028 0
1029 1030 1031 1032 0
1033 1034 1035 1036 0
1037 1038 1039 1040 0
1041 1042 1043 1044 0
1045 1046 1047 1048 0
1049 1050 1051 1052 0
1053 1054 1055 1056 0
1057 1058 1059 1060 0
1061 1062 1063 1064 0
1065 1066 1067 1068 0
1069 1070 1071 1072 0
1073 1074 1075 1076 0
1077 1078 1079 1080 0
1081 1082 1083 1084 0
1085 1086 1087 1088 0
1089 1090 1091 1092 0
1093 1094 1095 1096 0
1097 1098 1099 1100 0
1101 1102 1103 1104 0
1105 1106 1107 1108 0
1109 1110 1111 1112 0
1113 1114 1115 1116 0
1117 1118 1119 1120 0
1121 1122 1123 1124 0
1125 1126 1127 1128 0
1129 1130 1131 1132 0
1133 1134 1135 1136 0
1137 1138 1139 1140 0
1141 1142 1143 1144 0
1145 1146 1147 1148 0
1149 1150 1151 1152 0
1153 1154 1155 1156 0
1157 1158 1159 1160 0
1161 1162 1163 1164 0
1165 1166 1167 1168 0
1169 1170 1171 1172 0
1173 1174 1175 1176 0
1177 1178 1179 1180 0
1181 1182 1183 1184 0
1185 1186 1187 1188 0
1189 1190 1191 1192 0
1193 1194 1195 1196 0
1197 1198 1199 1200 0
1201 1202 1203 1204 0
1205 1206 1207 1208 0
1209 1210 1211 1212 0
1213 1214 1215 1216 0
1217 1218 1219 1220 0
1221 1222 1223 1224 0
1225 1226 1227 1228 0
1229 1230 1231 1232 0
1233 1234 1235 1236 0
1237 1238 1239 1240 0
1241 1242 1243 1244 0
1245 1246 1247 1248 0
1249 1250 1251 1252 0
1253 1254 1255 1256 0
1257 1258 1259 1260 0
1261 1262 1263 1264 0
1265 1266 1267 1268 0
1269 1270 1271 1272 0
1273 1274 1275 1276 0
1277 1278 1279 1280 0
1281 1282 1283 1284 0
1285 1286 1287 1288 0
1289 1290 1291 1292 0
1293 1294 1295 1296 0
1297 1298 1299 1300 0
1301 1302 1303 1304 0
1305 1306 1307 1308 0
1309 1310 1311 1312 0
1313 1314 1315 1316 0
1317 1318 1319 1320 0
1321 1322 1323 1324 0
1325 1326 1327 1328 0
1329 1330 1331 1332 0
1333 1334 1335 1336 0
1337 1338 1339 1340 0
1341 1342 1343 1344 0
1345 1346 1347 1348 0
1349 1350 1351 1352 0
1353 1354 1355 1356 0
1357 1358 1359 1360 0
1361 1362 1363 1364 0
1365 1366 1367 1368 0
1369 1370 1371 1372 0
1373 1374 1375 1376 0
1377 1378 1379 1380 0
1381 1382 1383 1384 0
1385 1386 1387 1388 0
1389 1390 1391 1392 0
1393 1394 1395 1396 0
1397 1398 1399 1400 0
1401 1402 1403 1404 0
1405 1406 1407 1408 0
1409 1410 1411 1412 0
1413 1414 1415 1416 0
1417 1418 1419 1420 0
1421 1422 1423 1424 0
1425 1426 1427 1428 0
1429 1430 1431 1432 0
1433 1434 1435 1436 0
1437 1438 1439 1440 0
1441 1442 1443 1444 0
1445 1446 1447 1448 0
1449 1450 1451 1452 0
1453 1454 1455 1456 0
1457 1458 1459 1460 0
1461 1462 1463 1464 0
1465 1466 1467 1468 0
1469 1470 1471 1472 0
1473 1474 1475 1476 0
1477 1478 1479 1480 0
1481 1482 1483 1484 0
1485 1486 1487 1488 0
1489 1490 1491 1492 0
1493 1494 1495 1496 0
1497 1498 1499 1500 0
1501 1502 1503 1504 0
1505 1506 1507 1508 0
1509 1510 1511 1512 0
1513 1514 1515 1516 0
1517 1518 1519 1520 0
1521 1522 1523 1524 0
1525 1526 1527 1528 0
1529 1530 1531 1532 0
1533 1534 1535 1536 0
1537 1538 1539 1540 0
1541 1542 1543 1544 0
1545 1546 1547 1548 0
1549 1550 1551 1552 0
1553 1554 1555 1556 0
1557 1558 1559 1560 0
1561 1562 1563 1564 0
1565 1566 1567 1568 0
1569 1570 1571 1572 0
1573 1574 1575 1576 0
1577 1578 1579 1580 0
1581 1582 1583 1584 0
1585 1586 1587 1588 0
1589 1590 1591 1592 0
1593 1594 1595 1596 0
1597 1598 1599 1600 0
1601 1602 1603 1604 0
1605 1606 1607 1608 0
1609 1610 1611 1612 0
1613 1614 1615 1616 0
1617 1618 1619 1620 0
1621 1622 1623 1624 0
1625 1626 1627 1628 0
1629 1630 1631 1632 0
1633 1634 1635 1636 0
1637 1638 1639 1640 0
1641 1642 1643 1644 0
1645 1646 1647 1648 0
1649 1650 1651 1652 0
1653 1654 1655 1656 0
1657 1658 1659 1660 0
1661 1662 1663 1664 0
1665 1666 1667 1668 0
1669 1670 1671 1672 0
1673 1674 1675 1676 0
1677 1678 1679 1680 0
1681 1682 1683 1684 0
1685 1686 1687 1688 0
1689 1690 1691 1692 0
1693 1694 1695 1696 0
1697 1698 1699 1700 0
1701 1702 1703 1704 0
1705 1706 1707 1708 0
1709 1710 1711 1712 0
1713 1714 1715 1716 0
1717 1718 1719 1720 0
1721 1722 1723 1724 0
1725 1726 1727 1728 0
1729 1730 1731 1732 0
1733 1734 1735 1736 0
1737 1738 1739 1740 0
1741 1742 1743 1744 0
1745 1746 1747 1748 0
1749 1750 1751 1752 0
1753 1754 1755 1756 0
1757 1758 1759 1760 0
1761 1762 1763 1764 0
1765 1766 1767 1768 0
1769 1770 1771 1772 0
1773 1774 1775 1776 0
1777 1778 1779 1780 0
1781 1782 1783 1784 0
1785 1786 1787 1788 0
1789 1790 1791 1792 0
1793 1794 1795 1796 0
1797 1798 1799 1800 0
1801 1802 1803 1804 0
1805 1806 1807 1808 0
1809 1810 1811 1812 0
1813 1814 1815 1816 0
1817 1818 1819 1820 0
1821 1822 1823 1824 0
1825 1826 1827 1828 0
1829 1830 1831 1832 0
1833 1834 1835 1836 0
1837 1838 1839 1840 0
1841 1842 1843 1844 0
1845 1846 1847 1848 0
1849 1850 1851 1852 0
1853 1854 1855 1856 0
1857 1858 1859 1860 0
1861 1862 1863 1864 0
1865 1866 1867 1868 0
1869 1870 1871 1872 0
1873 1874 1875 1876 0
1877 1878 1879 1880 0
1881 1882 1883 1884 0
1885 1886 1887 1888 0
1889 1890 1891 1892 0
1893 1894 1895 1896 0
1897 1898 1899 1900 0
1901 1902 1903 1904 0
1905 1906 1907 1908 0
1909 1910 1911 1912 0
1913 1914 1915 1916 0
1917 1918 1919 1920 0
1921 1922 1923 1924 0
1925 1926 1927 1928 0
1929 1930 1931 1932 0
1933 1934 1935 1936 0
1937 1938 1939 1940 0
1941 1942 1943 1944 0
1945 1946 1947 1948 0
1949 1950 1951 1952 0
1953 1954 1955 1956 0
1957 1958 1959 1960 0
1961 1962 1963 1964 0
1965 1966 1967 1968 0
1969 1970 1971 1972 0
1973 1974 1975 1976 0
1977 1978 1979 1980 0
1981 1982 1983 1984 0
1985 1986 1987 1988 0
1989 1990 1991 1992 0
1993 1994 1995 1996 0
1997 1998 1999 2000 0
2001 2002 2003 2004 0
2005 2006 2007 2008 0
2009 2010 2011 2012 0
2013 2014 2015 2016 0
2017 2018 2019 2020 0
2021 2022 2023 2024 0
2025 2026 2027 2028 0
2029 2030 2031 2032 0
2033 2034 2035 2036 0
2037 2038 2039 2040 0
2041 2042 2043 2044 0
2045 2046 2047 2048 0
2049 2050 2051 2052 0
2053 2054 2055 2056 0
2057 2058 2059 2060 0
2061 2062 2063 2064 0
2065 2066 2067 2068 0
2069 2070 2071 2072 0
2073 2074 2075 2076 0
2077 2078 2079 2080 0
2081 2082 2083 2084 0
2085 2086 2087 2088 0
2089 2090 2091 2092 0
2093 2094 2095 2096 0
2097 2098 2099 2100 0
2101 2102 2103 2104 0
2105 2106 2107 2108 0
2109 2110 2111 2112 0
2113 2114 2115 2116 0
2117 2118 2119 2120 0
2121 2122 2123 2124 0
2125 2126 2127 2128 0
2129 2130 2131 2132 0
2133 2134 2135 2136 0
2137 2138 2139 2140 0
2141 2142 2143 2144 0
2145 2146 2147 2148 0
2149 2150 2151 2152 0
2153 2154 2155 2156 0
2157 2158 2159 2160 0
2161 2162 2163 2164 0
2165 2166 2167 2168 0
2169 2170 2171 2172 0
2173 2174 2175 2176 0
2177 2178 2179 2180 0
2181 2182 2183 2184 0
2185 2186 2187 2188 0
2189 2190 2191 2192 0
2193 2194 2195 2196 0
2197 2198 2199 2200 0
2201 2202 2203 2204 0
2205 2206 2207 2208 0
2209 2210 2211 2212 0
2213 2214 2215 2216 0
2217 2218 2219 2220 0
2221 2222 2223 2224 0
2225 2226 2227 2228 0
2229 2230 2231 2232 0
2233 2234 2235 2236 0
2237 2238 2239 2240 0
2241 2242 2243 2244 0
2245 2246 2247 2248 0
2249 2250 2251 2252 0
2253 2254 2255 2256 0
2257 2258 2259 2260 0
2261 2262 2263 2264 0
2265 2266 2267 2268 0
2269 2270 2271 2272 0
2273 2274 2275 2276 0
2277 2278 2279 2280 0
2281 2282 2283 2284 0
2285 2286 2287 2288 0
2289 2290 2291 2292 0
2293 2294 2295 2296 0
2297 2298 2299 2300 0
2301 2302 2303 2304 0
2305 2306 2307 2308 0
2309 2310 2311 2312 0
2313 2314 2315 2316 0
2317 2318 2319 2320 0
2321 2322 2323 2324 0
2325 2326 2327 2328 0
2329 2330 2331 2332 0
2333 2334 2335 2336 0
2337 2338 2339 2340 0
2341 2342 2343 2344 0
2345 2346 2347 2348 0
2349 2350 2351 2352 0
2353 2354 2355 2356 0
2357 2358 2359 2360 0
2361 2362 2363 2364 0
2365 2366 2367 2368 0
2369 2370 2371 2372 0
2373 2374 2375 2376 0
2377 2378 2379 2380 0
2381 2382 2383 2384 0
2385 2386 2387 2388 0
2389 2390 2391 2392 0
2393 2394 2395 2396 0
2397 2398 2399 2400 0
2401 2402 2403 2404 0
2405 2406 2407 2408 0
2409 2410 2411 2412 0
2413 2414 2415 2416 0
2417 2418 2419 2420 0
2421 2422 2423 2424 0
2425 2426 2427 2428 0
2429 2430 2431 2432 0
2433 2434 2435 2436 0
2437 2438 2439 2440 0
2441 2442 2443 2444 0
2445 2446 2447 2448 0
2449 2450 2451 2452 0
2453 2454 2455 2456 0
2457 2458 2459 2460 0
2461 2462 2463 2464 0
2465 2466 2467 2468 0
2469 2470 2471 2472 0
2473 2474 2475 2476 0
2477 2478 2479 2480 0
2481 2482 2483 2484 0
2485 2486 2487 2488 0
2489 2490 2491 2492 0
2493 2494 2495 2496 0
2497 2498 2499 2500 0
2501 2502 2503 2504 0
2505 2506 2507 2508 0
2509 2510 2511 2512 0
2513 2514 2515 2516 0
2517 2518 2519 2520 0
2521 2522 2523 2524 0
2525 2526 2527 2528 0
2529 2530 2531 2532 0
2533 2534 2535 2536 0
2537 2538 2539 2540 0
2541 2542 2543 2544 0
2545 2546 2547 2548 0
2549 2550 2551 2552 0
2553 2554 2555 2556 0
2557 2558 2559 2560 0
2561 2562 2563 2564 0
2565 2566 2567 2568 0
2569 2570 2571 2572 0
2573 2574 2575 2576 0
2577 2578 2579 2580 0
2581 2582 2583 2584 0
2585 2586 2587 2588 0
2589 2590 2591 2592 0
2593 2594 2595 2596 0
2597 2598 2599 2600 0
2601 2602 2603 2604 0
2605 2606 2607 2608 0
2609 2610 2611 2612 0
2613 2614 2615 2616 0
2617 2618 2619 2620 0
2621 2622 2623 2624 0
2625 2626 2627 2628 0
2629 2630 2631 2632 0
2633 2634 2635 2636 0
2637 2638 2639 2640 0
2641 2642 2643 2644 0
2645 2646 2647 2648 0
2649 2650 2651 2652 0
2653 2654 2655 2656 0
2657 2658 2659 2660 0
2661 2662 2663 2664 0
2665 2666 2667 2668 0
2669 2670 2671 2672 0
2673 2674 2675 2676 0
2677 2678 2679 2680 0
2681 2682 2683 2684 0
2685 2686 2687 2688 0
2689 2690 2691 2692 0
2693 2694 2695 2696 0
2697 2698 2699 2700 0
2701 2702 2703 2704 0
2705 2706 2707 2708 0
2709 2710 2711 2712 0
2713 2714 2715 2716 0
2717 2718 2719 2720 0
2721 2722 2723 2724 0
2725 2726 2727 2728 0
2729 2730 2731 2732 0
2733 2734 2735 2736 0
2737 2738 2739 2740 0
2741 2742 2743 2744 0
2745 2746 2747 2748 0
2749 2750 2751 2752 0
2753 2754 2755 2756 0
2757 2758 2759 2760 0
2761 2762 2763 2764 0
2765 2766 2767 2768 0
2769 2770 2771 2772 0
2773 2774 2775 2776 0
2777 2778 2779 2780 0
2781 2782 2783 2784 0
2785 2786 2787 2788 0
2789 2790 2791 2792 0
2793 2794 2795 2796 0
2797 2798 2799 2800 0
2801 2802 2803 2804 0
2805 2806 2807 2808 0
2809 2810 2811 2812 0
2813 2814 2815 2816 0
2817 2818 2819 2820 0
2821 2822 2823 2824 0
2825 2826 2827 2828 0
2829 2830 2831 2832 0
2833 2834 2835 2836 0
2837 2838 2839 2840 0
2841 2842 2843 2844 0
2845 2846 2847 2848 0
2849 2850 2851 2852 0
2853 2854 2855 2856 0
2857 2858 2859 2860 0
2861 2862 2863 2864 0
2865 2866 2867 2868 0
2869 2870 2871 2872 0
2873 2874 2875 2876 0
2877 2878 2879 2880 0
2881 2882 2883 2884 0
2885 2886 2887 2888 0
2889 2890 2891 2892 0
2893 2894 2895 2896 0
2897 2898 2899 2900 0
2901 2902 2903 2904 0
2905 2906 2907 2908 0
2909 2910 2911 2912 0
2913 2914 2915 2916 0
2917 2918 2919 2920 0
2921 2922 2923 2924 0
2925 2926 2927 2928 0
2929 2930 2931 2932 0
2933 2934 2935 2936 0
2937 2938 2939 2940 0
2941 2942 2943 2944 0
2945 2946 2947 2948 0
2949 2950 2951 2952 0
2953 2954 2955 2956 0
2957 2958 2959 2960 0
2961 2962 2963 2964 0
2965 2966 2967 2968 0
2969 2970 2971 2972 0
2973 2974 2975 2976 0
2977 2978 2979 2980 0
2981 2982 2983 2984 0
2985 2986 2987 2988 0
2989 2990 2991 2992 0
2993 2994 2995 2996 0
2997 2998 2999 3000 0
3001 3002 3003 3004 0
3005 3006 3007 3008 0
3009 3010 3011 3012 0
3013 3014 3015 3016 0
3017 3018 3019 3020 0
3021 3022 3023 3024 0
3025 3026 3027 3028 0
3029 3030 3031 3032 0
3033 3034 3035 3036 0
3037 3038 3039 3040 0
3041 3042 3043 3044 0
3045 3046 3047 3048 0
3049 3050 3051 3052 0
3053 3054 3055 3056 0
3057 3058 3059 3060 0
3061 3062 3063 3064 0
3065 3066 3067 3068 0
3069 3070 3071 3072 0
3073 3074 3075 3076 0
3077 3078 3079 3080 0
3081 3082 3083 3084 0
3085 3086 3087 3088 0
3089 3090 3091 3092 0
3093 3094 3095 3096 0
3097 3098 3099 3100 0
3101 3102 3103 3104 0
3105 3106 3107 3108 0
3109 3110 3111 3112 0
3113 3114 3115 3116 0
3117 3118 3119 3120 0
3121 3122 3123 3124 0
3125 3126 3127 3128 0
3129 3130 3131 3132 0
3133 3134 3135 3136 0
3137 3138 3139 3140 0
3141 3142 3143 3144 0
3145 3146 3147 3148 0
3149 3150 3151 3152 0
3153 3154 3155 3156 0
3157 3158 3159 3160 0
3161 3162 3163 3164 0
3165 3166 3167 3168 0
3169 3170 3171 3172 0
3173 3174 3175 3176 0
3177 3178 3179 3180 0
3181 3182 3183 3184 0
3185 3186 3187 3188 0
3189 3190 3191 3192 0
3193 3194 3195 3196 0
3197 3198 3199 3200 0
3201 3202 3203 3204 0
3205 3206 3207 3208 0
3209 3210 3211 3212 0
3213 3214 3215 3216 0
3217 3218 3219 3220 0
3221 3222 3223 3224 0
3225 3226 3227 3228 0
3229 3230 3231 3232 0
3233 3234 3235 3236 0
3237 3238 3239 3240 0
3241 3242 3243 3244 0
3245 3246 3247 3248 0
3249 3250 3251 3252 0
3253 3254 3255 3256 0
3257 3258 3259 3260 0
3261 3262 3263 3264 0
3265 3266 3267 3268 0
3269 3270 3271 3272 0
3273 3274 3275 3276 0
3277 3278 3279 3280 0
3281 3282 3283 3284 0
3285 3286 3287 3288 0
3289 3290 3291 3292 0
3293 3294 3295 3296 0
3297 3298 3299 3300 0
3301 3302 3303 3304 0
3305 3306 3307 3308 0
3309 3310 3311 3312 0
3313 3314 3315 3316 0
3317 3318 3319 3320 0
3321 3322 3323 3324 0
3325 3326 3327 3328 0
3329 3330 3331 3332 0
3333 3334 3335 3336 0
3337 3338 3339 3340 0
3341 3342 3343 3344 0
3345 3346 3347 3348 0
3349 3350 3351 3352 0
3353 3354 3355 3356 0
3357 3358 3359 3360 0
3361 3362 3363 3364 0
3365 3366 3367 3368 0
3369 3370 3371 3372 0
3373 3374 3375 3376 0
3377 3378 3379 3380 0
3381 3382 3383 3384 0
3385 3386 3387 3388 0
3389 3390 3391 3392 0
3393 3394 3395 3396 0
3397 3398 3399 3400 0
3401 3402 3403 3404 0
3405 3406 3407 3408 0
3409 3410 3411 3412 0
3413 3414 3415 3416 0
3417 3418 3419 3420 0
3421 3422 3423 3424 0
3425 3426 3427 3428 0
3429 3430 3431 3432 0
3433 3434 3435 3436 0
3437 3438 3439 3440 0
3441 3442 3443 3444 0
3445 3446 3447 3448 0
3449 3450 3451 3452 0
3453 3454 3455 3456 0
3457 3458 3459 3460 0
3461 3462 3463 3464 0
3465 3466 3467 3468 0
3469 3470 3471 3472 0
3473 3474 3475 3476 0
3477 3478 3479 3480 0
3481 3482 3483 3484 0
3485 3486 3487 3488 0
3489 3490 3491 3492 0
3493 3494 3495 3496 0
3497 3498 3499 3500 0
3501 3502 3503 3504 0
3505 3506 3507 3508 0
3509 3510 3511 3512 0
3513 3514 3515 3516 0
3517 3518 3519 3520 0
3521 3522 3523 3524 0
3525 3526 3527 3528 0
3529 3530 3531 3532 0
3533 3534 3535 3536 0
3537 3538 3539 3540 0
3541 3542 3543 3544 0
3545 3546 3547 3548 0
3549 3550 3551 3552 0
3553 3554 3555 3556 0
3557 3558 3559 3560 0
3561 3562 3563 3564 0
3565 3566 3567 3568 0
3569 3570 3571 3572 0
3573 3574 3575 3576 0
3577 3578 3579 3580 0
3581 3582 3583 3584 0
3585 3586 3587 3588 0
3589 3590 3591 3592 0
3593 3594 3595 3596 0
3597 3598 3599 3600 0
3601 3602 3603 3604 0
3605 3606 3607 3608 0
3609 3610 3611 3612 0
3613 3614 3615 3616 0
3617 3618 3619 3620 0
3621 3622 3623 3624 0
3625 3626 3627 3628 0
3629 3630 3631 3632 0
3633 3634 3635 3636 0
3637 3638 3639 3640 0
3641 3642 3643 3644 0
3645 3646 3647 3648 0
3649 3650 3651 3652 0
3653 3654 3655 3656 0
3657 3658 3659 3660 0
3661 3662 3663 3664 0
3665 3666 3667 3668 0
3669 3670 3671 3672 0
3673 3674 3675 3676 0
3677 3678 3679 3680 0
3681 3682 3683 3684 0
3685 3686 3687 3688 0
3689 3690 3691 3692 0
3693 3694 3695 3696 0
3697 3698 3699 3700 0
3701 3702 3703 3704 0
3705 3706 3707 3708 0
3709 3710 3711 3712 0
3713 3714 3715 3716 0
3717 3718 3719 3720 0
3721 3722 3723 3724 0
3725 3726 3727 3728 0
3729 3730 3731 3732 0
3733 3734 3735 3736 0
3737 3738 3739 3740 0
3741 3742 3743 3744 0
3745 3746 3747 3748 0
3749 3750 3751 3752 0
3753 3754 3755 3756 0
3757 3758 3759 3760 0
3761 3762 3763 3764 0
3765 3766 3767 3768 0
3769 3770 3771 3772 0
3773 3774 3775 3776 0
3777 3778 3779 3780 0
3781 3782 3783 3784 0
3785 3786 3787 3788 0
3789 3790 3791 3792 0
3793 3794 3795 3796 0
3797 3798 3799 3800 0
3801 3802 3803 3804 0
3805 3806 3807 3808 0
3809 3810 3811 3812 0
3813 3814 3815 3816 0
3817 3818 3819 3820 0
3821 3822 3823 3824 0
3825 3826 3827 3828 0
3829 3830 3831 3832 0
3833 3834 3835 3836 0
3837 3838 3839 3840 0
3841 3842 3843 3844 0
3845 3846 3847 3848 0
3849 3850 3851 3852 0
3853 3854 3855 3856 0
3857 3858 3859 3860 0
3861 3862 3863 3864 0
3865 3866 3867 3868 0
3869 3870 3871 3872 0
3873 3874 3875 3876 0
3877 3878 3879 3880 0
3881 3882 3883 3884 0
3885 3886 3887 3888 0
3889 3890 3891 3892 0
3893 3894 3895 3896 0
3897 3898 3899 3900 0
3901 3902 3903 3904 0
3905 3906 3907 3908 0
3909 3910 3911 3912 0
3913 3914 3915 3916 0
3917 3918 3919 3920 0
3921 3922 3923 3924 0
3925 3926 3927 3928 0
3929 3930 3931 3932 0
3933 3934 3935 3936 0
3937 3938 3939 3940 0
3941 3942 3943 3944 0
3945 3946 3947 3948 0
3949 3950 3951 3952 0
3953 3954 3955 3956 0
3957 3958 3959 3960 0
3961 3962 3963 3964 0
3965 3966 3967 3968 0
3969 3970 3971 3972 0
3973 3974 3975 3976 0
3977 3978 3979 3980 0
3981 3982 3983 3984 0
3985 3986 3987 3988 0
3989 3990 3991 3992 0
3993 3994 3995 3996 0
3997 3998 3999 4000 0
4001 4002 4003 4004 0
4005 4006 4007 4008 0
4009 4010 4011 4012 0
4013 4014 4015 4016 0
4017 4018 4019 4020 0
4021 4022 4023 4024 0
4025 4026 4027 4028 0
4029 4030 4031 4032 0
4033 4034 4035 4036 0
4037 4038 4039 4040 0
4041 4042 4043 4044 0
4045 4046 4047 4048 0
4049 4050 4051 4052 0
4053 4054 4055 4056 0
4057 4058 4059 4060 0
4061 4062 4063 4064 0
4065 4066 4067 4068 0
4069 4070 4071 4072 0
4073 4074 4075 4076 0
4077 4078 4079 4080 0
4081 4082 4083 4084 0
4085 4086 4087 4088 0
4089 4090 4091 4092 0
-1 -969 0
-2 -970 0
-3 -971 0
-4 -972 0
-9 -125 0
-10 -126 0
-11 -127 0
-12 -128 0
-13 -277 0
-14 -278 0
-15 -279 0
-16 -280 0
-25 -1161 0
-26 -1162 0
-27 -1163 0
-28 -1164 0
-37 -357 0
-38 -358 0
-39 -359 0
-40 -360 0
-41 -3829 0
-42 -3830 0
-43 -3831 0
-44 -3832 0
-49 -3421 0
-50 -3422 0
-51 -3423 0
-52 -3424 0
-53 -257 0
-54 -258 0
-55 -259 0
-56 -260 0
-57 -161 0
-58 -162 0
-59 -163 0
-60 -164 0
-89 -2225 0
-90 -2226 0
-91 -2227 0
-92 -2228 0
-105 -341 0
-106 -342 0
-107 -343 0
-108 -344 0
-109 -2909 0
-110 -2910 0
-111 -2911 0
-112 -2912 0
-121 -1429 0
-122 -1430 0
-123 -1431 0
-124 -1432 0
-209 -3045 0
-210 -3046 0
-211 -3047 0
-212 -3048 0
-213 -761 0
-214 -762 0
-215 -763 0
-216 -764 0
-233 -309 0
-234 -310 0
-235 -311 0
-236 -312 0
-269 -669 0
-270 -670 0
-271 -671 0
-272 -672 0
-313 -689 0
-314 -690 0
-315 -691 0
-316 -692 0
-353 -1469 0
-354 -1470 0
-355 -1471 0
-356 -1472 0
-405 -1641 0
-406 -1642 0
-407 -1643 0
-408 -1644 0
-441 -521 0
-442 -522 0
-443 -523 0
-444 -524 0
-457 -813 0
-458 -814 0
-459 -815 0
-460 -816 0
-513 -1989 0
-514 -1990 0
-515 -1991 0
-516 -1992 0
-537 -733 0
-538 -734 0
-539 -735 0
-540 -736 0
-553 -1129 0
-554 -1130 0
-555 -1131 0
-556 -1132 0
-569 -685 0
-570 -686 0
-571 -687 0
-572 -688 0
-593 -985 0
-594 -986 0
-595 -987 0
-596 -988 0
-637 -893 0
-638 -894 0
-639 -895 0
-640 -896 0
-673 -845 0
-674 -846 0
-675 -847 0
-676 -848 0
-717 -885 0
-718 -886 0
-719 -887 0
-720 -888 0
-773 -2361 0
-774 -2362 0
-775 -2363 0
-776 -2364 0
-781 -857 0
-782 -858 0
-783 -859 0
-784 -860 0
-849 -1261 0
-850 -1262 0
-851 -1263 0
-852 -1264 0
-1045 -2441 0
-1046 -2442 0
-1047 -2443 0
-1048 -2444 0
-1065 -1597 0
-1066 -1598 0
-1067 -1599 0
-1068 -1600 0
-1073 -3073 0
-1074 -3074 0
-1075 -3075 0
-1076 -3076 0
-1157 -2697 0
-1158 -2698 0
-1159 -2699 0
-1160 -2700 0
-1181 -3317 0
-1182 -3318 0
-1183 -3319 0
-1184 -3320 0
-1217 -3225 0
-1218 -3226 0
-1219 -3227 0
-1220 -3228 0
-1241 -3701 0
-1242 -3702 0
-1243 -3703 0
-1244 -3704 0
-1245 -1549 0
-1246 -1550 0
-1247 -1551 0
-1248 -1552 0
-1257 -1473 0
-1258 -1474 0
-1259 -1475 0
-1260 -1476 0
-1397 -2889 0
-1398 -2890 0
-1399 -2891 0
-1400 -2892 0
-1421 -2737 0
-1422 -2738 0
-1423 -2739 0
-1424 -2740 0
-1513 -3109 0
-1514 -3110 0
-1515 -3111 0
-1516 -3112 0
-1677 -2545 0
-1678 -2546 0
-1679 -2547 0
-1680 -2548 0
-2137 -2445 0
-2138 -2446 0
-2139 -2447 0
-2140 -2448 0
-2153 -2177 0
-2154 -2178 0
-2155 -2179 0
-2156 -2180 0
-2553 -2585 0
-2554 -2586 0
-2555 -2587 0
-2556 -2588 0
-2557 -3841 0
-2558 -3842 0
-2559 -3843 0
-2560 -3844 0
-2561 -3009 0
-2562 -3010 0
-2563 -3011 0
-2564 -3012 0
-2601 -2685 0
-2602 -2686 0
-2603 -2687 0
-2604 -2688 0
-3057 -3789 0
-3058 -3790 0
-3059 -3791 0
-3060 -3792 0
-3485 -3985 0
-3486 -3986 0
-3487 -3987 0
-3488 -3988 0
-1 -3241 0
-2 -3242 0
-3 -3243 0
-4 -3244 0
-9 -1021 0
-10 -1022 0
-11 -1023 0
-12 -1024 0
-33 -93 0
-34 -94 0
-35 -95 0
-36 -96 0
-85 -817 0
-86 -818 0
-87 -819 0
-88 -820 0
-125 -549 0
-126 -550 0
-127 -551 0
-128 -552 0
-133 -3837 0
-134 -3838 0
-135 -3839 0
-136 -3840 0
-181 -297 0
-182 -298 0
-183 -299 0
-184 -300 0
-205 -653 0
-206 -654 0
-207 -655 0
-208 -656 0
-261 -701 0
-262 -702 0
-263 -703 0
-264 -704 0
-329 -2301 0
-330 -2302 0
-331 -2303 0
-332 -2304 0
-349 -2929 0
-350 -2930 0
-351 -2931 0
-352 -2932 0
-353 -2541 0
-354 -2542 0
-355 -2543 0
-356 -2544 0
-385 -693 0
-386 -694 0
-387 -695 0
-388 -696 0
-401 -437 0
-402 -438 0
-403 -439 0
-404 -440 0
-457 -2841 0
-458 -2842 0
-459 -2843 0
-460 -2844 0
-469 -769 0
-470 -770 0
-471 -771 0
-472 -772 0
-677 -3449 0
-678 -3450 0
-679 -3451 0
-680 -3452 0
-745 -4021 0
-746 -4022 0
-747 -4023 0
-748 -4024 0
-1033 -1485 0
-1034 -1486 0
-1035 -1487 0
-1036 -1488 0
-1165 -2749 0
-1166 -2750 0
-1167 -2751 0
-1168 -2752 0
-1201 -1253 0
-1202 -1254 0
-1203 -1255 0
-1204 -1256 0
-1225 -1681 0
-1226 -1682 0
-1227 -1683 0
-1228 -1684 0
-1281 -2597 0
-1282 -2598 0
-1283 -2599 0
-1284 -2600 0
-1289 -3297 0
-1290 -3298 0
-1291 -3299 0
-1292 -3300 0
-1381 -3685 0
-1382 -3686 0
-1383 -3687 0
-1384 -3688 0
-1469 -2097 0
-1470 -2098 0
-1471 -2099 0
-1472 -2100 0
-1497 -3325 0
-1498 -3326 0
-1499 -3327 0
-1500 -3328 0
-1781 -2057 0
-1782 -2058 0
-1783 -2059 0
-1784 -2060 0
-1881 -2273 0
-1882 -2274 0
-1883 -2275 0
-1884 -2276 0
-2065 -2785 0
-2066 -2786 0
-2067 -2787 0
-2068 -2788 0
-2085 -2957 0
-2086 -2958 0
-2087 -2959 0
-2088 -2960 0
-2133 -3493 0
-2134 -3494 0
-2135 -3495 0
-2136 -3496 0
-2281 -4049 0
-2282 -4050 0
-2283 -4051 0
-2284 -4052 0
-2353 -3397 0
-2354 -3398 0
-2355 -3399 0
-2356 -3400 0
-2437 -2629 0
-2438 -2630 0
-2439 -2631 0
-2440 -2632 0
-2617 -2869 0
-2618 -2870 0
-2619 -2871 0
-2620 -2872 0
-2765 -3121 0
-2766 -3122 0
-2767 -3123 0
-2768 -3124 0
-2969 -3593 0
-2970 -3594 0
-2971 -3595 0
-2972 -3596 0
-3033 -3349 0
-3034 -3350 0
-3035 -3351 0
-3036 -3352 0
-3409 -3553 0
-3410 -3554 0
-3411 -3555 0
-3412 -3556 0
-3533 -3969 0
-3534 -3970 0
-3535 -3971 0
-3536 -3972 0
-13 -2201 0
-14 -2202 0
-15 -2203 0
-16 -2204 0
-25 -897 0
-26 -898 0
-27 -899 0
-28 -900 0
-37 -3097 0
-38 -3098 0
-39 -3099 0
-40 -3100 0
-53 -1825 0
-54 -1826 0
-55 -1827 0
-56 -1828 0
-57 -709 0
-58 -710 0
-59 -711 0
-60 -712 0
-89 -3865 0
-90 -3866 0
-91 -3867 0
-92 -3868 0
-109 -1801 0
-110 -1802 0
-111 -1803 0
-112 -1804 0
-121 -2101 0
-122 -2102 0
-123 -2103 0
-124 -2104 0
-153 -273 0
-154 -274 0
-155 -275 0
-156 -276 0
-209 -501 0
-210 -502 0
-211 -503 0
-212 -504 0
-217 -661 0
-218 -662 0
-219 -663 0
-220 -664 0
-233 -3821 0
-234 -3822 0
-235 -3823 0
-236 -3824 0
-265 -373 0
-266 -374 0
-267 -375 0
-268 -376 0
-421 -529 0
-422 -530 0
-423 -531 0
-424 -532 0
-445 -2789 0
-446 -2790 0
-447 -2791 0
-448 -2792 0
-665 -3773 0
-666 -3774 0
-667 -3775 0
-668 -3776 0
-769 -993 0
-770 -994 0
-771 -995 0
-772 -996 0
-901 -4013 0
-902 -4014 0
-903 -4015 0
-904 -4016 0
-953 -1717 0
-954 -1718 0
-955 -1719 0
-956 -1720 0
-1093 -3249 0
-1094 -3250 0
-1095 -3251 0
-1096 -3252 0
-1097 -1769 0
-1098 -1770 0
-1099 -1771 0
-1100 -1772 0
-1137 -3525 0
-1138 -3526 0
-1139 -3527 0
-1140 -3528 0
-1193 -1973 0
-1194 -1974 0
-1195 -1975 0
-1196 -1976 0
-1205 -1501 0
-1206 -1502 0
-1207 -1503 0
-1208 -1504 0
-1245 -3277 0
-1246 -3278 0
-1247 -3279 0
-1248 -3280 0
-1541 -1781 0
-1542 -1782 0
-1543 -1783 0
-1544 -1784 0
-1661 -3037 0
-1662 -3038 0
-1663 -3039 0
-1664 -3040 0
-1741 -1813 0
-1742 -1814 0
-1743 -1815 0
-1744 -1816 0
-1757 -1977 0
-1758 -1978 0
-1759 -1979 0
-1760 -1980 0
-1773 -3129 0
-1774 -3130 0
-1775 -3131 0
-1776 -3132 0
-1837 -2809 0
-1838 -2810 0
-1839 -2811 0
-1840 -2812 0
-2289 -2849 0
-2290 -2850 0
-2291 -2851 0
-2292 -2852 0
-2477 -3273 0
-2478 -3274 0
-2479 -3275 0
-2480 -3276 0
-2561 -3661 0
-2562 -3662 0
-2563 -3663 0
-2564 -3664 0
-2937 -2977 0
-2938 -2978 0
-2939 -2979 0
-2940 -2980 0
-3049 -3665 0
-3050 -3666 0
-3051 -3667 0
-3052 -3668 0
-1 -597 0
-2 -598 0
-3 -599 0
-4 -600 0
-9 -1181 0
-10 -1182 0
-11 -1183 0
-12 -1184 0
-13 -925 0
-14 -926 0
-15 -927 0
-16 -928 0
-25 -2877 0
-26 -2878 0
-27 -2879 0
-28 -2880 0
-29 -765 0
-30 -766 0
-31 -767 0
-32 -768 0
-37 -725 0
-38 -726 0
-39 -727 0
-40 -728 0
-41 -133 0
-42 -134 0
-43 -135 0
-44 -136 0
-85 -841 0
-86 -842 0
-87 -843 0
-88 -844 0
-93 -3165 0
-94 -3166 0
-95 -3167 0
-96 -3168 0
-97 -565 0
-98 -566 0
-99 -567 0
-100 -568 0
-101 -685 0
-102 -686 0
-103 -687 0
-104 -688 0
-105 -837 0
-106 -838 0
-107 -839 0
-108 -840 0
-125 -3317 0
-126 -3318 0
-127 -3319 0
-128 -3320 0
-193 -901 0
-194 -902 0
-195 -903 0
-196 -904 0
-205 -1001 0
-206 -1002 0
-207 -1003 0
-208 -1004 0
-209 -3281 0
-210 -3282 0
-211 -3283 0
-212 -3284 0
-225 -1273 0
-226 -1274 0
-227 -1275 0
-228 -1276 0
-233 -581 0
-234 -582 0
-235 -583 0
-236 -584 0
-237 -805 0
-238 -806 0
-239 -807 0
-240 -808 0
-265 -1549 0
-266 -1550 0
-267 -1551 0
-268 -1552 0
-289 -1557 0
-290 -1558 0
-291 -1559 0
-292 -1560 0
-301 -905 0
-302 -906 0
-303 -907 0
-304 -908 0
-325 -2409 0
-326 -2410 0
-327 -2411 0
-328 -2412 0
-365 -477 0
-366 -478 0
-367 -479 0
-368 -480 0
-385 -1237 0
-386 -1238 0
-387 -1239 0
-388 -1240 0
-393 -493 0
-394 -494 0
-395 -495 0
-396 -496 0
-397 -569 0
-398 -570 0
-399 -571 0
-400 -572 0
-501 -2857 0
-502 -2858 0
-503 -2859 0
-504 -2860 0
-509 -777 0
-510 -778 0
-511 -779 0
-512 -780 0
-517 -1053 0
-518 -1054 0
-519 -1055 0
-520 -1056 0
-521 -669 0
-522 -670 0
-523 -671 0
-524 -672 0
-589 -1581 0
-590 -1582 0
-591 -1583 0
-592 -1584 0
-593 -2081 0
-594 -2082 0
-595 -2083 0
-596 -2084 0
-601 -3841 0
-602 -3842 0
-603 -3843 0
-604 -3844 0
-613 -1333 0
-614 -1334 0
-615 -1335 0
-616 -1336 0
-645 -785 0
-646 -786 0
-647 -787 0
-648 -788 0
-653 -881 0
-654 -882 0
-655 -883 0
-656 -884 0
-697 -1341 0
-698 -1342 0
-699 -1343 0
-700 -1344 0
-721 -1025 0
-722 -1026 0
-723 -1027 0
-724 -1028 0
-825 -3149 0
-826 -3150 0
-827 -3151 0
-828 -3152 0
-861 -2029 0
-862 -2030 0
-863 -2031 0
-864 -2032 0
-1009 -3069 0
-1010 -3070 0
-1011 -3071 0
-1012 -3072 0
-1045 -1365 0
-1046 -1366 0
-1047 -1367 0
-1048 -1368 0
-1105 -1869 0
-1106 -1870 0
-1107 -1871 0
-1108 -1872 0
-1137 -3789 0
-1138 -3790 0
-1139 -3791 0
-1140 -3792 0
-1217 -1421 0
-1218 -1422 0
-1219 -1423 0
-1220 -1424 0
-1257 -1713 0
-1258 -1714 0
-1259 -1715 0
-1260 -1716 0
-1285 -3609 0
-1286 -3610 0
-1287 -3611 0
-1288 -3612 0
-1305 -2269 0
-1306 -2270 0
-1307 -2271 0
-1308 -2272 0
-1313 -3425 0
-1314 -3426 0
-1315 -3427 0
-1316 -3428 0
-1505 -2629 0
-1506 -2630 0
-1507 -2631 0
-1508 -2632 0
-1509 -3901 0
-1510 -3902 0
-1511 -3903 0
-1512 -3904 0
-1521 -3961 0
-1522 -3962 0
-1523 -3963 0
-1524 -3964 0
-1533 -2105 0
-1534 -2106 0
-1535 -2107 0
-1536 -2108 0
-1589 -2613 0
-1590 -2614 0
-1591 -2615 0
-1592 -2616 0
-1665 -1741 0
-1666 -1742 0
-1667 -1743 0
-1668 -1744 0
-1777 -3893 0
-1778 -3894 0
-1779 -3895 0
-1780 -3896 0
-1865 -2049 0
-1866 -2050 0
-1867 -2051 0
-1868 -2052 0
-1961 -2765 0
-1962 -2766 0
-1963 -2767 0
-1964 -2768 0
-2061 -2685 0
-2062 -2686 0
-2063 -2687 0
-2064 -2688 0
-2153 -2553 0
-2154 -2554 0
-2155 -2555 0
-2156 -2556 0
-2173 -3257 0
-2174 -3258 0
-2175 -3259 0
-2176 -3260 0
-2177 -2585 0
-2178 -2586 0
-2179 -2587 0
-2180 -2588 0
-2205 -2973 0
-2206 -2974 0
-2207 -2975 0
-2208 -2976 0
-2237 -3313 0
-2238 -3314 0
-2239 -3315 0
-2240 -3316 0
-2305 -3781 0
-2306 -3782 0
-2307 -3783 0
-2308 -3784 0
-2653 -2749 0
-2654 -2750 0
-2655 -2751 0
-2656 -2752 0
-2905 -3793 0
-2906 -3794 0
-2907 -3795 0
-2908 -3796 0
-3265 -3921 0
-3266 -3922 0
-3267 -3923 0
-3268 -3924 0
-3305 -4069 0
-3306 -4070 0
-3307 -4071 0
-3308 -4072 0
-5 -17 0
-6 -18 0
-7 -19 0
-8 -20 0
-9 -1257 0
-10 -1258 0
-11 -1259 0
-12 -1260 0
-13 -1065 0
-14 -1066 0
-15 -1067 0
-16 -1068 0
-33 -1289 0
-34 -1290 0
-35 -1291 0
-36 -1292 0
-45 -965 0
-46 -966 0
-47 -967 0
-48 -968 0
-65 -377 0
-66 -378 0
-67 -379 0
-68 -380 0
-81 -3737 0
-82 -3738 0
-83 -3739 0
-84 -3740 0
-85 -101 0
-86 -102 0
-87 -103 0
-88 -104 0
-93 -3297 0
-94 -3298 0
-95 -3299 0
-96 -3300 0
-97 -237 0
-98 -238 0
-99 -239 0
-100 -240 0
-109 -3417 0
-110 -3418 0
-111 -3419 0
-112 -3420 0
-113 -229 0
-114 -230 0
-115 -231 0
-116 -232 0
-125 -1473 0
-126 -1474 0
-127 -1475 0
-128 -1476 0
-141 -2045 0
-142 -2046 0
-143 -2047 0
-144 -2048 0
-145 -1309 0
-146 -1310 0
-147 -1311 0
-148 -1312 0
-149 -2113 0
-150 -2114 0
-151 -2115 0
-152 -2116 0
-181 -617 0
-182 -618 0
-183 -619 0
-184 -620 0
-205 -2085 0
-206 -2086 0
-207 -2087 0
-208 -2088 0
-209 -1285 0
-210 -1286 0
-211 -1287 0
-212 -1288 0
-249 -2613 0
-250 -2614 0
-251 -2615 0
-252 -2616 0
-265 -3429 0
-266 -3430 0
-267 -3431 0
-268 -3432 0
-273 -2313 0
-274 -2314 0
-275 -2315 0
-276 -2316 0
-277 -1597 0
-278 -1598 0
-279 -1599 0
-280 -1600 0
-293 -3385 0
-294 -3386 0
-295 -3387 0
-296 -3388 0
-337 -1269 0
-338 -1270 0
-339 -1271 0
-340 -1272 0
-349 -2189 0
-350 -2190 0
-351 -2191 0
-352 -2192 0
-373 -753 0
-374 -754 0
-375 -755 0
-376 -756 0
-409 -2513 0
-410 -2514 0
-411 -2515 0
-412 -2516 0
-421 -3293 0
-422 -3294 0
-423 -3295 0
-424 -3296 0
-497 -3857 0
-498 -3858 0
-499 -3859 0
-500 -3860 0
-501 -593 0
-502 -594 0
-503 -595 0
-504 -596 0
-509 -889 0
-510 -890 0
-511 -891 0
-512 -892 0
-565 -805 0
-566 -806 0
-567 -807 0
-568 -808 0
-577 -3581 0
-578 -3582 0
-579 -3583 0
-580 -3584 0
-633 -1681 0
-634 -1682 0
-635 -1683 0
-636 -1684 0
-653 -2957 0
-654 -2958 0
-655 -2959 0
-656 -2960 0
-745 -1221 0
-746 -1222 0
-747 -1223 0
-748 -1224 0
-777 -829 0
-778 -830 0
-779 -831 0
-780 -832 0
-873 -1909 0
-874 -1910 0
-875 -1911 0
-876 -1912 0
-953 -1205 0
-954 -1206 0
-955 -1207 0
-956 -1208 0
-989 -2869 0
-990 -2870 0
-991 -2871 0
-992 -2872 0
-1005 -3329 0
-1006 -3330 0
-1007 -3331 0
-1008 -3332 0
-1013 -3209 0
-1014 -3210 0
-1015 -3211 0
-1016 -3212 0
-1017 -2785 0
-1018 -2786 0
-1019 -2787 0
-1020 -2788 0
-1037 -1225 0
-1038 -1226 0
-1039 -1227 0
-1040 -1228 0
-1101 -3569 0
-1102 -3570 0
-1103 -3571 0
-1104 -3572 0
-1181 -1713 0
-1182 -1714 0
-1183 -1715 0
-1184 -1716 0
-1329 -3509 0
-1330 -3510 0
-1331 -3511 0
-1332 -3512 0
-1357 -2413 0
-1358 -2414 0
-1359 -2415 0
-1360 -2416 0
-1377 -3201 0
-1378 -3202 0
-1379 -3203 0
-1380 -3204 0
-1421 -2853 0
-1422 -2854 0
-1423 -2855 0
-1424 -2856 0
-1445 -2373 0
-1446 -2374 0
-1447 -2375 0
-1448 -2376 0
-1477 -1685 0
-1478 -1686 0
-1479 -1687 0
-1480 -1688 0
-1497 -2429 0
-1498 -2430 0
-1499 -2431 0
-1500 -2432 0
-1513 -2581 0
-1514 -2582 0
-1515 -2583 0
-1516 -2584 0
-1529 -1589 0
-1530 -1590 0
-1531 -1591 0
-1532 -1592 0
-1617 -1805 0
-1618 -1806 0
-1619 -1807 0
-1620 -1808 0
-1741 -3269 0
-1742 -3270 0
-1743 -3271 0
-1744 -3272 0
-1761 -3133 0
-1762 -3134 0
-1763 -3135 0
-1764 -3136 0
-1813 -1949 0
-1814 -1950 0
-1815 -1951 0
-1816 -1952 0
-2041 -2641 0
-2042 -2642 0
-2043 -2643 0
-2044 -2644 0
-2073 -2369 0
-2074 -2370 0
-2075 -2371 0
-2076 -2372 0
-2241 -2469 0
-2242 -2470 0
-2243 -2471 0
-2244 -2472 0
-2261 -3365 0
-2262 -3366 0
-2263 -3367 0
-2264 -3368 0
-2289 -2617 0
-2290 -2618 0
-2291 -2619 0
-2292 -2620 0
-2345 -2873 0
-2346 -2874 0
-2347 -2875 0
-2348 -2876 0
-2465 -3437 0
-2466 -3438 0
-2467 -3439 0
-2468 -3440 0
-2609 -2681 0
-2610 -2682 0
-2611 -2683 0
-2612 -2684 0
-2693 -3505 0
-2694 -3506 0
-2695 -3507 0
-2696 -3508 0
-2757 -3453 0
-2758 -3454 0
-2759 -3455 0
-2760 -3456 0
-3089 -3757 0
-3090 -3758 0
-3091 -3759 0
-3092 -3760 0
-3281 -3609 0
-3282 -3610 0
-3283 -3611 0
-3284 -3612 0
-89 -129 0
-90 -130 0
-91 -131 0
-92 -132 0
-137 -3549 0
-138 -3550 0
-139 -3551 0
-140 -3552 0
-261 -1061 0
-262 -1062 0
-263 -1063 0
-264 -1064 0
-353 -1201 0
-354 -1202 0
-355 -1203 0
-356 -1204 0
-381 -2725 0
-382 -2726 0
-383 -2727 0
-384 -2728 0
-389 -4085 0
-390 -4086 0
-391 -4087 0
-392 -4088 0
-425 -3021 0
-426 -3022 0
-427 -3023 0
-428 -3024 0
-553 -1413 0
-554 -1414 0
-555 -1415 0
-556 -1416 0
-581 -1057 0
-582 -1058 0
-583 -1059 0
-584 -1060 0
-585 -2941 0
-586 -2942 0
-587 -2943 0
-588 -2944 0
-637 -1621 0
-638 -1622 0
-639 -1623 0
-640 -1624 0
-657 -1233 0
-658 -1234 0
-659 -1235 0
-660 -1236 0
-665 -729 0
-666 -730 0
-667 -731 0
-668 -732 0
-701 -749 0
-702 -750 0
-703 -751 0
-704 -752 0
-717 -4029 0
-718 -4030 0
-719 -4031 0
-720 -4032 0
-925 -1041 0
-926 -1042 0
-927 -1043 0
-928 -1044 0
-1009 -1989 0
-1010 -1990 0
-1011 -1991 0
-1012 -1992 0
-1033 -1781 0
-1034 -1782 0
-1035 -1783 0
-1036 -1784 0
-1081 -2525 0
-1082 -2526 0
-1083 -2527 0
-1084 -2528 0
-1113 -1525 0
-1114 -1526 0
-1115 -1527 0
-1116 -1528 0
-1181 -2789 0
-1182 -2790 0
-1183 -2791 0
-1184 -2792 0
-1305 -1529 0
-1306 -1530 0
-1307 -1531 0
-1308 -1532 0
-1449 -2829 0
-1450 -2830 0
-1451 -2831 0
-1452 -2832 0
-1453 -1613 0
-1454 -1614 0
-1455 -1615 0
-1456 -1616 0
-1457 -1845 0
-1458 -1846 0
-1459 -1847 0
-1460 -1848 0
-1485 -2057 0
-1486 -2058 0
-1487 -2059 0
-1488 -2060 0
-1653 -2257 0
-1654 -2258 0
-1655 -2259 0
-1656 -2260 0
-1661 -2577 0
-1662 -2578 0
-1663 -2579 0
-1664 -2580 0
-1853 -1949 0
-1854 -1950 0
-1855 -1951 0
-1856 -1952 0
-1941 -3433 0
-1942 -3434 0
-1943 -3435 0
-1944 -3436 0
-2013 -3881 0
-2014 -3882 0
-2015 -3883 0
-2016 -3884 0
-2089 -2281 0
-2090 -2282 0
-2091 -2283 0
-2092 -2284 0
-2237 -3225 0
-2238 -3226 0
-2239 -3227 0
-2240 -3228 0
-2285 -3649 0
-2286 -3650 0
-2287 -3651 0
-2288 -3652 0
-2393 -3829 0
-2394 -3830 0
-2395 -3831 0
-2396 -3832 0
-2781 -3249 0
-2782 -3250 0
-2783 -3251 0
-2784 -3252 0
-3605 -3833 0
-3606 -3834 0
-3607 -3835 0
-3608 -3836 0
-1 -2205 0
-2 -2206 0
-3 -2207 0
-4 -2208 0
-13 -333 0
-14 -334 0
-15 -335 0
-16 -336 0
-25 -137 0
-26 -138 0
-27 -139 0
-28 -140 0
-37 -2901 0
-38 -2902 0
-39 -2903 0
-40 -2904 0
-45 -141 0
-46 -142 0
-47 -143 0
-48 -144 0
-73 -389 0
-74 -390 0
-75 -391 0
-76 -392 0
-105 -3645 0
-106 -3646 0
-107 -3647 0
-108 -3648 0
-153 -3641 0
-154 -3642 0
-155 -3643 0
-156 -3644 0
-181 -3109 0
-182 -3110 0
-183 -3111 0
-184 -3112 0
-217 -505 0
-218 -506 0
-219 -507 0
-220 -508 0
-269 -1965 0
-270 -1966 0
-271 -1967 0
-272 -1968 0
-457 -2981 0
-458 -2982 0
-459 -2983 0
-460 -2984 0
-533 -3669 0
-534 -3670 0
-535 -3671 0
-536 -3672 0
-597 -2973 0
-598 -2974 0
-599 -2975 0
-600 -2976 0
-621 -3541 0
-622 -3542 0
-623 -3543 0
-624 -3544 0
-717 -2913 0
-718 -2914 0
-719 -2915 0
-720 -2916 0
-965 -2045 0
-966 -2046 0
-967 -2047 0
-968 -2048 0
-1009 -2393 0
-1010 -2394 0
-1011 -2395 0
-1012 -2396 0
-1049 -2581 0
-1050 -2582 0
-1051 -2583 0
-1052 -2584 0
-1073 -3245 0
-1074 -3246 0
-1075 -3247 0
-1076 -3248 0
-1157 -2025 0
-1158 -2026 0
-1159 -2027 0
-1160 -2028 0
-1189 -2401 0
-1190 -2402 0
-1191 -2403 0
-1192 -2404 0
-1213 -1293 0
-1214 -1294 0
-1215 -1295 0
-1216 -1296 0
-1241 -2377 0
-1242 -2378 0
-1243 -2379 0
-1244 -2380 0
-1313 -2905 0
-1314 -2906 0
-1315 -2907 0
-1316 -2908 0
-1341 -3841 0
-1342 -3842 0
-1343 -3843 0
-1344 -3844 0
-1381 -1513 0
-1382 -1514 0
-1383 -1515 0
-1384 -1516 0
-1397 -2569 0
-1398 -2570 0
-1399 -2571 0
-1400 -2572 0
-1433 -2797 0
-1434 -2798 0
-1435 -2799 0
-1436 -2800 0
-1929 -3337 0
-1930 -3338 0
-1931 -3339 0
-1932 -3340 0
-1989 -3829 0
-1990 -3830 0
-1991 -3831 0
-1992 -3832 0
-2133 -2961 0
-2134 -2962 0
-2135 -2963 0
-2136 -2964 0
-2301 -3837 0
-2302 -3838 0
-2303 -3839 0
-2304 -3840 0
-2345 -3849 0
-2346 -3850 0
-2347 -3851 0
-2348 -3852 0
-2445 -3045 0
-2446 -3046 0
-2447 -3047 0
-2448 -3048 0
-2781 -3529 0
-2782 -3530 0
-2783 -3531 0
-2784 -3532 0
-2865 -3441 0
-2866 -3442 0
-2867 -3443 0
-2868 -3444 0
-2873 -3381 0
-2874 -3382 0
-2875 -3383 0
-2876 -3384 0
-3101 -3921 0
-3102 -3922 0
-3103 -3923 0
-3104 -3924 0
-3197 -3345 0
-3198 -3346 0
-3199 -3347 0
-3200 -3348 0
-3425 -3793 0
-3426 -3794 0
-3427 -3795 0
-3428 -3796 0
-3621 -4017 0
-3622 -4018 0
-3623 -4019 0
-3624 -4020 0
-37 -213 0
-38 -214 0
-39 -215 0
-40 -216 0
-41 -593 0
-42 -594 0
-43 -595 0
-44 -596 0
-85 -145 0
-86 -146 0
-87 -147 0
-88 -148 0
-97 -1973 0
-98 -1974 0
-99 -1975 0
-100 -1976 0
-101 -1309 0
-102 -1310 0
-103 -1311 0
-104 -1312 0
-133 -2081 0
-134 -2082 0
-135 -2083 0
-136 -2084 0
-149 -917 0
-150 -918 0
-151 -919 0
-152 -920 0
-153 -877 0
-154 -878 0
-155 -879 0
-156 -880 0
-173 -1841 0
-174 -1842 0
-175 -1843 0
-176 -1844 0
-205 -1977 0
-206 -1978 0
-207 -1979 0
-208 -1980 0
-233 -537 0
-234 -538 0
-235 -539 0
-236 -540 0
-261 -1385 0
-262 -1386 0
-263 -1387 0
-264 -1388 0
-265 -325 0
-266 -326 0
-267 -327 0
-268 -328 0
-309 -733 0
-310 -734 0
-311 -735 0
-312 -736 0
-321 -3121 0
-322 -3122 0
-323 -3123 0
-324 -3124 0
-349 -897 0
-350 -898 0
-351 -899 0
-352 -900 0
-357 -761 0
-358 -762 0
-359 -763 0
-360 -764 0
-361 -2429 0
-362 -2430 0
-363 -2431 0
-364 -2432 0
-445 -493 0
-446 -494 0
-447 -495 0
-448 -496 0
-465 -2313 0
-466 -2314 0
-467 -2315 0
-468 -2316 0
-477 -1273 0
-478 -1274 0
-479 -1275 0
-480 -1276 0
-513 -773 0
-514 -774 0
-515 -775 0
-516 -776 0
-525 -1365 0
-526 -1366 0
-527 -1367 0
-528 -1368 0
-557 -997 0
-558 -998 0
-559 -999 0
-560 -1000 0
-573 -1649 0
-574 -1650 0
-575 -1651 0
-576 -1652 0
-589 -861 0
-590 -862 0
-591 -863 0
-592 -864 0
-613 -721 0
-614 -722 0
-615 -723 0
-616 -724 0
-717 -781 0
-718 -782 0
-719 -783 0
-720 -784 0
-737 -2765 0
-738 -2766 0
-739 -2767 0
-740 -2768 0
-909 -1505 0
-910 -1506 0
-911 -1507 0
-912 -1508 0
-1093 -1873 0
-1094 -1874 0
-1095 -1875 0
-1096 -1876 0
-1125 -1497 0
-1126 -1498 0
-1127 -1499 0
-1128 -1500 0
-1137 -1509 0
-1138 -1510 0
-1139 -1511 0
-1140 -1512 0
-1169 -1465 0
-1170 -1466 0
-1171 -1467 0
-1172 -1468 0
-1317 -3781 0
-1318 -3782 0
-1319 -3783 0
-1320 -3784 0
-1329 -2061 0
-1330 -2062 0
-1331 -2063 0
-1332 -2064 0
-1469 -3161 0
-1470 -3162 0
-1471 -3163 0
-1472 -3164 0
-1477 -2537 0
-1478 -2538 0
-1479 -2539 0
-1480 -2540 0
-1549 -2409 0
-1550 -2410 0
-1551 -2411 0
-1552 -2412 0
-1553 -1961 0
-1554 -1962 0
-1555 -1963 0
-1556 -1964 0
-1581 -2029 0
-1582 -2030 0
-1583 -2031 0
-1584 -2032 0
-1601 -2601 0
-1602 -2602 0
-1603 -2603 0
-1604 -2604 0
-1617 -3865 0
-1618 -3866 0
-1619 -3867 0
-1620 -3868 0
-1665 -2653 0
-1666 -2654 0
-1667 -2655 0
-1668 -2656 0
-1725 -1997 0
-1726 -1998 0
-1727 -1999 0
-1728 -2000 0
-1741 -2749 0
-1742 -2750 0
-1743 -2751 0
-1744 -2752 0
-1869 -2857 0
-1870 -2858 0
-1871 -2859 0
-1872 -2860 0
-1969 -2197 0
-1970 -2198 0
-1971 -2199 0
-1972 -2200 0
-1989 -2361 0
-1990 -2362 0
-1991 -2363 0
-1992 -2364 0
-2129 -2185 0
-2130 -2186 0
-2131 -2187 0
-2132 -2188 0
-2237 -3657 0
-2238 -3658 0
-2239 -3659 0
-2240 -3660 0
-2473 -2773 0
-2474 -2774 0
-2475 -2775 0
-2476 -2776 0
-2609 -3557 0
-2610 -3558 0
-2611 -3559 0
-2612 -3560 0
-2689 -3697 0
-2690 -3698 0
-2691 -3699 0
-2692 -3700 0
-2785 -3297 0
-2786 -3298 0
-2787 -3299 0
-2788 -3300 0
-2837 -3361 0
-2838 -3362 0
-2839 -3363 0
-2840 -3364 0
-3157 -3933 0
-3158 -3934 0
-3159 -3935 0
-3160 -3936 0
-3789 -3901 0
-3790 -3902 0
-3791 -3903 0
-3792 -3904 0
-13 -3309 0
-14 -3310 0
-15 -3311 0
-16 -3312 0
-25 -1213 0
-26 -1214 0
-27 -1215 0
-28 -1216 0
-61 -1861 0
-62 -1862 0
-63 -1863 0
-64 -1864 0
-65 -81 0
-66 -82 0
-67 -83 0
-68 -84 0
-85 -605 0
-86 -606 0
-87 -607 0
-88 -608 0
-101 -465 0
-102 -466 0
-103 -467 0
-104 -468 0
-105 -1657 0
-106 -1658 0
-107 -1659 0
-108 -1660 0
-113 -2161 0
-114 -2162 0
-115 -2163 0
-116 -2164 0
-137 -1293 0
-138 -1294 0
-139 -1295 0
-140 -1296 0
-145 -273 0
-146 -274 0
-147 -275 0
-148 -276 0
-149 -153 0
-150 -154 0
-151 -155 0
-152 -156 0
-165 -3725 0
-166 -3726 0
-167 -3727 0
-168 -3728 0
-209 -1833 0
-210 -1834 0
-211 -1835 0
-212 -1836 0
-225 -3933 0
-226 -3934 0
-227 -3935 0
-228 -3936 0
-241 -481 0
-242 -482 0
-243 -483 0
-244 -484 0
-245 -2157 0
-246 -2158 0
-247 -2159 0
-248 -2160 0
-261 -2473 0
-262 -2474 0
-263 -2475 0
-264 -2476 0
-265 -909 0
-266 -910 0
-267 -911 0
-268 -912 0
-269 -533 0
-270 -534 0
-271 -535 0
-272 -536 0
-293 -489 0
-294 -490 0
-295 -491 0
-296 -492 0
-309 -357 0
-310 -358 0
-311 -359 0
-312 -360 0
-313 -757 0
-314 -758 0
-315 -759 0
-316 -760 0
-325 -1505 0
-326 -1506 0
-327 -1507 0
-328 -1508 0
-333 -2625 0
-334 -2626 0
-335 -2627 0
-336 -2628 0
-365 -3157 0
-366 -3158 0
-367 -3159 0
-368 -3160 0
-377 -3737 0
-378 -3738 0
-379 -3739 0
-380 -3740 0
-385 -677 0
-386 -678 0
-387 -679 0
-388 -680 0
-397 -3253 0
-398 -3254 0
-399 -3255 0
-400 -3256 0
-437 -3837 0
-438 -3838 0
-439 -3839 0
-440 -3840 0
-553 -637 0
-554 -638 0
-555 -639 0
-556 -640 0
-573 -1725 0
-574 -1726 0
-575 -1727 0
-576 -1728 0
-581 -725 0
-582 -726 0
-583 -727 0
-584 -728 0
-625 -653 0
-626 -654 0
-627 -655 0
-628 -656 0
-693 -3449 0
-694 -3450 0
-695 -3451 0
-696 -3452 0
-717 -3457 0
-718 -3458 0
-719 -3459 0
-720 -3460 0
-733 -761 0
-734 -762 0
-735 -763 0
-736 -764 0
-769 -2301 0
-770 -2302 0
-771 -2303 0
-772 -2304 0
-821 -1501 0
-822 -1502 0
-823 -1503 0
-824 -1504 0
-869 -1021 0
-870 -1022 0
-871 -1023 0
-872 -1024 0
-913 -1261 0
-914 -1262 0
-915 -1263 0
-916 -1264 0
-981 -2577 0
-982 -2578 0
-983 -2579 0
-984 -2580 0
-1013 -2925 0
-1014 -2926 0
-1015 -2927 0
-1016 -2928 0
-1061 -2125 0
-1062 -2126 0
-1063 -2127 0
-1064 -2128 0
-1113 -1853 0
-1114 -1854 0
-1115 -1855 0
-1116 -1856 0
-1133 -2933 0
-1134 -2934 0
-1135 -2935 0
-1136 -2936 0
-1149 -2769 0
-1150 -2770 0
-1151 -2771 0
-1152 -2772 0
-1157 -3465 0
-1158 -3466 0
-1159 -3467 0
-1160 -3468 0
-1169 -4073 0
-1170 -4074 0
-1171 -4075 0
-1172 -4076 0
-1209 -1253 0
-1210 -1254 0
-1211 -1255 0
-1212 -1256 0
-1305 -1449 0
-1306 -1450 0
-1307 -1451 0
-1308 -1452 0
-1309 -2313 0
-1310 -2314 0
-1311 -2315 0
-1312 -2316 0
-1329 -1409 0
-1330 -1410 0
-1331 -1411 0
-1332 -1412 0
-1349 -3705 0
-1350 -3706 0
-1351 -3707 0
-1352 -3708 0
-1385 -2773 0
-1386 -2774 0
-1387 -2775 0
-1388 -2776 0
-1413 -1621 0
-1414 -1622 0
-1415 -1623 0
-1416 -1624 0
-1457 -1901 0
-1458 -1902 0
-1459 -1903 0
-1460 -1904 0
-1525 -1949 0
-1526 -1950 0
-1527 -1951 0
-1528 -1952 0
-1529 -2829 0
-1530 -2830 0
-1531 -2831 0
-1532 -2832 0
-1533 -2357 0
-1534 -2358 0
-1535 -2359 0
-1536 -2360 0
-1601 -2609 0
-1602 -2610 0
-1603 -2611 0
-1604 -2612 0
-1605 -1921 0
-1606 -1922 0
-1607 -1923 0
-1608 -1924 0
-1649 -1997 0
-1650 -1998 0
-1651 -1999 0
-1652 -2000 0
-1653 -2285 0
-1654 -2286 0
-1655 -2287 0
-1656 -2288 0
-1677 -2989 0
-1678 -2990 0
-1679 -2991 0
-1680 -2992 0
-1701 -2169 0
-1702 -2170 0
-1703 -2171 0
-1704 -2172 0
-1705 -1753 0
-1706 -1754 0
-1707 -1755 0
-1708 -1756 0
-1737 -3105 0
-1738 -3106 0
-1739 -3107 0
-1740 -3108 0
-1765 -3321 0
-1766 -3322 0
-1767 -3323 0
-1768 -3324 0
-1785 -2277 0
-1786 -2278 0
-1787 -2279 0
-1788 -2280 0
-1893 -2881 0
-1894 -2882 0
-1895 -2883 0
-1896 -2884 0
-1897 -2633 0
-1898 -2634 0
-1899 -2635 0
-1900 -2636 0
-1937 -2273 0
-1938 -2274 0
-1939 -2275 0
-1940 -2276 0
-1965 -3669 0
-1966 -3670 0
-1967 -3671 0
-1968 -3672 0
-1985 -2965 0
-1986 -2966 0
-1987 -2967 0
-1988 -2968 0
-2253 -3273 0
-2254 -3274 0
-2255 -3275 0
-2256 -3276 0
-2257 -3649 0
-2258 -3650 0
-2259 -3651 0
-2260 -3652 0
-2353 -3681 0
-2354 -3682 0
-2355 -3683 0
-2356 -3684 0
-2377 -3037 0
-2378 -3038 0
-2379 -3039 0
-2380 -3040 0
-2381 -2565 0
-2382 -2566 0
-2383 -2567 0
-2384 -2568 0
-2401 -3993 0
-2402 -3994 0
-2403 -3995 0
-2404 -3996 0
-2409 -2629 0
-2410 -2630 0
-2411 -2631 0
-2412 -2632 0
-2425 -4061 0
-2426 -4062 0
-2427 -4063 0
-2428 -4064 0
-2505 -3269 0
-2506 -3270 0
-2507 -3271 0
-2508 -3272 0
-2537 -3781 0
-2538 -3782 0
-2539 -3783 0
-2540 -3784 0
-2545 -2885 0
-2546 -2886 0
-2547 -2887 0
-2548 -2888 0
-2601 -3557 0
-2602 -3558 0
-2603 -3559 0
-2604 -3560 0
-3077 -3325 0
-3078 -3326 0
-3079 -3327 0
-3080 -3328 0
-3333 -3561 0
-3334 -3562 0
-3335 -3563 0
-3336 -3564 0
-3377 -3497 0
-3378 -3498 0
-3379 -3499 0
-3380 -3500 0
-3501 -3845 0
-3502 -3846 0
-3503 -3847 0
-3504 -3848 0
-3773 -3865 0
-3774 -3866 0
-3775 -3867 0
-3776 -3868 0
-9 -29 0
-10 -30 0
-11 -31 0
-12 -32 0
-25 -3437 0
-26 -3438 0
-27 -3439 0
-28 -3440 0
-37 -2785 0
-38 -2786 0
-39 -2787 0
-40 -2788 0
-65 -241 0
-66 -242 0
-67 -243 0
-68 -244 0
-81 -481 0
-82 -482 0
-83 -483 0
-84 -484 0
-145 -3977 0
-146 -3978 0
-147 -3979 0
-148 -3980 0
-153 -2097 0
-154 -2098 0
-155 -2099 0
-156 -2100 0
-213 -3297 0
-214 -3298 0
-215 -3299 0
-216 -3300 0
-253 -929 0
-254 -930 0
-255 -931 0
-256 -932 0
-269 -2613 0
-270 -2614 0
-271 -2615 0
-272 -2616 0
-381 -2541 0
-382 -2542 0
-383 -2543 0
-384 -2544 0
-441 -1589 0
-442 -1590 0
-443 -1591 0
-444 -1592 0
-537 -3581 0
-538 -3582 0
-539 -3583 0
-540 -3584 0
-557 -1469 0
-558 -1470 0
-559 -1471 0
-560 -1472 0
-645 -3385 0
-646 -3386 0
-647 -3387 0
-648 -3388 0
-697 -1597 0
-698 -1598 0
-699 -1599 0
-700 -1600 0
-717 -2065 0
-718 -2066 0
-719 -2067 0
-720 -2068 0
-781 -1289 0
-782 -1290 0
-783 -1291 0
-784 -1292 0
-997 -3161 0
-998 -3162 0
-999 -3163 0
-1000 -3164 0
-1033 -1697 0
-1034 -1698 0
-1035 -1699 0
-1036 -1700 0
-1149 -2145 0
-1150 -2146 0
-1151 -2147 0
-1152 -2148 0
-1165 -2105 0
-1166 -2106 0
-1167 -2107 0
-1168 -2108 0
-1245 -2569 0
-1246 -2570 0
-1247 -2571 0
-1248 -2572 0
-1481 -2821 0
-1482 -2822 0
-1483 -2823 0
-1484 -2824 0
-1497 -3613 0
-1498 -3614 0
-1499 -3615 0
-1500 -3616 0
-1669 -3233 0
-1670 -3234 0
-1671 -3235 0
-1672 -3236 0
-1953 -4081 0
-1954 -4082 0
-1955 -4083 0
-1956 -4084 0
-1985 -3801 0
-1986 -3802 0
-1987 -3803 0
-1988 -3804 0
-2137 -2221 0
-2138 -2222 0
-2139 -2223 0
-2140 -2224 0
-2217 -2493 0
-2218 -2494 0
-2219 -2495 0
-2220 -2496 0
-2237 -2393 0
-2238 -2394 0
-2239 -2395 0
-2240 -2396 0
-2353 -2465 0
-2354 -2466 0
-2355 -2467 0
-2356 -2468 0
-2453 -3857 0
-2454 -3858 0
-2455 -3859 0
-2456 -3860 0
-2761 -3813 0
-2762 -3814 0
-2763 -3815 0
-2764 -3816 0
-2965 -3577 0
-2966 -3578 0
-2967 -3579 0
-2968 -3580 0
-3225 -3829 0
-3226 -3830 0
-3227 -3831 0
-3228 -3832 0
-3333 -3853 0
-3334 -3854 0
-3335 -3855 0
-3336 -3856 0
-1 -105 0
-2 -106 0
-3 -107 0
-4 -108 0
-5 -113 0
-6 -114 0
-7 -115 0
-8 -116 0
-9 -1673 0
-10 -1674 0
-11 -1675 0
-12 -1676 0
-17 -229 0
-18 -230 0
-19 -231 0
-20 -232 0
-29 -713 0
-30 -714 0
-31 -715 0
-32 -716 0
-33 -1005 0
-34 -1006 0
-35 -1007 0
-36 -1008 0
-41 -2689 0
-42 -2690 0
-43 -2691 0
-44 -2692 0
-69 -4013 0
-70 -4014 0
-71 -4015 0
-72 -4016 0
-73 -901 0
-74 -902 0
-75 -903 0
-76 -904 0
-77 -3809 0
-78 -3810 0
-79 -3811 0
-80 -3812 0
-89 -2557 0
-90 -2558 0
-91 -2559 0
-92 -2560 0
-125 -1569 0
-126 -1570 0
-127 -1571 0
-128 -1572 0
-129 -2169 0
-130 -2170 0
-131 -2171 0
-132 -2172 0
-209 -2425 0
-210 -2426 0
-211 -2427 0
-212 -2428 0
-261 -2089 0
-262 -2090 0
-263 -2091 0
-264 -2092 0
-265 -573 0
-266 -574 0
-267 -575 0
-268 -576 0
-281 -1817 0
-282 -1818 0
-283 -1819 0
-284 -1820 0
-293 -409 0
-294 -410 0
-295 -411 0
-296 -412 0
-317 -3953 0
-318 -3954 0
-319 -3955 0
-320 -3956 0
-325 -1649 0
-326 -1650 0
-327 -1651 0
-328 -1652 0
-369 -1273 0
-370 -1274 0
-371 -1275 0
-372 -1276 0
-457 -569 0
-458 -570 0
-459 -571 0
-460 -572 0
-541 -1849 0
-542 -1850 0
-543 -1851 0
-544 -1852 0
-553 -1113 0
-554 -1114 0
-555 -1115 0
-556 -1116 0
-593 -3697 0
-594 -3698 0
-595 -3699 0
-596 -3700 0
-597 -837 0
-598 -838 0
-599 -839 0
-600 -840 0
-637 -1853 0
-638 -1854 0
-639 -1855 0
-640 -1856 0
-721 -2325 0
-722 -2326 0
-723 -2327 0
-724 -2328 0
-729 -1701 0
-730 -1702 0
-731 -1703 0
-732 -1704 0
-749 -4049 0
-750 -4050 0
-751 -4051 0
-752 -4052 0
-909 -1725 0
-910 -1726 0
-911 -1727 0
-912 -1728 0
-1061 -2281 0
-1062 -2282 0
-1063 -2283 0
-1064 -2284 0
-1081 -3053 0
-1082 -3054 0
-1083 -3055 0
-1084 -3056 0
-1185 -2733 0
-1186 -2734 0
-1187 -2735 0
-1188 -2736 0
-1289 -3329 0
-1290 -3330 0
-1291 -3331 0
-1292 -3332 0
-1305 -2013 0
-1306 -2014 0
-1307 -2015 0
-1308 -2016 0
-1321 -1857 0
-1322 -1858 0
-1323 -1859 0
-1324 -1860 0
-1369 -3013 0
-1370 -3014 0
-1371 -3015 0
-1372 -3016 0
-1413 -1525 0
-1414 -1526 0
-1415 -1527 0
-1416 -1528 0
-1449 -1485 0
-1450 -1486 0
-1451 -1487 0
-1452 -1488 0
-1457 -2637 0
-1458 -2638 0
-1459 -2639 0
-1460 -2640 0
-1505 -1997 0
-1506 -1998 0
-1507 -1999 0
-1508 -2000 0
-1509 -1873 0
-1510 -1874 0
-1511 -1875 0
-1512 -1876 0
-1529 -3881 0
-1530 -3882 0
-1531 -3883 0
-1532 -3884 0
-1545 -2329 0
-1546 -2330 0
-1547 -2331 0
-1548 -2332 0
-1617 -2657 0
-1618 -2658 0
-1619 -2659 0
-1620 -2660 0
-1621 -1949 0
-1622 -1950 0
-1623 -1951 0
-1624 -1952 0
-1833 -4061 0
-1834 -4062 0
-1835 -4063 0
-1836 -4064 0
-1925 -2749 0
-1926 -2750 0
-1927 -2751 0
-1928 -2752 0
-1933 -2141 0
-1934 -2142 0
-1935 -2143 0
-1936 -2144 0
-2117 -2581 0
-2118 -2582 0
-2119 -2583 0
-2120 -2584 0
-2177 -3029 0
-2178 -3030 0
-2179 -3031 0
-2180 -3032 0
-2193 -3749 0
-2194 -3750 0
-2195 -3751 0
-2196 -3752 0
-2205 -3645 0
-2206 -3646 0
-2207 -3647 0
-2208 -3648 0
-2225 -3841 0
-2226 -3842 0
-2227 -3843 0
-2228 -3844 0
-2445 -3957 0
-2446 -3958 0
-2447 -3959 0
-2448 -3960 0
-2453 -3141 0
-2454 -3142 0
-2455 -3143 0
-2456 -3144 0
-2669 -3145 0
-2670 -3146 0
-2671 -3147 0
-2672 -3148 0
-2837 -3797 0
-2838 -3798 0
-2839 -3799 0
-2840 -3800 0
-2905 -3245 0
-2906 -3246 0
-2907 -3247 0
-2908 -3248 0
-2953 -3833 0
-2954 -3834 0
-2955 -3835 0
-2956 -3836 0
-3265 -3529 0
-3266 -3530 0
-3267 -3531 0
-3268 -3532 0
-3433 -3549 0
-3434 -3550 0
-3435 -3551 0
-3436 -3552 0
-1 -2549 0
-2 -2550 0
-3 -2551 0
-4 -2552 0
-13 -97 0
-14 -98 0
-15 -99 0
-16 -100 0
-25 -609 0
-26 -610 0
-27 -611 0
-28 -612 0
-37 -3845 0
-38 -3846 0
-39 -3847 0
-40 -3848 0
-105 -2197 0
-106 -2198 0
-107 -2199 0
-108 -2200 0
-149 -2605 0
-150 -2606 0
-151 -2607 0
-152 -2608 0
-233 -3501 0
-234 -3502 0
-235 -3503 0
-236 -3504 0
-313 -3369 0
-314 -3370 0
-315 -3371 0
-316 -3372 0
-329 -677 0
-330 -678 0
-331 -679 0
-332 -680 0
-445 -2737 0
-446 -2738 0
-447 -2739 0
-448 -2740 0
-457 -1881 0
-458 -1882 0
-459 -1883 0
-460 -1884 0
-513 -3649 0
-514 -3650 0
-515 -3651 0
-516 -3652 0
-517 -3237 0
-518 -3238 0
-519 -3239 0
-520 -3240 0
-597 -2437 0
-598 -2438 0
-599 -2439 0
-600 -2440 0
-621 -3105 0
-622 -3106 0
-623 -3107 0
-624 -3108 0
-657 -3793 0
-658 -3794 0
-659 -3795 0
-660 -3796 0
-1009 -1121 0
-1010 -1122 0
-1011 -1123 0
-1012 -1124 0
-1101 -2245 0
-1102 -2246 0
-1103 -2247 0
-1104 -2248 0
-1117 -2405 0
-1118 -2406 0
-1119 -2407 0
-1120 -2408 0
-1133 -1373 0
-1134 -1374 0
-1135 -1375 0
-1136 -1376 0
-1157 -2317 0
-1158 -2318 0
-1159 -2319 0
-1160 -2320 0
-1189 -2365 0
-1190 -2366 0
-1191 -2367 0
-1192 -2368 0
-1209 -3549 0
-1210 -3550 0
-1211 -3551 0
-1212 -3552 0
-1245 -3849 0
-1246 -3850 0
-1247 -3851 0
-1248 -3852 0
-1249 -3225 0
-1250 -3226 0
-1251 -3227 0
-1252 -3228 0
-1305 -3265 0
-1306 -3266 0
-1307 -3267 0
-1308 -3268 0
-1321 -1617 0
-1322 -1618 0
-1323 -1619 0
-1324 -1620 0
-1397 -1493 0
-1398 -1494 0
-1399 -1495 0
-1400 -1496 0
-1541 -1969 0
-1542 -1970 0
-1543 -1971 0
-1544 -1972 0
-1689 -1737 0
-1690 -1738 0
-1691 -1739 0
-1692 -1740 0
-1693 -3433 0
-1694 -3434 0
-1695 -3435 0
-1696 -3436 0
-1741 -3461 0
-1742 -3462 0
-1743 -3463 0
-1744 -3464 0
-1777 -2237 0
-1778 -2238 0
-1779 -2239 0
-1780 -2240 0
-1837 -2585 0
-1838 -2586 0
-1839 -2587 0
-1840 -2588 0
-1857 -2657 0
-1858 -2658 0
-1859 -2659 0
-1860 -2660 0
-2009 -3521 0
-2010 -3522 0
-2011 -3523 0
-2012 -3524 0
-2013 -3529 0
-2014 -3530 0
-2015 -3531 0
-2016 -3532 0
-2137 -3629 0
-2138 -3630 0
-2139 -3631 0
-2140 -3632 0
-2269 -3921 0
-2270 -3922 0
-2271 -3923 0
-2272 -3924 0
-2301 -3449 0
-2302 -3450 0
-2303 -3451 0
-2304 -3452 0
-2793 -3321 0
-2794 -3322 0
-2795 -3323 0
-2796 -3324 0
-2821 -3109 0
-2822 -3110 0
-2823 -3111 0
-2824 -3112 0
-9 -253 0
-10 -254 0
-11 -255 0
-12 -256 0
-13 -825 0
-14 -826 0
-15 -827 0
-16 -828 0
-21 -3869 0
-22 -3870 0
-23 -3871 0
-24 -3872 0
-29 -929 0
-30 -930 0
-31 -931 0
-32 -932 0
-33 -2757 0
-34 -2758 0
-35 -2759 0
-36 -2760 0
-45 -1265 0
-46 -1266 0
-47 -1267 0
-48 -1268 0
-49 -281 0
-50 -282 0
-51 -283 0
-52 -284 0
-53 -57 0
-54 -58 0
-55 -59 0
-56 -60 0
-69 -345 0
-70 -346 0
-71 -347 0
-72 -348 0
-85 -809 0
-86 -810 0
-87 -811 0
-88 -812 0
-97 -653 0
-98 -654 0
-99 -655 0
-100 -656 0
-125 -129 0
-126 -130 0
-127 -131 0
-128 -132 0
-169 -1253 0
-170 -1254 0
-171 -1255 0
-172 -1256 0
-181 -1577 0
-182 -1578 0
-183 -1579 0
-184 -1580 0
-201 -1301 0
-202 -1302 0
-203 -1303 0
-204 -1304 0
-237 -2957 0
-238 -2958 0
-239 -2959 0
-240 -2960 0
-277 -749 0
-278 -750 0
-279 -751 0
-280 -752 0
-293 -629 0
-294 -630 0
-295 -631 0
-296 -632 0
-321 -3837 0
-322 -3838 0
-323 -3839 0
-324 -3840 0
-349 -2033 0
-350 -2034 0
-351 -2035 0
-352 -2036 0
-361 -1205 0
-362 -1206 0
-363 -1207 0
-364 -1208 0
-409 -437 0
-410 -438 0
-411 -439 0
-412 -440 0
-429 -1629 0
-430 -1630 0
-431 -1631 0
-432 -1632 0
-509 -625 0
-510 -626 0
-511 -627 0
-512 -628 0
-545 -2569 0
-546 -2570 0
-547 -2571 0
-548 -2572 0
-557 -1097 0
-558 -1098 0
-559 -1099 0
-560 -1100 0
-565 -881 0
-566 -882 0
-567 -883 0
-568 -884 0
-717 -1393 0
-718 -1394 0
-719 -1395 0
-720 -1396 0
-885 -1177 0
-886 -1178 0
-887 -1179 0
-888 -1180 0
-925 -3149 0
-926 -3150 0
-927 -3151 0
-928 -3152 0
-1009 -3497 0
-1010 -3498 0
-1011 -3499 0
-1012 -3500 0
-1121 -2885 0
-1122 -2886 0
-1123 -2887 0
-1124 -2888 0
-1173 -2545 0
-1174 -2546 0
-1175 -2547 0
-1176 -2548 0
-1221 -2613 0
-1222 -2614 0
-1223 -2615 0
-1224 -2616 0
-1289 -3453 0
-1290 -3454 0
-1291 -3455 0
-1292 -3456 0
-1369 -1889 0
-1370 -1890 0
-1371 -1891 0
-1372 -1892 0
-1537 -2109 0
-1538 -2110 0
-1539 -2111 0
-1540 -2112 0
-1569 -2169 0
-1570 -2170 0
-1571 -2171 0
-1572 -2172 0
-1653 -1677 0
-1654 -1678 0
-1655 -1679 0
-1656 -1680 0
-1753 -3357 0
-1754 -3358 0
-1755 -3359 0
-1756 -3360 0
-2285 -2989 0
-2286 -2990 0
-2287 -2991 0
-2288 -2992 0
-2337 -3969 0
-2338 -3970 0
-2339 -3971 0
-2340 -3972 0
-2621 -3173 0
-2622 -3174 0
-2623 -3175 0
-2624 -3176 0
-2937 -3505 0
-2938 -3506 0
-2939 -3507 0
-2940 -3508 0
-2961 -2981 0
-2962 -2982 0
-2963 -2983 0
-2964 -2984 0
-3005 -3377 0
-3006 -3378 0
-3007 -3379 0
-3008 -3380 0
-3037 -3669 0
-3038 -3670 0
-3039 -3671 0
-3040 -3672 0
-3265 -3441 0
-3266 -3442 0
-3267 -3443 0
-3268 -3444 0
-3713 -3913 0
-3714 -3914 0
-3715 -3915 0
-3716 -3916 0
-13 -621 0
-14 -622 0
-15 -623 0
-16 -624 0
-25 -1049 0
-26 -1050 0
-27 -1051 0
-28 -1052 0
-37 -3253 0
-38 -3254 0
-39 -3255 0
-40 -3256 0
-85 -1781 0
-86 -1782 0
-87 -1783 0
-88 -1784 0
-89 -2005 0
-90 -2006 0
-91 -2007 0
-92 -2008 0
-97 -3105 0
-98 -3106 0
-99 -3107 0
-100 -3108 0
-129 -1501 0
-130 -1502 0
-131 -1503 0
-132 -1504 0
-137 -2581 0
-138 -2582 0
-139 -2583 0
-140 -2584 0
-153 -1657 0
-154 -1658 0
-155 -1659 0
-156 -1660 0
-209 -301 0
-210 -302 0
-211 -303 0
-212 -304 0
-233 -397 0
-234 -398 0
-235 -399 0
-236 -400 0
-261 -353 0
-262 -354 0
-263 -355 0
-264 -356 0
-325 -593 0
-326 -594 0
-327 -595 0
-328 -596 0
-333 -3541 0
-334 -3542 0
-335 -3543 0
-336 -3544 0
-357 -465 0
-358 -466 0
-359 -467 0
-360 -468 0
-409 -713 0
-410 -714 0
-411 -715 0
-412 -716 0
-509 -1737 0
-510 -1738 0
-511 -1739 0
-512 -1740 0
-545 -1697 0
-546 -1698 0
-547 -1699 0
-548 -1700 0
-549 -3933 0
-550 -3934 0
-551 -3935 0
-552 -3936 0
-573 -2689 0
-574 -2690 0
-575 -2691 0
-576 -2692 0
-629 -929 0
-630 -930 0
-631 -931 0
-632 -932 0
-645 -1257 0
-646 -1258 0
-647 -1259 0
-648 -1260 0
-693 -1949 0
-694 -1950 0
-695 -1951 0
-696 -1952 0
-701 -2541 0
-702 -2542 0
-703 -2543 0
-704 -2544 0
-721 -861 0
-722 -862 0
-723 -863 0
-724 -864 0
-729 -821 0
-730 -822 0
-731 -823 0
-732 -824 0
-733 -1309 0
-734 -1310 0
-735 -1311 0
-736 -1312 0
-749 -1253 0
-750 -1254 0
-751 -1255 0
-752 -1256 0
-761 -2313 0
-762 -2314 0
-763 -2315 0
-764 -2316 0
-777 -1005 0
-778 -1006 0
-779 -1007 0
-780 -1008 0
-785 -1713 0
-786 -1714 0
-787 -1715 0
-788 -1716 0
-817 -2057 0
-818 -2058 0
-819 -2059 0
-820 -2060 0
-829 -3329 0
-830 -3330 0
-831 -3331 0
-832 -3332 0
-941 -3081 0
-942 -3082 0
-943 -3083 0
-944 -3084 0
-945 -1805 0
-946 -1806 0
-947 -1807 0
-948 -1808 0
-1017 -2293 0
-1018 -2294 0
-1019 -2295 0
-1020 -2296 0
-1025 -2029 0
-1026 -2030 0
-1027 -2031 0
-1028 -2032 0
-1061 -1201 0
-1062 -1202 0
-1063 -1203 0
-1064 -1204 0
-1129 -1289 0
-1130 -1290 0
-1131 -1291 0
-1132 -1292 0
-1133 -3145 0
-1134 -3146 0
-1135 -3147 0
-1136 -3148 0
-1153 -1853 0
-1154 -1854 0
-1155 -1855 0
-1156 -1856 0
-1173 -3365 0
-1174 -3366 0
-1175 -3367 0
-1176 -3368 0
-1277 -1389 0
-1278 -1390 0
-1279 -1391 0
-1280 -1392 0
-1329 -1553 0
-1330 -1554 0
-1331 -1555 0
-1332 -1556 0
-1333 -1581 0
-1334 -1582 0
-1335 -1583 0
-1336 -1584 0
-1345 -1525 0
-1346 -1526 0
-1347 -1527 0
-1348 -1528 0
-1377 -1485 0
-1378 -1486 0
-1379 -1487 0
-1380 -1488 0
-1457 -1797 0
-1458 -1798 0
-1459 -1799 0
-1460 -1800 0
-1461 -2189 0
-1462 -2190 0
-1463 -2191 0
-1464 -2192 0
-1477 -2701 0
-1478 -2702 0
-1479 -2703 0
-1480 -2704 0
-1493 -3577 0
-1494 -3578 0
-1495 -3579 0
-1496 -3580 0
-1649 -3697 0
-1650 -3698 0
-1651 -3699 0
-1652 -3700 0
-1937 -2185 0
-1938 -2186 0
-1939 -2187 0
-1940 -2188 0
-1941 -2117 0
-1942 -2118 0
-1943 -2119 0
-1944 -2120 0
-1945 -3545 0
-1946 -3546 0
-1947 -3547 0
-1948 -3548 0
-2017 -2669 0
-2018 -2670 0
-2019 -2671 0
-2020 -2672 0
-2137 -3693 0
-2138 -3694 0
-2139 -3695 0
-2140 -3696 0
-2173 -2349 0
-2174 -2350 0
-2175 -2351 0
-2176 -2352 0
-2177 -2357 0
-2178 -2358 0
-2179 -2359 0
-2180 -2360 0
-2253 -3285 0
-2254 -3286 0
-2255 -3287 0
-2256 -3288 0
-2345 -2965 0
-2346 -2966 0
-2347 -2967 0
-2348 -2968 0
-2477 -2681 0
-2478 -2682 0
-2479 -2683 0
-2480 -2684 0
-2685 -2765 0
-2686 -2766 0
-2687 -2767 0
-2688 -2768 0
-3125 -3233 0
-3126 -3234 0
-3127 -3235 0
-3128 -3236 0
-3397 -3685 0
-3398 -3686 0
-3399 -3687 0
-3400 -3688 0
-3473 -3825 0
-3474 -3826 0
-3475 -3827 0
-3476 -3828 0
-3553 -3781 0
-3554 -3782 0
-3555 -3783 0
-3556 -3784 0
-9 -1497 0
-10 -1498 0
-11 -1499 0
-12 -1500 0
-13 -941 0
-14 -942 0
-15 -943 0
-16 -944 0
-25 -1465 0
-26 -1466 0
-27 -1467 0
-28 -1468 0
-29 -3613 0
-30 -3614 0
-31 -3615 0
-32 -3616 0
-37 -153 0
-38 -154 0
-39 -155 0
-40 -156 0
-41 -173 0
-42 -174 0
-43 -175 0
-44 -176 0
-53 -3193 0
-54 -3194 0
-55 -3195 0
-56 -3196 0
-57 -2021 0
-58 -2022 0
-59 -2023 0
-60 -2024 0
-61 -165 0
-62 -166 0
-63 -167 0
-64 -168 0
-65 -1917 0
-66 -1918 0
-67 -1919 0
-68 -1920 0
-85 -433 0
-86 -434 0
-87 -435 0
-88 -436 0
-101 -341 0
-102 -342 0
-103 -343 0
-104 -344 0
-117 -1429 0
-118 -1430 0
-119 -1431 0
-120 -1432 0
-213 -877 0
-214 -878 0
-215 -879 0
-216 -880 0
-245 -2909 0
-246 -2910 0
-247 -2911 0
-248 -2912 0
-253 -937 0
-254 -938 0
-255 -939 0
-256 -940 0
-265 -3045 0
-266 -3046 0
-267 -3047 0
-268 -3048 0
-269 -493 0
-270 -494 0
-271 -495 0
-272 -496 0
-313 -445 0
-314 -446 0
-315 -447 0
-316 -448 0
-365 -453 0
-366 -454 0
-367 -455 0
-368 -456 0
-377 -1029 0
-378 -1030 0
-379 -1031 0
-380 -1032 0
-405 -4045 0
-406 -4046 0
-407 -4047 0
-408 -4048 0
-457 -597 0
-458 -598 0
-459 -599 0
-460 -600 0
-473 -3677 0
-474 -3678 0
-475 -3679 0
-476 -3680 0
-537 -917 0
-538 -918 0
-539 -919 0
-540 -920 0
-541 -2809 0
-542 -2810 0
-543 -2811 0
-544 -2812 0
-553 -1385 0
-554 -1386 0
-555 -1387 0
-556 -1388 0
-569 -837 0
-570 -838 0
-571 -839 0
-572 -840 0
-593 -1841 0
-594 -1842 0
-595 -1843 0
-596 -1844 0
-621 -3081 0
-622 -3082 0
-623 -3083 0
-624 -3084 0
-637 -2773 0
-638 -2774 0
-639 -2775 0
-640 -2776 0
-649 -1957 0
-650 -1958 0
-651 -1959 0
-652 -1960 0
-705 -905 0
-706 -906 0
-707 -907 0
-708 -908 0
-753 -985 0
-754 -986 0
-755 -987 0
-756 -988 0
-781 -997 0
-782 -998 0
-783 -999 0
-784 -1000 0
-801 -2441 0
-802 -2442 0
-803 -2443 0
-804 -2444 0
-845 -969 0
-846 -970 0
-847 -971 0
-848 -972 0
-869 -3077 0
-870 -3078 0
-871 -3079 0
-872 -3080 0
-945 -2225 0
-946 -2226 0
-947 -2227 0
-948 -2228 0
-1021 -3325 0
-1022 -3326 0
-1023 -3327 0
-1024 -3328 0
-1073 -2421 0
-1074 -2422 0
-1075 -2423 0
-1076 -2424 0
-1089 -3009 0
-1090 -3010 0
-1091 -3011 0
-1092 -3012 0
-1093 -3957 0
-1094 -3958 0
-1095 -3959 0
-1096 -3960 0
-1137 -2445 0
-1138 -2446 0
-1139 -2447 0
-1140 -2448 0
-1157 -1169 0
-1158 -1170 0
-1159 -1171 0
-1160 -1172 0
-1245 -3281 0
-1246 -3282 0
-1247 -3283 0
-1248 -3284 0
-1257 -2429 0
-1258 -2430 0
-1259 -2431 0
-1260 -2432 0
-1289 -3161 0
-1290 -3162 0
-1291 -3163 0
-1292 -3164 0
-1313 -3573 0
-1314 -3574 0
-1315 -3575 0
-1316 -3576 0
-1397 -1837 0
-1398 -1838 0
-1399 -1839 0
-1400 -1840 0
-1485 -2001 0
-1486 -2002 0
-1487 -2003 0
-1488 -2004 0
-1493 -2585 0
-1494 -2586 0
-1495 -2587 0
-1496 -2588 0
-1529 -3021 0
-1530 -3022 0
-1531 -3023 0
-1532 -3024 0
-1585 -1641 0
-1586 -1642 0
-1587 -1643 0
-1588 -1644 0
-1617 -2245 0
-1618 -2246 0
-1619 -2247 0
-1620 -2248 0
-1653 -2181 0
-1654 -2182 0
-1655 -2183 0
-1656 -2184 0
-1677 -1757 0
-1678 -1758 0
-1679 -1759 0
-1680 -1760 0
-1805 -1921 0
-1806 -1922 0
-1807 -1923 0
-1808 -1924 0
-1809 -1981 0
-1810 -1982 0
-1811 -1983 0
-1812 -1984 0
-1853 -2589 0
-1854 -2590 0
-1855 -2591 0
-1856 -2592 0
-1861 -3725 0
-1862 -3726 0
-1863 -3727 0
-1864 -3728 0
-1881 -2437 0
-1882 -2438 0
-1883 -2439 0
-1884 -2440 0
-1905 -2361 0
-1906 -2362 0
-1907 -2363 0
-1908 -2364 0
-1937 -2409 0
-1938 -2410 0
-1939 -2411 0
-1940 -2412 0
-2009 -2233 0
-2010 -2234 0
-2011 -2235 0
-2012 -2236 0
-2049 -3317 0
-2050 -3318 0
-2051 -3319 0
-2052 -3320 0
-2253 -2685 0
-2254 -2686 0
-2255 -2687 0
-2256 -2688 0
-2273 -2629 0
-2274 -2630 0
-2275 -2631 0
-2276 -2632 0
-2333 -2561 0
-2334 -2562 0
-2335 -2563 0
-2336 -2564 0
-2489 -2553 0
-2490 -2554 0
-2491 -2555 0
-2492 -2556 0
-2713 -4001 0
-2714 -4002 0
-2715 -4003 0
-2716 -4004 0
-2901 -3641 0
-2902 -3642 0
-2903 -3643 0
-2904 -3644 0
-3465 -4073 0
-3466 -4074 0
-3467 -4075 0
-3468 -4076 0
-3749 -3809 0
-3750 -3810 0
-3751 -3811 0
-3752 -3812 0
-1 -1285 0
-2 -1286 0
-3 -1287 0
-4 -1288 0
-33 -137 0
-34 -138 0
-35 -139 0
-36 -140 0
-85 -573 0
-86 -574 0
-87 -575 0
-88 -576 0
-125 -601 0
-126 -602 0
-127 -603 0
-128 -604 0
-145 -1649 0
-146 -1650 0
-147 -1651 0
-148 -1652 0
-177 -505 0
-178 -506 0
-179 -507 0
-180 -508 0
-181 -3029 0
-182 -3030 0
-183 -3031 0
-184 -3032 0
-249 -437 0
-250 -438 0
-251 -439 0
-252 -440 0
-273 -1997 0
-274 -1998 0
-275 -1999 0
-276 -2000 0
-285 -1809 0
-286 -1810 0
-287 -1811 0
-288 -1812 0
-329 -3269 0
-330 -3270 0
-331 -3271 0
-332 -3272 0
-349 -3797 0
-350 -3798 0
-351 -3799 0
-352 -3800 0
-385 -921 0
-386 -922 0
-387 -923 0
-388 -924 0
-469 -2505 0
-470 -2506 0
-471 -2507 0
-472 -2508 0
-597 -3609 0
-598 -3610 0
-599 -3611 0
-600 -3612 0
-605 -1725 0
-606 -1726 0
-607 -1727 0
-608 -1728 0
-797 -1425 0
-798 -1426 0
-799 -1427 0
-800 -1428 0
-845 -3429 0
-846 -3430 0
-847 -3431 0
-848 -3432 0
-897 -2309 0
-898 -2310 0
-899 -2311 0
-900 -2312 0
-1037 -3393 0
-1038 -3394 0
-1039 -3395 0
-1040 -3396 0
-1041 -4049 0
-1042 -4050 0
-1043 -4051 0
-1044 -4052 0
-1109 -2597 0
-1110 -2598 0
-1111 -2599 0
-1112 -2600 0
-1181 -2557 0
-1182 -2558 0
-1183 -2559 0
-1184 -2560 0
-1221 -2513 0
-1222 -2514 0
-1223 -2515 0
-1224 -2516 0
-1481 -2425 0
-1482 -2426 0
-1483 -2427 0
-1484 -2428 0
-1573 -2653 0
-1574 -2654 0
-1575 -2655 0
-1576 -2656 0
-1617 -2901 0
-1618 -2902 0
-1619 -2903 0
-1620 -2904 0
-1621 -2957 0
-1622 -2958 0
-1623 -2959 0
-1624 -2960 0
-1733 -2113 0
-1734 -2114 0
-1735 -2115 0
-1736 -2116 0
-1781 -2689 0
-1782 -2690 0
-1783 -2691 0
-1784 -2692 0
-1881 -3381 0
-1882 -3382 0
-1883 -3383 0
-1884 -3384 0
-1933 -2053 0
-1934 -2054 0
-1935 -2055 0
-1936 -2056 0
-2245 -3641 0
-2246 -3642 0
-2247 -3643 0
-2248 -3644 0
-2353 -3049 0
-2354 -3050 0
-2355 -3051 0
-2356 -3052 0
-2525 -3337 0
-2526 -3338 0
-2527 -3339 0
-2528 -3340 0
-2849 -2993 0
-2850 -2994 0
-2851 -2995 0
-2852 -2996 0
-2861 -3041 0
-2862 -3042 0
-2863 -3043 0
-2864 -3044 0
-2945 -3969 0
-2946 -3970 0
-2947 -3971 0
-2948 -3972 0
-3317 -3841 0
-3318 -3842 0
-3319 -3843 0
-3320 -3844 0
-3333 -3605 0
-3334 -3606 0
-3335 -3607 0
-3336 -3608 0
-3425 -3785 0
-3426 -3786 0
-3427 -3787 0
-3428 -3788 0
-9 -2201 0
-10 -2202 0
-11 -2203 0
-12 -2204 0
-37 -2929 0
-38 -2930 0
-39 -2931 0
-40 -2932 0
-73 -3341 0
-74 -3342 0
-75 -3343 0
-76 -3344 0
-77 -3625 0
-78 -3626 0
-79 -3627 0
-80 -3628 0
-89 -93 0
-90 -94 0
-91 -95 0
-92 -96 0
-109 -113 0
-110 -114 0
-111 -115 0
-112 -116 0
-121 -2997 0
-122 -2998 0
-123 -2999 0
-124 -3000 0
-141 -529 0
-142 -530 0
-143 -531 0
-144 -532 0
-149 -633 0
-150 -634 0
-151 -635 0
-152 -636 0
-153 -297 0
-154 -298 0
-155 -299 0
-156 -300 0
-209 -1521 0
-210 -1522 0
-211 -1523 0
-212 -1524 0
-261 -2465 0
-262 -2466 0
-263 -2467 0
-264 -2468 0
-269 -993 0
-270 -994 0
-271 -995 0
-272 -996 0
-381 -3685 0
-382 -3686 0
-383 -3687 0
-384 -3688 0
-425 -4041 0
-426 -4042 0
-427 -4043 0
-428 -4044 0
-445 -1041 0
-446 -1042 0
-447 -1043 0
-448 -1044 0
-457 -541 0
-458 -542 0
-459 -543 0
-460 -544 0
-569 -1849 0
-570 -1850 0
-571 -1851 0
-572 -1852 0
-585 -1381 0
-586 -1382 0
-587 -1383 0
-588 -1384 0
-597 -2809 0
-598 -2810 0
-599 -2811 0
-600 -2812 0
-645 -721 0
-646 -722 0
-647 -723 0
-648 -724 0
-649 -709 0
-650 -710 0
-651 -711 0
-652 -712 0
-781 -897 0
-782 -898 0
-783 -899 0
-784 -900 0
-785 -1025 0
-786 -1026 0
-787 -1027 0
-788 -1028 0
-953 -1745 0
-954 -1746 0
-955 -1747 0
-956 -1748 0
-973 -2945 0
-974 -2946 0
-975 -2947 0
-976 -2948 0
-989 -3397 0
-990 -3398 0
-991 -3399 0
-992 -3400 0
-1073 -3249 0
-1074 -3250 0
-1075 -3251 0
-1076 -3252 0
-1097 -1577 0
-1098 -1578 0
-1099 -1579 0
-1100 -1580 0
-1125 -2805 0
-1126 -2806 0
-1127 -2807 0
-1128 -2808 0
-1205 -1253 0
-1206 -1254 0
-1207 -1255 0
-1208 -1256 0
-1285 -1437 0
-1286 -1438 0
-1287 -1439 0
-1288 -1440 0
-1313 -3525 0
-1314 -3526 0
-1315 -3527 0
-1316 -3528 0
-1393 -2033 0
-1394 -2034 0
-1395 -2035 0
-1396 -2036 0
-1421 -1813 0
-1422 -1814 0
-1423 -1815 0
-1424 -1816 0
-1537 -3565 0
-1538 -3566 0
-1539 -3567 0
-1540 -3568 0
-1605 -3977 0
-1606 -3978 0
-1607 -3979 0
-1608 -3980 0
-1713 -2029 0
-1714 -2030 0
-1715 -2031 0
-1716 -2032 0
-1789 -3945 0
-1790 -3946 0
-1791 -3947 0
-1792 -3948 0
-2289 -2353 0
-2290 -2354 0
-2291 -2355 0
-2292 -2356 0
-2469 -3985 0
-2470 -3986 0
-2471 -3987 0
-2472 -3988 0
-2993 -3665 0
-2994 -3666 0
-2995 -3667 0
-2996 -3668 0
-3281 -3961 0
-3282 -3962 0
-3283 -3963 0
-3284 -3964 0
-3337 -3549 0
-3338 -3550 0
-3339 -3551 0
-3340 -3552 0
-3617 -3913 0
-3618 -3914 0
-3619 -3915 0
-3620 -3916 0
-9 -3229 0
-10 -3230 0
-11 -3231 0
-12 -3232 0
-13 -2793 0
-14 -2794 0
-15 -2795 0
-16 -2796 0
-25 -2553 0
-26 -2554 0
-27 -2555 0
-28 -2556 0
-85 -1869 0
-86 -1870 0
-87 -1871 0
-88 -1872 0
-97 -3321 0
-98 -3322 0
-99 -3323 0
-100 -3324 0
-101 -133 0
-102 -134 0
-103 -135 0
-104 -136 0
-105 -905 0
-106 -906 0
-107 -907 0
-108 -908 0
-125 -2245 0
-126 -2246 0
-127 -2247 0
-128 -2248 0
-145 -2857 0
-146 -2858 0
-147 -2859 0
-148 -2860 0
-149 -3281 0
-150 -3282 0
-151 -3283 0
-152 -3284 0
-193 -3481 0
-194 -3482 0
-195 -3483 0
-196 -3484 0
-225 -1365 0
-226 -1366 0
-227 -1367 0
-228 -1368 0
-233 -1245 0
-234 -1246 0
-235 -1247 0
-236 -1248 0
-237 -1293 0
-238 -1294 0
-239 -1295 0
-240 -1296 0
-309 -1549 0
-310 -1550 0
-311 -1551 0
-312 -1552 0
-365 -525 0
-366 -526 0
-367 -527 0
-368 -528 0
-377 -4077 0
-378 -4078 0
-379 -4079 0
-380 -4080 0
-385 -1001 0
-386 -1002 0
-387 -1003 0
-388 -1004 0
-393 -937 0
-394 -938 0
-395 -939 0
-396 -940 0
-397 -705 0
-398 -706 0
-399 -707 0
-400 -708 0
-413 -2625 0
-414 -2626 0
-415 -2627 0
-416 -2628 0
-509 -1765 0
-510 -1766 0
-511 -1767 0
-512 -1768 0
-513 -2769 0
-514 -2770 0
-515 -2771 0
-516 -2772 0
-589 -2293 0
-590 -2294 0
-591 -2295 0
-592 -2296 0
-601 -3641 0
-602 -3642 0
-603 -3643 0
-604 -3644 0
-613 -1017 0
-614 -1018 0
-615 -1019 0
-616 -1020 0
-633 -3961 0
-634 -3962 0
-635 -3963 0
-636 -3964 0
-641 -3349 0
-642 -3350 0
-643 -3351 0
-644 -3352 0
-693 -881 0
-694 -882 0
-695 -883 0
-696 -884 0
-733 -2409 0
-734 -2410 0
-735 -2411 0
-736 -2412 0
-761 -2629 0
-762 -2630 0
-763 -2631 0
-764 -2632 0
-769 -3149 0
-770 -3150 0
-771 -3151 0
-772 -3152 0
-781 -2677 0
-782 -2678 0
-783 -2679 0
-784 -2680 0
-845 -1197 0
-846 -1198 0
-847 -1199 0
-848 -1200 0
-857 -2437 0
-858 -2438 0
-859 -2439 0
-860 -2440 0
-1009 -2473 0
-1010 -2474 0
-1011 -2475 0
-1012 -2476 0
-1025 -3165 0
-1026 -3166 0
-1027 -3167 0
-1028 -3168 0
-1065 -2541 0
-1066 -2542 0
-1067 -2543 0
-1068 -2544 0
-1073 -1421 0
-1074 -1422 0
-1075 -1423 0
-1076 -1424 0
-1093 -1741 0
-1094 -1742 0
-1095 -1743 0
-1096 -1744 0
-1161 -2585 0
-1162 -2586 0
-1163 -2587 0
-1164 -2588 0
-1225 -2105 0
-1226 -2106 0
-1227 -2107 0
-1228 -2108 0
-1257 -2005 0
-1258 -2006 0
-1259 -2007 0
-1260 -2008 0
-1309 -2081 0
-1310 -2082 0
-1311 -2083 0
-1312 -2084 0
-1349 -2877 0
-1350 -2878 0
-1351 -2879 0
-1352 -2880 0
-1361 -2821 0
-1362 -2822 0
-1363 -2823 0
-1364 -2824 0
-1413 -2757 0
-1414 -2758 0
-1415 -2759 0
-1416 -2760 0
-1441 -3041 0
-1442 -3042 0
-1443 -3043 0
-1444 -3044 0
-1461 -1493 0
-1462 -1494 0
-1463 -1495 0
-1464 -1496 0
-1473 -1921 0
-1474 -1922 0
-1475 -1923 0
-1476 -1924 0
-1509 -1925 0
-1510 -1926 0
-1511 -1927 0
-1512 -1928 0
-1529 -1889 0
-1530 -1890 0
-1531 -1891 0
-1532 -1892 0
-1593 -2273 0
-1594 -2274 0
-1595 -2275 0
-1596 -2276 0
-1597 -2097 0
-1598 -2098 0
-1599 -2099 0
-1600 -2100 0
-1605 -2973 0
-1606 -2974 0
-1607 -2975 0
-1608 -2976 0
-1685 -3233 0
-1686 -3234 0
-1687 -3235 0
-1688 -3236 0
-1873 -2749 0
-1874 -2750 0
-1875 -2751 0
-1876 -2752 0
-1989 -2125 0
-1990 -2126 0
-1991 -2127 0
-1992 -2128 0
-2017 -3885 0
-2018 -3886 0
-2019 -3887 0
-2020 -3888 0
-2113 -3609 0
-2114 -3610 0
-2115 -3611 0
-2116 -3612 0
-2189 -3577 0
-2190 -3578 0
-2191 -3579 0
-2192 -3580 0
-2253 -3921 0
-2254 -3922 0
-2255 -3923 0
-2256 -3924 0
-2501 -3441 0
-2502 -3442 0
-2503 -3443 0
-2504 -3444 0
-2529 -2609 0
-2530 -2610 0
-2531 -2611 0
-2532 -2612 0
-3501 -3849 0
-3502 -3850 0
-3503 -3851 0
-3504 -3852 0
-3673 -3793 0
-3674 -3794 0
-3675 -3795 0
-3676 -3796 0
-3769 -4057 0
-3770 -4058 0
-3771 -4059 0
-3772 -4060 0
-9 -781 0
-10 -782 0
-11 -783 0
-12 -784 0
-13 -25 0
-14 -26 0
-15 -27 0
-16 -28 0
-29 -1289 0
-30 -1290 0
-31 -1291 0
-32 -1292 0
-37 -2873 0
-38 -2874 0
-39 -2875 0
-40 -2876 0
-41 -2085 0
-42 -2086 0
-43 -2087 0
-44 -2088 0
-45 -741 0
-46 -742 0
-47 -743 0
-48 -744 0
-49 -3745 0
-50 -3746 0
-51 -3747 0
-52 -3748 0
-61 -377 0
-62 -378 0
-63 -379 0
-64 -380 0
-85 -385 0
-86 -386 0
-87 -387 0
-88 -388 0
-97 -609 0
-98 -610 0
-99 -611 0
-100 -612 0
-125 -857 0
-126 -858 0
-127 -859 0
-128 -860 0
-141 -157 0
-142 -158 0
-143 -159 0
-144 -160 0
-165 -1029 0
-166 -1030 0
-167 -1031 0
-168 -1032 0
-169 -617 0
-170 -618 0
-171 -619 0
-172 -620 0
-209 -1757 0
-210 -1758 0
-211 -1759 0
-212 -1760 0
-217 -1229 0
-218 -1230 0
-219 -1231 0
-220 -1232 0
-225 -1309 0
-226 -1310 0
-227 -1311 0
-228 -1312 0
-265 -2545 0
-266 -2546 0
-267 -2547 0
-268 -2548 0
-277 -1161 0
-278 -1162 0
-279 -1163 0
-280 -1164 0
-293 -1129 0
-294 -1130 0
-295 -1131 0
-296 -1132 0
-321 -805 0
-322 -806 0
-323 -807 0
-324 -808 0
-337 -1085 0
-338 -1086 0
-339 -1087 0
-340 -1088 0
-409 -829 0
-410 -830 0
-411 -831 0
-412 -832 0
-425 -1385 0
-426 -1386 0
-427 -1387 0
-428 -1388 0
-473 -889 0
-474 -890 0
-475 -891 0
-476 -892 0
-477 -685 0
-478 -686 0
-479 -687 0
-480 -688 0
-489 -893 0
-490 -894 0
-491 -895 0
-492 -896 0
-497 -813 0
-498 -814 0
-499 -815 0
-500 -816 0
-501 -1977 0
-502 -1978 0
-503 -1979 0
-504 -1980 0
-509 -1281 0
-510 -1282 0
-511 -1283 0
-512 -1284 0
-549 -761 0
-550 -762 0
-551 -763 0
-552 -764 0
-561 -2481 0
-562 -2482 0
-563 -2483 0
-564 -2484 0
-573 -921 0
-574 -922 0
-575 -923 0
-576 -924 0
-589 -2189 0
-590 -2190 0
-591 -2191 0
-592 -2192 0
-605 -677 0
-606 -678 0
-607 -679 0
-608 -680 0
-613 -1461 0
-614 -1462 0
-615 -1463 0
-616 -1464 0
-621 -1049 0
-622 -1050 0
-623 -1051 0
-624 -1052 0
-641 -733 0
-642 -734 0
-643 -735 0
-644 -736 0
-713 -3329 0
-714 -3330 0
-715 -3331 0
-716 -3332 0
-745 -1401 0
-746 -1402 0
-747 -1403 0
-748 -1404 0
-793 -1177 0
-794 -1178 0
-795 -1179 0
-796 -1180 0
-841 -1237 0
-842 -1238 0
-843 -1239 0
-844 -1240 0
-873 -885 0
-874 -886 0
-875 -887 0
-876 -888 0
-909 -2885 0
-910 -2886 0
-911 -2887 0
-912 -2888 0
-925 -2877 0
-926 -2878 0
-927 -2879 0
-928 -2880 0
-929 -3453 0
-930 -3454 0
-931 -3455 0
-932 -3456 0
-941 -1465 0
-942 -1466 0
-943 -1467 0
-944 -1468 0
-953 -1097 0
-954 -1098 0
-955 -1099 0
-956 -1100 0
-1017 -1493 0
-1018 -1494 0
-1019 -1495 0
-1020 -1496 0
-1133 -1349 0
-1134 -1350 0
-1135 -1351 0
-1136 -1352 0
-1249 -1929 0
-1250 -1930 0
-1251 -1931 0
-1252 -1932 0
-1353 -2469 0
-1354 -2470 0
-1355 -2471 0
-1356 -2472 0
-1365 -2081 0
-1366 -2082 0
-1367 -2083 0
-1368 -2084 0
-1445 -2181 0
-1446 -2182 0
-1447 -2183 0
-1448 -2184 0
-1457 -1677 0
-1458 -1678 0
-1459 -1679 0
-1460 -1680 0
-1485 -1853 0
-1486 -1854 0
-1487 -1855 0
-1488 -1856 0
-1537 -3289 0
-1538 -3290 0
-1539 -3291 0
-1540 -3292 0
-1553 -3365 0
-1554 -3366 0
-1555 -3367 0
-1556 -3368 0
-1617 -1881 0
-1618 -1882 0
-1619 -1883 0
-1620 -1884 0
-1717 -1769 0
-1718 -1770 0
-1719 -1771 0
-1720 -1772 0
-1761 -2121 0
-1762 -2122 0
-1763 -2123 0
-1764 -2124 0
-1777 -2617 0
-1778 -2618 0
-1779 -2619 0
-1780 -2620 0
-1861 -3737 0
-1862 -3738 0
-1863 -3739 0
-1864 -3740 0
-1865 -2385 0
-1866 -2386 0
-1867 -2387 0
-1868 -2388 0
-1889 -2757 0
-1890 -2758 0
-1891 -2759 0
-1892 -2760 0
-1901 -2989 0
-1902 -2990 0
-1903 -2991 0
-1904 -2992 0
-2001 -2589 0
-2002 -2590 0
-2003 -2591 0
-2004 -2592 0
-2053 -2113 0
-2054 -2114 0
-2055 -2115 0
-2056 -2116 0
-2229 -2593 0
-2230 -2594 0
-2231 -2595 0
-2232 -2596 0
-2245 -2437 0
-2246 -2438 0
-2247 -2439 0
-2248 -2440 0
-2293 -3577 0
-2294 -3578 0
-2295 -3579 0
-2296 -3580 0
-2705 -2777 0
-2706 -2778 0
-2707 -2779 0
-2708 -2780 0
-2729 -3417 0
-2730 -3418 0
-2731 -3419 0
-2732 -3420 0
-2825 -2853 0
-2826 -2854 0
-2827 -2855 0
-2828 -2856 0
-2901 -3381 0
-2902 -3382 0
-2903 -3383 0
-2904 -3384 0
-2933 -3705 0
-2934 -3706 0
-2935 -3707 0
-2936 -3708 0
-3553 -3901 0
-3554 -3902 0
-3555 -3903 0
-3556 -3904 0
-1 -461 0
-2 -462 0
-3 -463 0
-4 -464 0
-29 -169 0
-30 -170 0
-31 -171 0
-32 -172 0
-33 -181 0
-34 -182 0
-35 -183 0
-36 -184 0
-89 -153 0
-90 -154 0
-91 -155 0
-92 -156 0
-93 -297 0
-94 -298 0
-95 -299 0
-96 -300 0
-137 -3029 0
-138 -3030 0
-139 -3031 0
-140 -3032 0
-149 -3957 0
-150 -3958 0
-151 -3959 0
-152 -3960 0
-233 -1093 0
-234 -1094 0
-235 -1095 0
-236 -1096 0
-249 -1041 0
-250 -1042 0
-251 -1043 0
-252 -1044 0
-253 -2725 0
-254 -2726 0
-255 -2727 0
-256 -2728 0
-261 -1169 0
-262 -1170 0
-263 -1171 0
-264 -1172 0
-401 -2281 0
-402 -2282 0
-403 -2283 0
-404 -2284 0
-425 -941 0
-426 -942 0
-427 -943 0
-428 -944 0
-437 -4049 0
-438 -4050 0
-439 -4051 0
-440 -4052 0
-537 -1873 0
-538 -1874 0
-539 -1875 0
-540 -1876 0
-545 -2493 0
-546 -2494 0
-547 -2495 0
-548 -2496 0
-577 -633 0
-578 -634 0
-579 -635 0
-580 -636 0
-629 -749 0
-630 -750 0
-631 -751 0
-632 -752 0
-637 -1213 0
-638 -1214 0
-639 -1215 0
-640 -1216 0
-645 -697 0
-646 -698 0
-647 -699 0
-648 -700 0
-785 -1341 0
-786 -1342 0
-787 -1343 0
-788 -1344 0
-845 -1989 0
-846 -1990 0
-847 -1991 0
-848 -1992 0
-929 -1253 0
-930 -1254 0
-931 -1255 0
-932 -1256 0
-973 -2445 0
-974 -2446 0
-975 -2447 0
-976 -2448 0
-1129 -1161 0
-1130 -1162 0
-1131 -1163 0
-1132 -1164 0
-1197 -2125 0
-1198 -2126 0
-1199 -2127 0
-1200 -2128 0
-1245 -1741 0
-1246 -1742 0
-1247 -1743 0
-1248 -1744 0
-1369 -2805 0
-1370 -2806 0
-1371 -2807 0
-1372 -2808 0
-1385 -1465 0
-1386 -1466 0
-1387 -1467 0
-1388 -1468 0
-1449 -3309 0
-1450 -3310 0
-1451 -3311 0
-1452 -3312 0
-1457 -1665 0
-1458 -1666 0
-1459 -1667 0
-1460 -1668 0
-1601 -2217 0
-1602 -2218 0
-1603 -2219 0
-1604 -2220 0
-1761 -3065 0
-1762 -3066 0
-1763 -3067 0
-1764 -3068 0
-1941 -2177 0
-1942 -2178 0
-1943 -2179 0
-1944 -2180 0
-1965 -2169 0
-1966 -2170 0
-1967 -2171 0
-1968 -2172 0
-2117 -2357 0
-2118 -2358 0
-2119 -2359 0
-2120 -2360 0
-2273 -3449 0
-2274 -3450 0
-2275 -3451 0
-2276 -3452 0
-2473 -4073 0
-2474 -4074 0
-2475 -4075 0
-2476 -4076 0
-2489 -3169 0
-2490 -3170 0
-2491 -3171 0
-2492 -3172 0
-2861 -3681 0
-2862 -3682 0
-2863 -3683 0
-2864 -3684 0
-2905 -3225 0
-2906 -3226 0
-2907 -3227 0
-2908 -3228 0
-3061 -3937 0
-3062 -3938 0
-3063 -3939 0
-3064 -3940 0
-3137 -3465 0
-3138 -3466 0
-3139 -3467 0
-3140 -3468 0
-3777 -3789 0
-3778 -3790 0
-3779 -3791 0
-3780 -3792 0
-25 -1533 0
-26 -1534 0
-27 -1535 0
-28 -1536 0
-37 -41 0
-38 -42 0
-39 -43 0
-40 -44 0
-73 -77 0
-74 -78 0
-75 -79 0
-76 -80 0
-89 -2205 0
-90 -2206 0
-91 -2207 0
-92 -2208 0
-149 -3729 0
-150 -3730 0
-151 -3731 0
-152 -3732 0
-153 -173 0
-154 -174 0
-155 -175 0
-156 -176 0
-213 -593 0
-214 -594 0
-215 -595 0
-216 -596 0
-269 -821 0
-270 -822 0
-271 -823 0
-272 -824 0
-329 -1201 0
-330 -1202 0
-331 -1203 0
-332 -1204 0
-357 -3829 0
-358 -3830 0
-359 -3831 0
-360 -3832 0
-457 -1389 0
-458 -1390 0
-459 -1391 0
-460 -1392 0
-533 -1501 0
-534 -1502 0
-535 -1503 0
-536 -1504 0
-549 -2441 0
-550 -2442 0
-551 -2443 0
-552 -2444 0
-565 -3109 0
-566 -3110 0
-567 -3111 0
-568 -3112 0
-637 -2117 0
-638 -2118 0
-639 -2119 0
-640 -2120 0
-693 -3549 0
-694 -3550 0
-695 -3551 0
-696 -3552 0
-761 -985 0
-762 -986 0
-763 -987 0
-764 -988 0
-769 -1209 0
-770 -1210 0
-771 -1211 0
-772 -1212 0
-785 -1605 0
-786 -1606 0
-787 -1607 0
-788 -1608 0
-877 -1841 0
-878 -1842 0
-879 -1843 0
-880 -1844 0
-901 -3809 0
-902 -3810 0
-903 -3811 0
-904 -3812 0
-925 -2821 0
-926 -2822 0
-927 -2823 0
-928 -2824 0
-1021 -1045 0
-1022 -1046 0
-1023 -1047 0
-1024 -1048 0
-1025 -3977 0
-1026 -3978 0
-1027 -3979 0
-1028 -3980 0
-1073 -3653 0
-1074 -3654 0
-1075 -3655 0
-1076 -3656 0
-1093 -3833 0
-1094 -3834 0
-1095 -3835 0
-1096 -3836 0
-1117 -1693 0
-1118 -1694 0
-1119 -1695 0
-1120 -1696 0
-1133 -1361 0
-1134 -1362 0
-1135 -1363 0
-1136 -1364 0
-1137 -2953 0
-1138 -2954 0
-1139 -2955 0
-1140 -2956 0
-1213 -2357 0
-1214 -2358 0
-1215 -2359 0
-1216 -2360 0
-1241 -2977 0
-1242 -2978 0
-1243 -2979 0
-1244 -2980 0
-1269 -2045 0
-1270 -2046 0
-1271 -2047 0
-1272 -2048 0
-1397 -2145 0
-1398 -2146 0
-1399 -2147 0
-1400 -2148 0
-1449 -3905 0
-1450 -3906 0
-1451 -3907 0
-1452 -3908 0
-1485 -3541 0
-1486 -3542 0
-1487 -3543 0
-1488 -3544 0
-1625 -4017 0
-1626 -4018 0
-1627 -4019 0
-1628 -4020 0
-1749 -3853 0
-1750 -3854 0
-1751 -3855 0
-1752 -3856 0
-1821 -2797 0
-1822 -2798 0
-1823 -2799 0
-1824 -2800 0
-1853 -2581 0
-1854 -2582 0
-1855 -2583 0
-1856 -2584 0
-1893 -2229 0
-1894 -2230 0
-1895 -2231 0
-1896 -2232 0
-2009 -2449 0
-2010 -2450 0
-2011 -2451 0
-2012 -2452 0
-2133 -3153 0
-2134 -3154 0
-2135 -3155 0
-2136 -3156 0
-2241 -3477 0
-2242 -3478 0
-2243 -3479 0
-2244 -3480 0
-2405 -3433 0
-2406 -3434 0
-2407 -3435 0
-2408 -3436 0
-2557 -3645 0
-2558 -3646 0
-2559 -3647 0
-2560 -3648 0
-2861 -3061 0
-2862 -3062 0
-2863 -3063 0
-2864 -3064 0
-3197 -3733 0
-3198 -3734 0
-3199 -3735 0
-3200 -3736 0
-3341 -3625 0
-3342 -3626 0
-3343 -3627 0
-3344 -3628 0
-3413 -3741 0
-3414 -3742 0
-3415 -3743 0
-3416 -3744 0
-3681 -3937 0
-3682 -3938 0
-3683 -3939 0
-3684 -3940 0
-73 -3405 0
-74 -3406 0
-75 -3407 0
-76 -3408 0
-77 -189 0
-78 -190 0
-79 -191 0
-80 -192 0
-97 -3665 0
-98 -3666 0
-99 -3667 0
-100 -3668 0
-101 -1525 0
-102 -1526 0
-103 -1527 0
-104 -1528 0
-125 -145 0
-126 -146 0
-127 -147 0
-128 -148 0
-153 -2749 0
-154 -2750 0
-155 -2751 0
-156 -2752 0
-237 -2309 0
-238 -2310 0
-239 -2311 0
-240 -2312 0
-265 -625 0
-266 -626 0
-267 -627 0
-268 -628 0
-277 -633 0
-278 -634 0
-279 -635 0
-280 -636 0
-293 -577 0
-294 -578 0
-295 -579 0
-296 -580 0
-309 -1345 0
-310 -1346 0
-311 -1347 0
-312 -1348 0
-357 -693 0
-358 -694 0
-359 -695 0
-360 -696 0
-365 -3881 0
-366 -3882 0
-367 -3883 0
-368 -3884 0
-465 -1949 0
-466 -1950 0
-467 -1951 0
-468 -1952 0
-557 -1165 0
-558 -1166 0
-559 -1167 0
-560 -1168 0
-601 -1649 0
-602 -1650 0
-603 -1651 0
-604 -1652 0
-605 -1813 0
-606 -1814 0
-607 -1815 0
-608 -1816 0
-689 -1057 0
-690 -1058 0
-691 -1059 0
-692 -1060 0
-697 -1873 0
-698 -1874 0
-699 -1875 0
-700 -1876 0
-717 -1985 0
-718 -1986 0
-719 -1987 0
-720 -1988 0
-737 -1005 0
-738 -1006 0
-739 -1007 0
-740 -1008 0
-793 -809 0
-794 -810 0
-795 -811 0
-796 -812 0
-845 -1413 0
-846 -1414 0
-847 -1415 0
-848 -1416 0
-945 -1937 0
-946 -1938 0
-947 -1939 0
-948 -1940 0
-977 -2597 0
-978 -2598 0
-979 -2599 0
-980 -2600 0
-981 -1701 0
-982 -1702 0
-983 -1703 0
-984 -1704 0
-1125 -1481 0
-1126 -1482 0
-1127 -1483 0
-1128 -1484 0
-1173 -1281 0
-1174 -1282 0
-1175 -1283 0
-1176 -1284 0
-1197 -2757 0
-1198 -2758 0
-1199 -2759 0
-1200 -2760 0
-1469 -2105 0
-1470 -2106 0
-1471 -2107 0
-1472 -2108 0
-1553 -1737 0
-1554 -1738 0
-1555 -1739 0
-1556 -1740 0
-1581 -1849 0
-1582 -1850 0
-1583 -1851 0
-1584 -1852 0
-1597 -1681 0
-1598 -1682 0
-1599 -1683 0
-1600 -1684 0
-1601 -2389 0
-1602 -2390 0
-1603 -2391 0
-1604 -2392 0
-1617 -3277 0
-1618 -3278 0
-1619 -3279 0
-1620 -3280 0
-1661 -2557 0
-1662 -2558 0
-1663 -2559 0
-1664 -2560 0
-1793 -2325 0
-1794 -2326 0
-1795 -2327 0
-1796 -2328 0
-1805 -2185 0
-1806 -2186 0
-1807 -2187 0
-1808 -2188 0
-1865 -3821 0
-1866 -3822 0
-1867 -3823 0
-1868 -3824 0
-1921 -2081 0
-1922 -2082 0
-1923 -2083 0
-1924 -2084 0
-1933 -2537 0
-1934 -2538 0
-1935 -2539 0
-1936 -2540 0
-1945 -3049 0
-1946 -3050 0
-1947 -3051 0
-1948 -3052 0
-2065 -3801 0
-2066 -3802 0
-2067 -3803 0
-2068 -3804 0
-2225 -2409 0
-2226 -2410 0
-2227 -2411 0
-2228 -2412 0
-2237 -2993 0
-2238 -2994 0
-2239 -2995 0
-2240 -2996 0
-2245 -2857 0
-2246 -2858 0
-2247 -2859 0
-2248 -2860 0
-2473 -2553 0
-2474 -2554 0
-2475 -2555 0
-2476 -2556 0
-2525 -2593 0
-2526 -2594 0
-2527 -2595 0
-2528 -2596 0
-2529 -2781 0
-2530 -2782 0
-2531 -2783 0
-2532 -2784 0
-3113 -3773 0
-3114 -3774 0
-3115 -3775 0
-3116 -3776 0
-3309 -3685 0
-3310 -3686 0
-3311 -3687 0
-3312 -3688 0
-3385 -3581 0
-3386 -3582 0
-3387 -3583 0
-3388 -3584 0
-61 -1809 0
-62 -1810 0
-63 -1811 0
-64 -1812 0
-85 -97 0
-86 -98 0
-87 -99 0
-88 -100 0
-101 -237 0
-102 -238 0
-103 -239 0
-104 -240 0
-109 -121 0
-110 -122 0
-111 -123 0
-112 -124 0
-113 -2997 0
-114 -2998 0
-115 -2999 0
-116 -3000 0
-129 -1505 0
-130 -1506 0
-131 -1507 0
-132 -1508 0
-133 -1293 0
-134 -1294 0
-135 -1295 0
-136 -1296 0
-145 -1973 0
-146 -1974 0
-147 -1975 0
-148 -1976 0
-149 -1193 0
-150 -1194 0
-151 -1195 0
-152 -1196 0
-165 -1981 0
-166 -1982 0
-167 -1983 0
-168 -1984 0
-233 -1441 0
-234 -1442 0
-235 -1443 0
-236 -1444 0
-309 -977 0
-310 -978 0
-311 -979 0
-312 -980 0
-329 -1213 0
-330 -1214 0
-331 -1215 0
-332 -1216 0
-365 -413 0
-366 -414 0
-367 -415 0
-368 -416 0
-385 -609 0
-386 -610 0
-387 -611 0
-388 -612 0
-457 -637 0
-458 -638 0
-459 -639 0
-460 -640 0
-493 -877 0
-494 -878 0
-495 -879 0
-496 -880 0
-525 -2625 0
-526 -2626 0
-527 -2627 0
-528 -2628 0
-569 -1853 0
-570 -1854 0
-571 -1855 0
-572 -1856 0
-581 -1153 0
-582 -1154 0
-583 -1155 0
-584 -1156 0
-597 -2773 0
-598 -2774 0
-599 -2775 0
-600 -2776 0
-669 -761 0
-670 -762 0
-671 -763 0
-672 -764 0
-685 -805 0
-686 -806 0
-687 -807 0
-688 -808 0
-717 -2285 0
-718 -2286 0
-719 -2287 0
-720 -2288 0
-745 -3717 0
-746 -3718 0
-747 -3719 0
-748 -3720 0
-793 -909 0
-794 -910 0
-795 -911 0
-796 -912 0
-813 -893 0
-814 -894 0
-815 -895 0
-816 -896 0
-837 -2589 0
-838 -2590 0
-839 -2591 0
-840 -2592 0
-873 -1409 0
-874 -1410 0
-875 -1411 0
-876 -1412 0
-885 -1121 0
-886 -1122 0
-887 -1123 0
-888 -1124 0
-953 -1833 0
-954 -1834 0
-955 -1835 0
-956 -1836 0
-1013 -3909 0
-1014 -3910 0
-1015 -3911 0
-1016 -3912 0
-1053 -2001 0
-1054 -2002 0
-1055 -2003 0
-1056 -2004 0
-1061 -2177 0
-1062 -2178 0
-1063 -2179 0
-1064 -2180 0
-1149 -2153 0
-1150 -2154 0
-1151 -2155 0
-1152 -2156 0
-1177 -2885 0
-1178 -2886 0
-1179 -2887 0
-1180 -2888 0
-1181 -3557 0
-1182 -3558 0
-1183 -3559 0
-1184 -3560 0
-1201 -2357 0
-1202 -2358 0
-1203 -2359 0
-1204 -2360 0
-1209 -1437 0
-1210 -1438 0
-1211 -1439 0
-1212 -1440 0
-1245 -3041 0
-1246 -3042 0
-1247 -3043 0
-1248 -3044 0
-1249 -3001 0
-1250 -3002 0
-1251 -3003 0
-1252 -3004 0
-1273 -3121 0
-1274 -3122 0
-1275 -3123 0
-1276 -3124 0
-1277 -1941 0
-1278 -1942 0
-1279 -1943 0
-1280 -1944 0
-1317 -3309 0
-1318 -3310 0
-1319 -3311 0
-1320 -3312 0
-1321 -1449 0
-1322 -1450 0
-1323 -1451 0
-1324 -1452 0
-1345 -2597 0
-1346 -2598 0
-1347 -2599 0
-1348 -2600 0
-1361 -1609 0
-1362 -1610 0
-1363 -1611 0
-1364 -1612 0
-1389 -2117 0
-1390 -2118 0
-1391 -2119 0
-1392 -2120 0
-1393 -2989 0
-1394 -2990 0
-1395 -2991 0
-1396 -2992 0
-1405 -1901 0
-1406 -1902 0
-1407 -1903 0
-1408 -1904 0
-1413 -3361 0
-1414 -3362 0
-1415 -3363 0
-1416 -3364 0
-1525 -2309 0
-1526 -2310 0
-1527 -2311 0
-1528 -2312 0
-1541 -3545 0
-1542 -3546 0
-1543 -3547 0
-1544 -3548 0
-1781 -3105 0
-1782 -3106 0
-1783 -3107 0
-1784 -3108 0
-1801 -2101 0
-1802 -2102 0
-1803 -2103 0
-1804 -2104 0
-1821 -2213 0
-1822 -2214 0
-1823 -2215 0
-1824 -2216 0
-1869 -3321 0
-1870 -3322 0
-1871 -3323 0
-1872 -3324 0
-1953 -3765 0
-1954 -3766 0
-1955 -3767 0
-1956 -3768 0
-2049 -3273 0
-2050 -3274 0
-2051 -3275 0
-2052 -3276 0
-2233 -3325 0
-2234 -3326 0
-2235 -3327 0
-2236 -3328 0
-2281 -3029 0
-2282 -3030 0
-2283 -3031 0
-2284 -3032 0
-2377 -3221 0
-2378 -3222 0
-2379 -3223 0
-2380 -3224 0
-2461 -3657 0
-2462 -3658 0
-2463 -3659 0
-2464 -3660 0
-2525 -2549 0
-2526 -2550 0
-2527 -2551 0
-2528 -2552 0
-2613 -3297 0
-2614 -3298 0
-2615 -3299 0
-2616 -3300 0
-2969 -3681 0
-2970 -3682 0
-2971 -3683 0
-2972 -3684 0
-3057 -3965 0
-3058 -3966 0
-3059 -3967 0
-3060 -3968 0
-3369 -3845 0
-3370 -3846 0
-3371 -3847 0
-3372 -3848 0
-3777 -3941 0
-3778 -3942 0
-3779 -3943 0
-3780 -3944 0
-13 -2221 0
-14 -2222 0
-15 -2223 0
-16 -2224 0
-37 -3497 0
-38 -3498 0
-39 -3499 0
-40 -3500 0
-65 -4089 0
-66 -4090 0
-67 -4091 0
-68 -4092 0
-85 -1061 0
-86 -1062 0
-87 -1063 0
-88 -1064 0
-97 -2177 0
-98 -2178 0
-99 -2179 0
-100 -2180 0
-125 -969 0
-126 -970 0
-127 -971 0
-128 -972 0
-233 -3377 0
-234 -3378 0
-235 -3379 0
-236 -3380 0
-321 -2097 0
-322 -2098 0
-323 -2099 0
-324 -2100 0
-373 -3433 0
-374 -3434 0
-375 -3435 0
-376 -3436 0
-509 -3533 0
-510 -3534 0
-511 -3535 0
-512 -3536 0
-565 -2585 0
-566 -2586 0
-567 -2587 0
-568 -2588 0
-605 -2125 0
-606 -2126 0
-607 -2127 0
-608 -2128 0
-737 -1469 0
-738 -1470 0
-739 -1471 0
-740 -1472 0
-849 -1925 0
-850 -1926 0
-851 -1927 0
-852 -1928 0
-925 -1837 0
-926 -1838 0
-927 -1839 0
-928 -1840 0
-1005 -2105 0
-1006 -2106 0
-1007 -2107 0
-1008 -2108 0
-1021 -3241 0
-1022 -3242 0
-1023 -3243 0
-1024 -3244 0
-1073 -1929 0
-1074 -1930 0
-1075 -1931 0
-1076 -1932 0
-1241 -1733 0
-1242 -1734 0
-1243 -1735 0
-1244 -1736 0
-1333 -2889 0
-1334 -2890 0
-1335 -2891 0
-1336 -2892 0
-1425 -3437 0
-1426 -3438 0
-1427 -3439 0
-1428 -3440 0
-1485 -2541 0
-1486 -2542 0
-1487 -2543 0
-1488 -2544 0
-1529 -1693 0
-1530 -1694 0
-1531 -1695 0
-1532 -1696 0
-1857 -3233 0
-1858 -3234 0
-1859 -3235 0
-1860 -3236 0
-1885 -2553 0
-1886 -2554 0
-1887 -2555 0
-1888 -2556 0
-2185 -3453 0
-2186 -3454 0
-2187 -3455 0
-2188 -3456 0
-2557 -3609 0
-2558 -3610 0
-2559 -3611 0
-2560 -3612 0
-2765 -3161 0
-2766 -3162 0
-2767 -3163 0
-2768 -3164 0
-3245 -3337 0
-3246 -3338 0
-3247 -3339 0
-3248 -3340 0
-1 -353 0
-2 -354 0
-3 -355 0
-4 -356 0
-5 -1357 0
-6 -1358 0
-7 -1359 0
-8 -1360 0
-9 -1033 0
-10 -1034 0
-11 -1035 0
-12 -1036 0
-17 -2413 0
-18 -2414 0
-19 -2415 0
-20 -2416 0
-29 -1697 0
-30 -1698 0
-31 -1699 0
-32 -1700 0
-45 -1753 0
-46 -1754 0
-47 -1755 0
-48 -1756 0
-49 -53 0
-50 -54 0
-51 -55 0
-52 -56 0
-61 -3749 0
-62 -3750 0
-63 -3751 0
-64 -3752 0
-125 -737 0
-126 -738 0
-127 -739 0
-128 -740 0
-129 -133 0
-130 -134 0
-131 -135 0
-132 -136 0
-145 -1005 0
-146 -1006 0
-147 -1007 0
-148 -1008 0
-149 -2089 0
-150 -2090 0
-151 -2091 0
-152 -2092 0
-165 -3809 0
-166 -3810 0
-167 -3811 0
-168 -3812 0
-213 -1853 0
-214 -1854 0
-215 -1855 0
-216 -1856 0
-217 -901 0
-218 -902 0
-219 -903 0
-220 -904 0
-225 -713 0
-226 -714 0
-227 -715 0
-228 -716 0
-253 -705 0
-254 -706 0
-255 -707 0
-256 -708 0
-265 -2025 0
-266 -2026 0
-267 -2027 0
-268 -2028 0
-269 -569 0
-270 -570 0
-271 -571 0
-272 -572 0
-277 -2493 0
-278 -2494 0
-279 -2495 0
-280 -2496 0
-293 -545 0
-294 -546 0
-295 -547 0
-296 -548 0
-369 -765 0
-370 -766 0
-371 -767 0
-372 -768 0
-493 -837 0
-494 -838 0
-495 -839 0
-496 -840 0
-501 -1513 0
-502 -1514 0
-503 -1515 0
-504 -1516 0
-537 -1113 0
-538 -1114 0
-539 -1115 0
-540 -1116 0
-593 -2581 0
-594 -2582 0
-595 -2583 0
-596 -2584 0
-629 -2569 0
-630 -2570 0
-631 -2571 0
-632 -2572 0
-661 -4013 0
-662 -4014 0
-663 -4015 0
-664 -4016 0
-669 -685 0
-670 -686 0
-671 -687 0
-672 -688 0
-681 -1337 0
-682 -1338 0
-683 -1339 0
-684 -1340 0
-721 -1425 0
-722 -1426 0
-723 -1427 0
-724 -1428 0
-733 -829 0
-734 -830 0
-735 -831 0
-736 -832 0
-761 -805 0
-762 -806 0
-763 -807 0
-764 -808 0
-773 -1049 0
-774 -1050 0
-775 -1051 0
-776 -1052 0
-845 -2065 0
-846 -2066 0
-847 -2067 0
-848 -2068 0
-849 -1885 0
-850 -1886 0
-851 -1887 0
-852 -1888 0
-869 -2013 0
-870 -2014 0
-871 -2015 0
-872 -2016 0
-877 -2589 0
-878 -2590 0
-879 -2591 0
-880 -2592 0
-969 -1469 0
-970 -1470 0
-971 -1471 0
-972 -1472 0
-993 -1849 0
-994 -1850 0
-995 -1851 0
-996 -1852 0
-1021 -1485 0
-1022 -1486 0
-1023 -1487 0
-1024 -1488 0
-1045 -3541 0
-1046 -3542 0
-1047 -3543 0
-1048 -3544 0
-1117 -1397 0
-1118 -1398 0
-1119 -1399 0
-1120 -1400 0
-1137 -1157 0
-1138 -1158 0
-1139 -1159 0
-1140 -1160 0
-1141 -2389 0
-1142 -2390 0
-1143 -2391 0
-1144 -2392 0
-1185 -2713 0
-1186 -2714 0
-1187 -2715 0
-1188 -2716 0
-1249 -1541 0
-1250 -1542 0
-1251 -1543 0
-1252 -1544 0
-1265 -3357 0
-1266 -3358 0
-1267 -3359 0
-1268 -3360 0
-1309 -3329 0
-1310 -3330 0
-1311 -3331 0
-1312 -3332 0
-1353 -4009 0
-1354 -4010 0
-1355 -4011 0
-1356 -4012 0
-1413 -3801 0
-1414 -3802 0
-1415 -3803 0
-1416 -3804 0
-1433 -1705 0
-1434 -1706 0
-1435 -1707 0
-1436 -1708 0
-1529 -3813 0
-1530 -3814 0
-1531 -3815 0
-1532 -3816 0
-1537 -1601 0
-1538 -1602 0
-1539 -1603 0
-1540 -1604 0
-1593 -2321 0
-1594 -2322 0
-1595 -2323 0
-1596 -2324 0
-1613 -2129 0
-1614 -2130 0
-1615 -2131 0
-1616 -2132 0
-1621 -3577 0
-1622 -3578 0
-1623 -3579 0
-1624 -3580 0
-1693 -2145 0
-1694 -2146 0
-1695 -2147 0
-1696 -2148 0
-1893 -2037 0
-1894 -2038 0
-1895 -2039 0
-1896 -2040 0
-1905 -2189 0
-1906 -2190 0
-1907 -2191 0
-1908 -2192 0
-1925 -2553 0
-1926 -2554 0
-1927 -2555 0
-1928 -2556 0
-2069 -3805 0
-2070 -3806 0
-2071 -3807 0
-2072 -3808 0
-2137 -2433 0
-2138 -2434 0
-2139 -2435 0
-2140 -2436 0
-2461 -3053 0
-2462 -3054 0
-2463 -3055 0
-2464 -3056 0
-2645 -3345 0
-2646 -3346 0
-2647 -3347 0
-2648 -3348 0
-2745 -2801 0
-2746 -2802 0
-2747 -2803 0
-2748 -2804 0
-2905 -2913 0
-2906 -2914 0
-2907 -2915 0
-2908 -2916 0
-3001 -3545 0
-3002 -3546 0
-3003 -3547 0
-3004 -3548 0
-37 -97 0
-38 -98 0
-39 -99 0
-40 -100 0
-133 -3109 0
-134 -3110 0
-135 -3111 0
-136 -3112 0
-213 -1973 0
-214 -1974 0
-215 -1975 0
-216 -1976 0
-233 -509 0
-234 -510 0
-235 -511 0
-236 -512 0
-253 -501 0
-254 -502 0
-255 -503 0
-256 -504 0
-397 -1737 0
-398 -1738 0
-399 -1739 0
-400 -1740 0
-469 -1037 0
-470 -1038 0
-471 -1039 0
-472 -1040 0
-569 -1005 0
-570 -1006 0
-571 -1007 0
-572 -1008 0
-581 -777 0
-582 -778 0
-583 -779 0
-584 -780 0
-645 -2061 0
-646 -2062 0
-647 -2063 0
-648 -2064 0
-657 -3033 0
-658 -3034 0
-659 -3035 0
-660 -3036 0
-705 -1513 0
-706 -1514 0
-707 -1515 0
-708 -1516 0
-717 -2261 0
-718 -2262 0
-719 -2263 0
-720 -2264 0
-785 -2685 0
-786 -2686 0
-787 -2687 0
-788 -2688 0
-825 -1521 0
-826 -1522 0
-827 -1523 0
-828 -1524 0
-1065 -1609 0
-1066 -1610 0
-1067 -1611 0
-1068 -1612 0
-1117 -2945 0
-1118 -2946 0
-1119 -2947 0
-1120 -2948 0
-1245 -1765 0
-1246 -1766 0
-1247 -1767 0
-1248 -1768 0
-1257 -1961 0
-1258 -1962 0
-1259 -1963 0
-1260 -1964 0
-1317 -2805 0
-1318 -2806 0
-1319 -2807 0
-1320 -2808 0
-1321 -1369 0
-1322 -1370 0
-1323 -1371 0
-1324 -1372 0
-1397 -2465 0
-1398 -2466 0
-1399 -2467 0
-1400 -2468 0
-1453 -3265 0
-1454 -3266 0
-1455 -3267 0
-1456 -3268 0
-1713 -2765 0
-1714 -2766 0
-1715 -2767 0
-1716 -2768 0
-1857 -3013 0
-1858 -3014 0
-1859 -3015 0
-1860 -3016 0
-1993 -2337 0
-1994 -2338 0
-1995 -2339 0
-1996 -2340 0
-2009 -3301 0
-2010 -3302 0
-2011 -3303 0
-2012 -3304 0
-2053 -3677 0
-2054 -3678 0
-2055 -3679 0
-2056 -3680 0
-2505 -3393 0
-2506 -3394 0
-2507 -3395 0
-2508 -3396 0
-2613 -3977 0
-2614 -3978 0
-2615 -3979 0
-2616 -3980 0
-2769 -3937 0
-2770 -3938 0
-2771 -3939 0
-2772 -3940 0
-2825 -3237 0
-2826 -3238 0
-2827 -3239 0
-2828 -3240 0
-3093 -3261 0
-3094 -3262 0
-3095 -3263 0
-3096 -3264 0
-3149 -3961 0
-3150 -3962 0
-3151 -3963 0
-3152 -3964 0
-3377 -3533 0
-3378 -3534 0
-3379 -3535 0
-3380 -3536 0
-3493 -3717 0
-3494 -3718 0
-3495 -3719 0
-3496 -3720 0
-3505 -3729 0
-3506 -3730 0
-3507 -3731 0
-3508 -3732 0
-3569 -3613 0
-3570 -3614 0
-3571 -3615 0
-3572 -3616 0
-9 -1217 0
-10 -1218 0
-11 -1219 0
-12 -1220 0
-13 -1665 0
-14 -1666 0
-15 -1667 0
-16 -1668 0
-17 -3869 0
-18 -3870 0
-19 -3871 0
-20 -3872 0
-29 -41 0
-30 -42 0
-31 -43 0
-32 -44 0
-33 -205 0
-34 -206 0
-35 -207 0
-36 -208 0
-53 -1773 0
-54 -1774 0
-55 -1775 0
-56 -1776 0
-69 -81 0
-70 -82 0
-71 -83 0
-72 -84 0
-73 -1489 0
-74 -1490 0
-75 -1491 0
-76 -1492 0
-93 -653 0
-94 -654 0
-95 -655 0
-96 -656 0
-125 -3225 0
-126 -3226 0
-127 -3227 0
-128 -3228 0
-249 -809 0
-250 -810 0
-251 -811 0
-252 -812 0
-257 -1077 0
-258 -1078 0
-259 -1079 0
-260 -1080 0
-321 -1725 0
-322 -1726 0
-323 -1727 0
-324 -1728 0
-409 -573 0
-410 -574 0
-411 -575 0
-412 -576 0
-457 -1393 0
-458 -1394 0
-459 -1395 0
-460 -1396 0
-489 -909 0
-490 -910 0
-491 -911 0
-492 -912 0
-497 -793 0
-498 -794 0
-499 -795 0
-500 -796 0
-541 -2033 0
-542 -2034 0
-543 -2035 0
-544 -2036 0
-545 -2025 0
-546 -2026 0
-547 -2027 0
-548 -2028 0
-553 -1677 0
-554 -1678 0
-555 -1679 0
-556 -1680 0
-565 -3461 0
-566 -3462 0
-567 -3463 0
-568 -3464 0
-577 -625 0
-578 -626 0
-579 -627 0
-580 -628 0
-597 -1097 0
-598 -1098 0
-599 -1099 0
-600 -1100 0
-637 -2989 0
-638 -2990 0
-639 -2991 0
-640 -2992 0
-713 -2689 0
-714 -2690 0
-715 -2691 0
-716 -2692 0
-737 -1969 0
-738 -1970 0
-739 -1971 0
-740 -1972 0
-785 -3785 0
-786 -3786 0
-787 -3787 0
-788 -3788 0
-813 -1177 0
-814 -1178 0
-815 -1179 0
-816 -1180 0
-829 -921 0
-830 -922 0
-831 -923 0
-832 -924 0
-893 -2885 0
-894 -2886 0
-895 -2887 0
-896 -2888 0
-925 -1741 0
-926 -1742 0
-927 -1743 0
-928 -1744 0
-1129 -2545 0
-1130 -2546 0
-1131 -2547 0
-1132 -2548 0
-1181 -1421 0
-1182 -1422 0
-1183 -1423 0
-1184 -1424 0
-1273 -2169 0
-1274 -2170 0
-1275 -2171 0
-1276 -2172 0
-1289 -2085 0
-1290 -2086 0
-1291 -2087 0
-1292 -2088 0
-1305 -1457 0
-1306 -1458 0
-1307 -1459 0
-1308 -1460 0
-1321 -1405 0
-1322 -1406 0
-1323 -1407 0
-1324 -1408 0
-1361 -3833 0
-1362 -3834 0
-1363 -3835 0
-1364 -3836 0
-1385 -1757 0
-1386 -1758 0
-1387 -1759 0
-1388 -1760 0
-1425 -3797 0
-1426 -3798 0
-1427 -3799 0
-1428 -3800 0
-1449 -1901 0
-1450 -1902 0
-1451 -1903 0
-1452 -1904 0
-1529 -1845 0
-1530 -1846 0
-1531 -1847 0
-1532 -1848 0
-1545 -2257 0
-1546 -2258 0
-1547 -2259 0
-1548 -2260 0
-1585 -1629 0
-1586 -1630 0
-1587 -1631 0
-1588 -1632 0
-1605 -3337 0
-1606 -3338 0
-1607 -3339 0
-1608 -3340 0
-1713 -2853 0
-1714 -2854 0
-1715 -2855 0
-1716 -2856 0
-1733 -1929 0
-1734 -1930 0
-1735 -1931 0
-1736 -1932 0
-1825 -3129 0
-1826 -3130 0
-1827 -3131 0
-1828 -3132 0
-2001 -4061 0
-2002 -4062 0
-2003 -4063 0
-2004 -4064 0
-2013 -2637 0
-2014 -2638 0
-2015 -2639 0
-2016 -2640 0
-2049 -3369 0
-2050 -3370 0
-2051 -3371 0
-2052 -3372 0
-2253 -3501 0
-2254 -3502 0
-2255 -3503 0
-2256 -3504 0
-2377 -3245 0
-2378 -3246 0
-2379 -3247 0
-2380 -3248 0
-2601 -2993 0
-2602 -2994 0
-2603 -2995 0
-2604 -2996 0
-2977 -3653 0
-2978 -3654 0
-2979 -3655 0
-2980 -3656 0
-3261 -3629 0
-3262 -3630 0
-3263 -3631 0
-3264 -3632 0
-3273 -3845 0
-3274 -3846 0
-3275 -3847 0
-3276 -3848 0
-3385 -3429 0
-3386 -3430 0
-3387 -3431 0
-3388 -3432 0
-3733 -3825 0
-3734 -3826 0
-3735 -3827 0
-3736 -3828 0
-85 -349 0
-86 -350 0
-87 -351 0
-88 -352 0
-89 -637 0
-90 -638 0
-91 -639 0
-92 -640 0
-101 -2189 0
-102 -2190 0
-103 -2191 0
-104 -2192 0
-105 -1049 0
-106 -1050 0
-107 -1051 0
-108 -1052 0
-129 -1621 0
-130 -1622 0
-131 -1623 0
-132 -1624 0
-133 -3577 0
-134 -3578 0
-135 -3579 0
-136 -3580 0
-145 -897 0
-146 -898 0
-147 -899 0
-148 -900 0
-153 -1213 0
-154 -1214 0
-155 -1215 0
-156 -1216 0
-173 -2357 0
-174 -2358 0
-175 -2359 0
-176 -2360 0
-209 -2153 0
-210 -2154 0
-211 -2155 0
-212 -2156 0
-225 -861 0
-226 -862 0
-227 -863 0
-228 -864 0
-249 -541 0
-250 -542 0
-251 -543 0
-252 -544 0
-265 -2837 0
-266 -2838 0
-267 -2839 0
-268 -2840 0
-309 -1461 0
-310 -1462 0
-311 -1463 0
-312 -1464 0
-325 -3361 0
-326 -3362 0
-327 -3363 0
-328 -3364 0
-341 -617 0
-342 -618 0
-343 -619 0
-344 -620 0
-365 -589 0
-366 -590 0
-367 -591 0
-368 -592 0
-393 -773 0
-394 -774 0
-395 -775 0
-396 -776 0
-401 -3801 0
-402 -3802 0
-403 -3803 0
-404 -3804 0
-409 -1425 0
-410 -1426 0
-411 -1427 0
-412 -1428 0
-477 -1581 0
-478 -1582 0
-479 -1583 0
-480 -1584 0
-517 -621 0
-518 -622 0
-519 -623 0
-520 -624 0
-521 -1905 0
-522 -1906 0
-523 -1907 0
-524 -1908 0
-525 -2293 0
-526 -2294 0
-527 -2295 0
-528 -2296 0
-573 -3797 0
-574 -3798 0
-575 -3799 0
-576 -3800 0
-641 -721 0
-642 -722 0
-643 -723 0
-644 -724 0
-729 -1413 0
-730 -1414 0
-731 -1415 0
-732 -1416 0
-745 -797 0
-746 -798 0
-747 -799 0
-748 -800 0
-809 -2033 0
-810 -2034 0
-811 -2035 0
-812 -2036 0
-817 -2929 0
-818 -2930 0
-819 -2931 0
-820 -2932 0
-913 -1109 0
-914 -1110 0
-915 -1111 0
-916 -1112 0
-953 -2769 0
-954 -2770 0
-955 -2771 0
-956 -2772 0
-961 -1009 0
-962 -1010 0
-963 -1011 0
-964 -1012 0
-969 -3445 0
-970 -3446 0
-971 -3447 0
-972 -3448 0
-989 -3965 0
-990 -3966 0
-991 -3967 0
-992 -3968 0
-1125 -3561 0
-1126 -3562 0
-1127 -3563 0
-1128 -3564 0
-1245 -2489 0
-1246 -2490 0
-1247 -2491 0
-1248 -2492 0
-1273 -2029 0
-1274 -2030 0
-1275 -2031 0
-1276 -2032 0
-1341 -3705 0
-1342 -3706 0
-1343 -3707 0
-1344 -3708 0
-1421 -2965 0
-1422 -2966 0
-1423 -2967 0
-1424 -2968 0
-1457 -3469 0
-1458 -3470 0
-1459 -3471 0
-1460 -3472 0
-1601 -3117 0
-1602 -3118 0
-1603 -3119 0
-1604 -3120 0
-1649 -2309 0
-1650 -2310 0
-1651 -2311 0
-1652 -2312 0
-1661 -2681 0
-1662 -2682 0
-1663 -2683 0
-1664 -2684 0
-1741 -3169 0
-1742 -3170 0
-1743 -3171 0
-1744 -3172 0
-1761 -3137 0
-1762 -3138 0
-1763 -3139 0
-1764 -3140 0
-1777 -3769 0
-1778 -3770 0
-1779 -3771 0
-1780 -3772 0
-1933 -2669 0
-1934 -2670 0
-1935 -2671 0
-1936 -2672 0
-1965 -2185 0
-1966 -2186 0
-1967 -2187 0
-1968 -2188 0
-2109 -2865 0
-2110 -2866 0
-2111 -2867 0
-2112 -2868 0
-2141 -3145 0
-2142 -3146 0
-2143 -3147 0
-2144 -3148 0
-2173 -4065 0
-2174 -4066 0
-2175 -4067 0
-2176 -4068 0
-2233 -3781 0
-2234 -3782 0
-2235 -3783 0
-2236 -3784 0
-2237 -2285 0
-2238 -2286 0
-2239 -2287 0
-2240 -2288 0
-2377 -3285 0
-2378 -3286 0
-2379 -3287 0
-2380 -3288 0
-2825 -3253 0
-2826 -3254 0
-2827 -3255 0
-2828 -3256 0
-3065 -3465 0
-3066 -3466 0
-3067 -3467 0
-3068 -3468 0
-3213 -3457 0
-3214 -3458 0
-3215 -3459 0
-3216 -3460 0
-3225 -3649 0
-3226 -3650 0
-3227 -3651 0
-3228 -3652 0
-21 -185 0
-22 -186 0
-23 -187 0
-24 -188 0
-37 -381 0
-38 -382 0
-39 -383 0
-40 -384 0
-41 -301 0
-42 -302 0
-43 -303 0
-44 -304 0
-61 -1297 0
-62 -1298 0
-63 -1299 0
-64 -1300 0
-65 -2265 0
-66 -2266 0
-67 -2267 0
-68 -2268 0
-85 -1481 0
-86 -1482 0
-87 -1483 0
-88 -1484 0
-101 -105 0
-102 -106 0
-103 -107 0
-104 -108 0
-117 -121 0
-118 -122 0
-119 -123 0
-120 -124 0
-125 -1497 0
-126 -1498 0
-127 -1499 0
-128 -1500 0
-129 -937 0
-130 -938 0
-131 -939 0
-132 -940 0
-133 -905 0
-134 -906 0
-135 -907 0
-136 -908 0
-157 -1957 0
-158 -1958 0
-159 -1959 0
-160 -1960 0
-161 -2021 0
-162 -2022 0
-163 -2023 0
-164 -2024 0
-169 -3081 0
-170 -3082 0
-171 -3083 0
-172 -3084 0
-257 -3193 0
-258 -3194 0
-259 -3195 0
-260 -3196 0
-277 -941 0
-278 -942 0
-279 -943 0
-280 -944 0
-293 -425 0
-294 -426 0
-295 -427 0
-296 -428 0
-313 -1669 0
-314 -1670 0
-315 -1671 0
-316 -1672 0
-321 -2001 0
-322 -2002 0
-323 -2003 0
-324 -2004 0
-349 -1381 0
-350 -1382 0
-351 -1383 0
-352 -1384 0
-365 -517 0
-366 -518 0
-367 -519 0
-368 -520 0
-373 -501 0
-374 -502 0
-375 -503 0
-376 -504 0
-385 -1165 0
-386 -1166 0
-387 -1167 0
-388 -1168 0
-465 -1657 0
-466 -1658 0
-467 -1659 0
-468 -1660 0
-477 -1053 0
-478 -1054 0
-479 -1055 0
-480 -1056 0
-497 -1101 0
-498 -1102 0
-499 -1103 0
-500 -1104 0
-513 -3693 0
-514 -3694 0
-515 -3695 0
-516 -3696 0
-549 -3325 0
-550 -3326 0
-551 -3327 0
-552 -3328 0
-573 -2425 0
-574 -2426 0
-575 -2427 0
-576 -2428 0
-589 -621 0
-590 -622 0
-591 -623 0
-592 -624 0
-641 -3077 0
-642 -3078 0
-643 -3079 0
-644 -3080 0
-685 -837 0
-686 -838 0
-687 -839 0
-688 -840 0
-693 -2749 0
-694 -2750 0
-695 -2751 0
-696 -2752 0
-733 -917 0
-734 -918 0
-735 -919 0
-736 -920 0
-761 -877 0
-762 -878 0
-763 -879 0
-764 -880 0
-793 -953 0
-794 -954 0
-795 -955 0
-796 -956 0
-801 -1045 0
-802 -1046 0
-803 -1047 0
-804 -1048 0
-805 -2589 0
-806 -2590 0
-807 -2591 0
-808 -2592 0
-833 -2233 0
-834 -2234 0
-835 -2235 0
-836 -2236 0
-857 -997 0
-858 -998 0
-859 -999 0
-860 -1000 0
-873 -1125 0
-874 -1126 0
-875 -1127 0
-876 -1128 0
-893 -2773 0
-894 -2774 0
-895 -2775 0
-896 -2776 0
-909 -1833 0
-910 -1834 0
-911 -1835 0
-912 -1836 0
-977 -1193 0
-978 -1194 0
-979 -1195 0
-980 -1196 0
-985 -1841 0
-986 -1842 0
-987 -1843 0
-988 -1844 0
-1017 -2793 0
-1018 -2794 0
-1019 -2795 0
-1020 -2796 0
-1089 -2561 0
-1090 -2562 0
-1091 -2563 0
-1092 -2564 0
-1129 -1385 0
-1130 -1386 0
-1131 -1387 0
-1132 -1388 0
-1137 -2137 0
-1138 -2138 0
-1139 -2139 0
-1140 -2140 0
-1145 -3805 0
-1146 -3806 0
-1147 -3807 0
-1148 -3808 0
-1157 -2433 0
-1158 -2434 0
-1159 -2435 0
-1160 -2436 0
-1161 -1465 0
-1162 -1466 0
-1163 -1467 0
-1164 -1468 0
-1173 -2181 0
-1174 -2182 0
-1175 -2183 0
-1176 -2184 0
-1185 -3617 0
-1186 -3618 0
-1187 -3619 0
-1188 -3620 0
-1329 -1445 0
-1330 -1446 0
-1331 -1447 0
-1332 -1448 0
-1353 -3873 0
-1354 -3874 0
-1355 -3875 0
-1356 -3876 0
-1473 -2429 0
-1474 -2430 0
-1475 -2431 0
-1476 -2432 0
-1493 -2553 0
-1494 -2554 0
-1495 -2555 0
-1496 -2556 0
-1517 -2649 0
-1518 -2650 0
-1519 -2651 0
-1520 -2652 0
-1549 -3281 0
-1550 -3282 0
-1551 -3283 0
-1552 -3284 0
-1617 -3229 0
-1618 -3230 0
-1619 -3231 0
-1620 -3232 0
-1641 -4045 0
-1642 -4046 0
-1643 -4047 0
-1644 -4048 0
-1725 -4061 0
-1726 -4062 0
-1727 -4063 0
-1728 -4064 0
-1785 -2517 0
-1786 -2518 0
-1787 -2519 0
-1788 -2520 0
-1805 -2005 0
-1806 -2006 0
-1807 -2007 0
-1808 -2008 0
-1881 -2677 0
-1882 -2678 0
-1883 -2679 0
-1884 -2680 0
-2017 -3585 0
-2018 -3586 0
-2019 -3587 0
-2020 -3588 0
-2253 -2601 0
-2254 -2602 0
-2255 -2603 0
-2256 -2604 0
-2297 -2353 0
-2298 -2354 0
-2299 -2355 0
-2300 -2356 0
-2929 -3685 0
-2930 -3686 0
-2931 -3687 0
-2932 -3688 0
-3137 -4057 0
-3138 -4058 0
-3139 -4059 0
-3140 -4060 0
-3257 -3893 0
-3258 -3894 0
-3259 -3895 0
-3260 -3896 0
-3273 -3557 0
-3274 -3558 0
-3275 -3559 0
-3276 -3560 0
-13 -3605 0
-14 -3606 0
-15 -3607 0
-16 -3608 0
-93 -137 0
-94 -138 0
-95 -139 0
-96 -140 0
-129 -3337 0
-130 -3338 0
-131 -3339 0
-132 -3340 0
-249 -401 0
-250 -402 0
-251 -403 0
-252 -404 0
-273 -2197 0
-274 -2198 0
-275 -2199 0
-276 -2200 0
-297 -3029 0
-298 -3030 0
-299 -3031 0
-300 -3032 0
-345 -4077 0
-346 -4078 0
-347 -4079 0
-348 -4080 0
-369 -1605 0
-370 -1606 0
-371 -1607 0
-372 -1608 0
-489 -2393 0
-490 -2394 0
-491 -2395 0
-492 -2396 0
-533 -2853 0
-534 -2854 0
-535 -2855 0
-536 -2856 0
-541 -3801 0
-542 -3802 0
-543 -3803 0
-544 -3804 0
-549 -601 0
-550 -602 0
-551 -603 0
-552 -604 0
-605 -1969 0
-606 -1970 0
-607 -1971 0
-608 -1972 0
-633 -3393 0
-634 -3394 0
-635 -3395 0
-636 -3396 0
-693 -921 0
-694 -922 0
-695 -923 0
-696 -924 0
-721 -889 0
-722 -890 0
-723 -891 0
-724 -892 0
-769 -2505 0
-770 -2506 0
-771 -2507 0
-772 -2508 0
-833 -981 0
-834 -982 0
-835 -983 0
-836 -984 0
-849 -2993 0
-850 -2994 0
-851 -2995 0
-852 -2996 0
-925 -2089 0
-926 -2090 0
-927 -2091 0
-928 -2092 0
-993 -1525 0
-994 -1526 0
-995 -1527 0
-996 -1528 0
-1017 -2025 0
-1018 -2026 0
-1019 -2027 0
-1020 -2028 0
-1041 -2281 0
-1042 -2282 0
-1043 -2283 0
-1044 -2284 0
-1109 -1281 0
-1110 -1282 0
-1111 -1283 0
-1112 -1284 0
-1117 -3377 0
-1118 -3378 0
-1119 -3379 0
-1120 -3380 0
-1181 -3053 0
-1182 -3054 0
-1183 -3055 0
-1184 -3056 0
-1261 -2605 0
-1262 -2606 0
-1263 -2607 0
-1264 -2608 0
-1317 -1541 0
-1318 -1542 0
-1319 -1543 0
-1320 -1544 0
-1365 -3645 0
-1366 -3646 0
-1367 -3647 0
-1368 -3648 0
-1617 -2913 0
-1618 -2914 0
-1619 -2915 0
-1620 -2916 0
-1621 -2085 0
-1622 -2086 0
-1623 -2087 0
-1624 -2088 0
-1933 -2937 0
-1934 -2938 0
-1935 -2939 0
-1936 -2940 0
-2017 -3005 0
-2018 -3006 0
-2019 -3007 0
-2020 -3008 0
-2029 -3329 0
-2030 -3330 0
-2031 -3331 0
-2032 -3332 0
-2057 -2689 0
-2058 -2690 0
-2059 -2691 0
-2060 -2692 0
-2273 -3381 0
-2274 -3382 0
-2275 -3383 0
-2276 -3384 0
-2301 -3269 0
-2302 -3270 0
-2303 -3271 0
-2304 -3272 0
-2365 -3517 0
-2366 -3518 0
-2367 -3519 0
-2368 -3520 0
-2405 -2545 0
-2406 -2546 0
-2407 -2547 0
-2408 -2548 0
-2929 -3797 0
-2930 -3798 0
-2931 -3799 0
-2932 -3800 0
-2945 -3533 0
-2946 -3534 0
-2947 -3535 0
-2948 -3536 0
-3021 -3729 0
-3022 -3730 0
-3023 -3731 0
-3024 -3732 0
-3309 -3545 0
-3310 -3546 0
-3311 -3547 0
-3312 -3548 0
-1 -2221 0
-2 -2222 0
-3 -2223 0
-4 -2224 0
-9 -13 0
-10 -14 0
-11 -15 0
-12 -16 0
-33 -2465 0
-34 -2466 0
-35 -2467 0
-36 -2468 0
-69 -3341 0
-70 -3342 0
-71 -3343 0
-72 -3344 0
-89 -701 0
-90 -702 0
-91 -703 0
-92 -704 0
-109 -1013 0
-110 -1014 0
-111 -1015 0
-112 -1016 0
-121 -3909 0
-122 -3910 0
-123 -3911 0
-124 -3912 0
-125 -277 0
-126 -278 0
-127 -279 0
-128 -280 0
-129 -749 0
-130 -750 0
-131 -751 0
-132 -752 0
-141 -421 0
-142 -422 0
-143 -423 0
-144 -424 0
-145 -633 0
-146 -634 0
-147 -635 0
-148 -636 0
-157 -161 0
-158 -162 0
-159 -163 0
-160 -164 0
-253 -825 0
-254 -826 0
-255 -827 0
-256 -828 0
-269 -769 0
-270 -770 0
-271 -771 0
-272 -772 0
-273 -297 0
-274 -298 0
-275 -299 0
-276 -300 0
-325 -3969 0
-326 -3970 0
-327 -3971 0
-328 -3972 0
-457 -1397 0
-458 -1398 0
-459 -1399 0
-460 -1400 0
-501 -1521 0
-502 -1522 0
-503 -1523 0
-504 -1524 0
-533 -2301 0
-534 -2302 0
-535 -2303 0
-536 -2304 0
-557 -1169 0
-558 -1170 0
-559 -1171 0
-560 -1172 0
-585 -2433 0
-586 -2434 0
-587 -2435 0
-588 -2436 0
-593 -1437 0
-594 -1438 0
-595 -1439 0
-596 -1440 0
-597 -1837 0
-598 -1838 0
-599 -1839 0
-600 -1840 0
-645 -1993 0
-646 -1994 0
-647 -1995 0
-648 -1996 0
-657 -3125 0
-658 -3126 0
-659 -3127 0
-660 -3128 0
-717 -1157 0
-718 -1158 0
-719 -1159 0
-720 -1160 0
-737 -2493 0
-738 -2494 0
-739 -2495 0
-740 -2496 0
-813 -2889 0
-814 -2890 0
-815 -2891 0
-816 -2892 0
-821 -1209 0
-822 -1210 0
-823 -1211 0
-824 -1212 0
-849 -3397 0
-850 -3398 0
-851 -3399 0
-852 -3400 0
-857 -1161 0
-858 -1162 0
-859 -1163 0
-860 -1164 0
-885 -2697 0
-886 -2698 0
-887 -2699 0
-888 -2700 0
-949 -1629 0
-950 -1630 0
-951 -1631 0
-952 -1632 0
-997 -1465 0
-998 -1466 0
-999 -1467 0
-1000 -1468 0
-1073 -1093 0
-1074 -1094 0
-1075 -1095 0
-1076 -1096 0
-1217 -1665 0
-1218 -1666 0
-1219 -1667 0
-1220 -1668 0
-1289 -3437 0
-1290 -3438 0
-1291 -3439 0
-1292 -3440 0
-1309 -1681 0
-1310 -1682 0
-1311 -1683 0
-1312 -1684 0
-1389 -2145 0
-1390 -2146 0
-1391 -2147 0
-1392 -2148 0
-1421 -1741 0
-1422 -1742 0
-1423 -1743 0
-1424 -1744 0
-1473 -1597 0
-1474 -1598 0
-1475 -1599 0
-1476 -1600 0
-1557 -3945 0
-1558 -3946 0
-1559 -3947 0
-1560 -3948 0
-1565 -1645 0
-1566 -1646 0
-1567 -1647 0
-1568 -1648 0
-1717 -1745 0
-1718 -1746 0
-1719 -1747 0
-1720 -1748 0
-1805 -2785 0
-1806 -2786 0
-1807 -2787 0
-1808 -2788 0
-1829 -2217 0
-1830 -2218 0
-1831 -2219 0
-1832 -2220 0
-1921 -2097 0
-1922 -2098 0
-1923 -2099 0
-1924 -2100 0
-1953 -3537 0
-1954 -3538 0
-1955 -3539 0
-1956 -3540 0
-1957 -2021 0
-1958 -2022 0
-1959 -2023 0
-1960 -2024 0
-2005 -2541 0
-2006 -2542 0
-2007 -2543 0
-2008 -2544 0
-2045 -3293 0
-2046 -3294 0
-2047 -3295 0
-2048 -3296 0
-2061 -2337 0
-2062 -2338 0
-2063 -2339 0
-2064 -2340 0
-2101 -2997 0
-2102 -2998 0
-2103 -2999 0
-2104 -3000 0
-2169 -4049 0
-2170 -4050 0
-2171 -4051 0
-2172 -4052 0
-2197 -3029 0
-2198 -3030 0
-2199 -3031 0
-2200 -3032 0
-2277 -4025 0
-2278 -4026 0
-2279 -4027 0
-2280 -4028 0
-2421 -3957 0
-2422 -3958 0
-2423 -3959 0
-2424 -3960 0
-2437 -2585 0
-2438 -2586 0
-2439 -2587 0
-2440 -2588 0
-2645 -3929 0
-2646 -3930 0
-2647 -3931 0
-2648 -3932 0
-2853 -3269 0
-2854 -3270 0
-2855 -3271 0
-2856 -3272 0
-2857 -3961 0
-2858 -3962 0
-2859 -3963 0
-2860 -3964 0
-2881 -3593 0
-2882 -3594 0
-2883 -3595 0
-2884 -3596 0
-2893 -3861 0
-2894 -3862 0
-2895 -3863 0
-2896 -3864 0
-2917 -3089 0
-2918 -3090 0
-2919 -3091 0
-2920 -3092 0
-2965 -3169 0
-2966 -3170 0
-2967 -3171 0
-2968 -3172 0
-2993 -3049 0
-2994 -3050 0
-2995 -3051 0
-2996 -3052 0
-3025 -3185 0
-3026 -3186 0
-3027 -3187 0
-3028 -3188 0
-3153 -3853 0
-3154 -3854 0
-3155 -3855 0
-3156 -3856 0
-3353 -4033 0
-3354 -4034 0
-3355 -4035 0
-3356 -4036 0
-3425 -3789 0
-3426 -3790 0
-3427 -3791 0
-3428 -3792 0
-3457 -3465 0
-3458 -3466 0
-3459 -3467 0
-3460 -3468 0
-3653 -3833 0
-3654 -3834 0
-3655 -3835 0
-3656 -3836 0
-3669 -3837 0
-3670 -3838 0
-3671 -3839 0
-3672 -3840 0
-25 -2153 0
-26 -2154 0
-27 -2155 0
-28 -2156 0
-29 -3905 0
-30 -3906 0
-31 -3907 0
-32 -3908 0
-33 -3061 0
-34 -3062 0
-35 -3063 0
-36 -3064 0
-37 -1901 0
-38 -1902 0
-39 -1903 0
-40 -1904 0
-85 -1105 0
-86 -1106 0
-87 -1107 0
-88 -1108 0
-105 -301 0
-106 -302 0
-107 -303 0
-108 -304 0
-145 -501 0
-146 -502 0
-147 -503 0
-148 -504 0
-149 -209 0
-150 -210 0
-151 -211 0
-152 -212 0
-153 -1833 0
-154 -1834 0
-155 -1835 0
-156 -1836 0
-181 -3937 0
-182 -3938 0
-183 -3939 0
-184 -3940 0
-225 -1045 0
-226 -1046 0
-227 -1047 0
-228 -1048 0
-233 -1457 0
-234 -1458 0
-235 -1459 0
-236 -1460 0
-249 -1889 0
-250 -1890 0
-251 -1891 0
-252 -1892 0
-313 -1405 0
-314 -1406 0
-315 -1407 0
-316 -1408 0
-321 -2625 0
-322 -2626 0
-323 -2627 0
-324 -2628 0
-329 -2769 0
-330 -2770 0
-331 -2771 0
-332 -2772 0
-357 -909 0
-358 -910 0
-359 -911 0
-360 -912 0
-365 -2149 0
-366 -2150 0
-367 -2151 0
-368 -2152 0
-397 -1797 0
-398 -1798 0
-399 -1799 0
-400 -1800 0
-445 -953 0
-446 -954 0
-447 -955 0
-448 -956 0
-469 -1149 0
-470 -1150 0
-471 -1151 0
-472 -1152 0
-477 -525 0
-478 -526 0
-479 -527 0
-480 -528 0
-493 -937 0
-494 -938 0
-495 -939 0
-496 -940 0
-565 -3321 0
-566 -3322 0
-567 -3323 0
-568 -3324 0
-569 -705 0
-570 -706 0
-571 -707 0
-572 -708 0
-581 -1245 0
-582 -1246 0
-583 -1247 0
-584 -1248 0
-617 -2357 0
-618 -2358 0
-619 -2359 0
-620 -2360 0
-633 -1521 0
-634 -1522 0
-635 -1523 0
-636 -1524 0
-689 -793 0
-690 -794 0
-691 -795 0
-692 -796 0
-697 -3001 0
-698 -3002 0
-699 -3003 0
-700 -3004 0
-713 -3541 0
-714 -3542 0
-715 -3543 0
-716 -3544 0
-745 -1369 0
-746 -1370 0
-747 -1371 0
-748 -1372 0
-761 -1505 0
-762 -1506 0
-763 -1507 0
-764 -1508 0
-769 -825 0
-770 -826 0
-771 -827 0
-772 -828 0
-777 -1765 0
-778 -1766 0
-779 -1767 0
-780 -1768 0
-805 -1293 0
-806 -1294 0
-807 -1295 0
-808 -1296 0
-813 -1197 0
-814 -1198 0
-815 -1199 0
-816 -1200 0
-837 -905 0
-838 -906 0
-839 -907 0
-840 -908 0
-841 -1869 0
-842 -1870 0
-843 -1871 0
-844 -1872 0
-857 -2549 0
-858 -2550 0
-859 -2551 0
-860 -2552 0
-901 -3481 0
-902 -3482 0
-903 -3483 0
-904 -3484 0
-925 -2793 0
-926 -2794 0
-927 -2795 0
-928 -2796 0
-1005 -1513 0
-1006 -1514 0
-1007 -1515 0
-1008 -1516 0
-1041 -1745 0
-1042 -1746 0
-1043 -1747 0
-1044 -1748 0
-1073 -1217 0
-1074 -1218 0
-1075 -1219 0
-1076 -1220 0
-1093 -1665 0
-1094 -1666 0
-1095 -1667 0
-1096 -1668 0
-1129 -1941 0
-1130 -1942 0
-1131 -1943 0
-1132 -1944 0
-1153 -3041 0
-1154 -3042 0
-1155 -3043 0
-1156 -3044 0
-1161 -2177 0
-1162 -2178 0
-1163 -2179 0
-1164 -2180 0
-1181 -3229 0
-1182 -3230 0
-1183 -3231 0
-1184 -3232 0
-1225 -1533 0
-1226 -1534 0
-1227 -1535 0
-1228 -1536 0
-1273 -1365 0
-1274 -1366 0
-1275 -1367 0
-1276 -1368 0
-1289 -2117 0
-1290 -2118 0
-1291 -2119 0
-1292 -2120 0
-1461 -2837 0
-1462 -2838 0
-1463 -2839 0
-1464 -2840 0
-1569 -3237 0
-1570 -3238 0
-1571 -3239 0
-1572 -3240 0
-1581 -2293 0
-1582 -2294 0
-1583 -2295 0
-1584 -2296 0
-1605 -2205 0
-1606 -2206 0
-1607 -2207 0
-1608 -2208 0
-1713 -2005 0
-1714 -2006 0
-1715 -2007 0
-1716 -2008 0
-1873 -2653 0
-1874 -2654 0
-1875 -2655 0
-1876 -2656 0
-1937 -3441 0
-1938 -3442 0
-1939 -3443 0
-1940 -3444 0
-2253 -3265 0
-2254 -3266 0
-2255 -3267 0
-2256 -3268 0
-2341 -2501 0
-2342 -2502 0
-2343 -2503 0
-2344 -2504 0
-2365 -2709 0
-2366 -2710 0
-2367 -2711 0
-2368 -2712 0
-2529 -2633 0
-2530 -2634 0
-2531 -2635 0
-2532 -2636 0
-2845 -3473 0
-2846 -3474 0
-2847 -3475 0
-2848 -3476 0
-2873 -2989 0
-2874 -2990 0
-2875 -2991 0
-2876 -2992 0
-2933 -3309 0
-2934 -3310 0
-2935 -3311 0
-2936 -3312 0
-3073 -3225 0
-3074 -3226 0
-3075 -3227 0
-3076 -3228 0
-9 -2849 0
-10 -2850 0
-11 -2851 0
-12 -2852 0
-13 -2353 0
-14 -2354 0
-15 -2355 0
-16 -2356 0
-29 -33 0
-30 -34 0
-31 -35 0
-32 -36 0
-37 -2345 0
-38 -2346 0
-39 -2347 0
-40 -2348 0
-41 -205 0
-42 -206 0
-43 -207 0
-44 -208 0
-61 -65 0
-62 -66 0
-63 -67 0
-64 -68 0
-101 -385 0
-102 -386 0
-103 -387 0
-104 -388 0
-105 -1165 0
-106 -1166 0
-107 -1167 0
-108 -1168 0
-133 -1001 0
-134 -1002 0
-135 -1003 0
-136 -1004 0
-141 -2249 0
-142 -2250 0
-143 -2251 0
-144 -2252 0
-165 -1917 0
-166 -1918 0
-167 -1919 0
-168 -1920 0
-169 -181 0
-170 -182 0
-171 -183 0
-172 -184 0
-237 -609 0
-238 -610 0
-239 -611 0
-240 -612 0
-293 -2381 0
-294 -2382 0
-295 -2383 0
-296 -2384 0
-321 -565 0
-322 -566 0
-323 -567 0
-324 -568 0
-333 -1765 0
-334 -1766 0
-335 -1767 0
-336 -1768 0
-361 -557 0
-362 -558 0
-363 -559 0
-364 -560 0
-397 -1985 0
-398 -1986 0
-399 -1987 0
-400 -1988 0
-409 -777 0
-410 -778 0
-411 -779 0
-412 -780 0
-417 -2481 0
-418 -2482 0
-419 -2483 0
-420 -2484 0
-421 -957 0
-422 -958 0
-423 -959 0
-424 -960 0
-465 -677 0
-466 -678 0
-467 -679 0
-468 -680 0
-473 -509 0
-474 -510 0
-475 -511 0
-476 -512 0
-477 -841 0
-478 -842 0
-479 -843 0
-480 -844 0
-489 -2565 0
-490 -2566 0
-491 -2567 0
-492 -2568 0
-517 -1481 0
-518 -1482 0
-519 -1483 0
-520 -1484 0
-525 -1869 0
-526 -1870 0
-527 -1871 0
-528 -1872 0
-549 -1261 0
-550 -1262 0
-551 -1263 0
-552 -1264 0
-593 -1977 0
-594 -1978 0
-595 -1979 0
-596 -1980 0
-601 -2605 0
-602 -2606 0
-603 -2607 0
-604 -2608 0
-613 -2297 0
-614 -2298 0
-615 -2299 0
-616 -2300 0
-621 -1381 0
-622 -1382 0
-623 -1383 0
-624 -1384 0
-641 -913 0
-642 -914 0
-643 -915 0
-644 -916 0
-645 -3289 0
-646 -3290 0
-647 -3291 0
-648 -3292 0
-685 -1237 0
-686 -1238 0
-687 -1239 0
-688 -1240 0
-713 -1005 0
-714 -1006 0
-715 -1007 0
-716 -1008 0
-721 -1109 0
-722 -1110 0
-723 -1111 0
-724 -1112 0
-821 -2593 0
-822 -2594 0
-823 -2595 0
-824 -2596 0
-861 -897 0
-862 -898 0
-863 -899 0
-864 -900 0
-865 -1301 0
-866 -1302 0
-867 -1303 0
-868 -1304 0
-869 -1141 0
-870 -1142 0
-871 -1143 0
-872 -1144 0
-889 -1281 0
-890 -1282 0
-891 -1283 0
-892 -1284 0
-929 -2757 0
-930 -2758 0
-931 -2759 0
-932 -2760 0
-1221 -1401 0
-1222 -1402 0
-1223 -1403 0
-1224 -1404 0
-1253 -1577 0
-1254 -1578 0
-1255 -1579 0
-1256 -1580 0
-1285 -1757 0
-1286 -1758 0
-1287 -1759 0
-1288 -1760 0
-1297 -2265 0
-1298 -2266 0
-1299 -2267 0
-1300 -2268 0
-1305 -3017 0
-1306 -3018 0
-1307 -3019 0
-1308 -3020 0
-1317 -2969 0
-1318 -2970 0
-1319 -2971 0
-1320 -2972 0
-1321 -2985 0
-1322 -2986 0
-1323 -2987 0
-1324 -2988 0
-1353 -2241 0
-1354 -2242 0
-1355 -2243 0
-1356 -2244 0
-1365 -2857 0
-1366 -2858 0
-1367 -2859 0
-1368 -2860 0
-1449 -2861 0
-1450 -2862 0
-1451 -2863 0
-1452 -2864 0
-1485 -1885 0
-1486 -1886 0
-1487 -1887 0
-1488 -1888 0
-1501 -1769 0
-1502 -1770 0
-1503 -1771 0
-1504 -1772 0
-1553 -2261 0
-1554 -2262 0
-1555 -2263 0
-1556 -2264 0
-1565 -2497 0
-1566 -2498 0
-1567 -2499 0
-1568 -2500 0
-1661 -3313 0
-1662 -3314 0
-1663 -3315 0
-1664 -3316 0
-1725 -3461 0
-1726 -3462 0
-1727 -3463 0
-1728 -3464 0
-1777 -2289 0
-1778 -2290 0
-1779 -2291 0
-1780 -2292 0
-1805 -1881 0
-1806 -1882 0
-1807 -1883 0
-1808 -1884 0
-1857 -2037 0
-1858 -2038 0
-1859 -2039 0
-1860 -2040 0
-1921 -2437 0
-1922 -2438 0
-1923 -2439 0
-1924 -2440 0
-1933 -3409 0
-1934 -3410 0
-1935 -3411 0
-1936 -3412 0
-2005 -2677 0
-2006 -2678 0
-2007 -2679 0
-2008 -2680 0
-2013 -2389 0
-2014 -2390 0
-2015 -2391 0
-2016 -2392 0
-2097 -2585 0
-2098 -2586 0
-2099 -2587 0
-2100 -2588 0
-2193 -3721 0
-2194 -3722 0
-2195 -3723 0
-2196 -3724 0
-2417 -2813 0
-2418 -2814 0
-2419 -2815 0
-2420 -2816 0
-2453 -3425 0
-2454 -3426 0
-2455 -3427 0
-2456 -3428 0
-2541 -2553 0
-2542 -2554 0
-2543 -2555 0
-2544 -2556 0
-2577 -2737 0
-2578 -2738 0
-2579 -2739 0
-2580 -2740 0
-2625 -3321 0
-2626 -3322 0
-2627 -3323 0
-2628 -3324 0
-2713 -2897 0
-2714 -2898 0
-2715 -2899 0
-2716 -2900 0
-2901 -3849 0
-2902 -3850 0
-2903 -3851 0
-2904 -3852 0
-3001 -3629 0
-3002 -3630 0
-3003 -3631 0
-3004 -3632 0
-3309 -3681 0
-3310 -3682 0
-3311 -3683 0
-3312 -3684 0
-3733 -3805 0
-3734 -3806 0
-3735 -3807 0
-3736 -3808 0
-41 -3545 0
-42 -3546 0
-43 -3547 0
-44 -3548 0
-61 -193 0
-62 -194 0
-63 -195 0
-64 -196 0
-85 -2217 0
-86 -2218 0
-87 -2219 0
-88 -2220 0
-129 -153 0
-130 -154 0
-131 -155 0
-132 -156 0
-249 -925 0
-250 -926 0
-251 -927 0
-252 -928 0
-253 -381 0
-254 -382 0
-255 -383 0
-256 -384 0
-265 -1945 0
-266 -1946 0
-267 -1947 0
-268 -1948 0
-269 -2649 0
-270 -2650 0
-271 -2651 0
-272 -2652 0
-325 -1193 0
-326 -1194 0
-327 -1195 0
-328 -1196 0
-401 -2089 0
-402 -2090 0
-403 -2091 0
-404 -2092 0
-521 -697 0
-522 -698 0
-523 -699 0
-524 -700 0
-625 -3049 0
-626 -3050 0
-627 -3051 0
-628 -3052 0
-629 -701 0
-630 -702 0
-631 -703 0
-632 -704 0
-657 -3893 0
-658 -3894 0
-659 -3895 0
-660 -3896 0
-669 -1341 0
-670 -1342 0
-671 -1343 0
-672 -1344 0
-673 -3769 0
-674 -3770 0
-675 -3771 0
-676 -3772 0
-793 -3065 0
-794 -3066 0
-795 -3067 0
-796 -3068 0
-809 -1741 0
-810 -1742 0
-811 -1743 0
-812 -1744 0
-813 -3069 0
-814 -3070 0
-815 -3071 0
-816 -3072 0
-845 -1009 0
-846 -1010 0
-847 -1011 0
-848 -1012 0
-929 -2541 0
-930 -2542 0
-931 -2543 0
-932 -2544 0
-945 -2477 0
-946 -2478 0
-947 -2479 0
-948 -2480 0
-1061 -1169 0
-1062 -1170 0
-1063 -1171 0
-1064 -1172 0
-1149 -2433 0
-1150 -2434 0
-1151 -2435 0
-1152 -2436 0
-1197 -2473 0
-1198 -2474 0
-1199 -2475 0
-1200 -2476 0
-1301 -3405 0
-1302 -3406 0
-1303 -3407 0
-1304 -3408 0
-1365 -2001 0
-1366 -2002 0
-1367 -2003 0
-1368 -2004 0
-1501 -1657 0
-1502 -1658 0
-1503 -1659 0
-1504 -1660 0
-1617 -2609 0
-1618 -2610 0
-1619 -2611 0
-1620 -2612 0
-1693 -2221 0
-1694 -2222 0
-1695 -2223 0
-1696 -2224 0
-1805 -2681 0
-1806 -2682 0
-1807 -2683 0
-1808 -2684 0
-1865 -2529 0
-1866 -2530 0
-1867 -2531 0
-1868 -2532 0
-1889 -2793 0
-1890 -2794 0
-1891 -2795 0
-1892 -2796 0
-1965 -2557 0
-1966 -2558 0
-1967 -2559 0
-1968 -2560 0
-2033 -3169 0
-2034 -3170 0
-2035 -3171 0
-2036 -3172 0
-2081 -2589 0
-2082 -2590 0
-2083 -2591 0
-2084 -2592 0
-2125 -4073 0
-2126 -4074 0
-2127 -4075 0
-2128 -4076 0
-2829 -3309 0
-2830 -3310 0
-2831 -3311 0
-2832 -3312 0
-2865 -3965 0
-2866 -3966 0
-2867 -3967 0
-2868 -3968 0
-37 -513 0
-38 -514 0
-39 -515 0
-40 -516 0
-73 -1637 0
-74 -1638 0
-75 -1639 0
-76 -1640 0
-121 -185 0
-122 -186 0
-123 -187 0
-124 -188 0
-133 -1201 0
-134 -1202 0
-135 -1203 0
-136 -1204 0
-137 -1533 0
-138 -1534 0
-139 -1535 0
-140 -1536 0
-153 -461 0
-154 -462 0
-155 -463 0
-156 -464 0
-177 -221 0
-178 -222 0
-179 -223 0
-180 -224 0
-213 -773 0
-214 -774 0
-215 -775 0
-216 -776 0
-265 -2953 0
-266 -2954 0
-267 -2955 0
-268 -2956 0
-357 -1989 0
-358 -1990 0
-359 -1991 0
-360 -1992 0
-381 -3693 0
-382 -3694 0
-383 -3695 0
-384 -3696 0
-409 -1361 0
-410 -1362 0
-411 -1363 0
-412 -1364 0
-437 -1209 0
-438 -1210 0
-439 -1211 0
-440 -1212 0
-545 -3853 0
-546 -3854 0
-547 -3855 0
-548 -3856 0
-573 -3833 0
-574 -3834 0
-575 -3835 0
-576 -3836 0
-629 -1693 0
-630 -1694 0
-631 -1695 0
-632 -1696 0
-701 -2221 0
-702 -2222 0
-703 -2223 0
-704 -2224 0
-761 -2361 0
-762 -2362 0
-763 -2363 0
-764 -2364 0
-777 -1037 0
-778 -1038 0
-779 -1039 0
-780 -1040 0
-785 -1733 0
-786 -1734 0
-787 -1735 0
-788 -1736 0
-789 -3817 0
-790 -3818 0
-791 -3819 0
-792 -3820 0
-829 -1225 0
-830 -1226 0
-831 -1227 0
-832 -1228 0
-849 -1573 0
-850 -1574 0
-851 -1575 0
-852 -1576 0
-881 -1577 0
-882 -1578 0
-883 -1579 0
-884 -1580 0
-893 -3445 0
-894 -3446 0
-895 -3447 0
-896 -3448 0
-989 -2137 0
-990 -2138 0
-991 -2139 0
-992 -2140 0
-1021 -2305 0
-1022 -2306 0
-1023 -2307 0
-1024 -2308 0
-1185 -2745 0
-1186 -2746 0
-1187 -2747 0
-1188 -2748 0
-1293 -2357 0
-1294 -2358 0
-1295 -2359 0
-1296 -2360 0
-1337 -2921 0
-1338 -2922 0
-1339 -2923 0
-1340 -2924 0
-1417 -2069 0
-1418 -2070 0
-1419 -2071 0
-1420 -2072 0
-1421 -2941 0
-1422 -2942 0
-1423 -2943 0
-1424 -2944 0
-1593 -1905 0
-1594 -1906 0
-1595 -1907 0
-1596 -1908 0
-1601 -3333 0
-1602 -3334 0
-1603 -3335 0
-1604 -3336 0
-1625 -3621 0
-1626 -3622 0
-1627 -3623 0
-1628 -3624 0
-1857 -2701 0
-1858 -2702 0
-1859 -2703 0
-1860 -2704 0
-2001 -3081 0
-2002 -3082 0
-2003 -3083 0
-2004 -3084 0
-2269 -2661 0
-2270 -2662 0
-2271 -2663 0
-2272 -2664 0
-2377 -2977 0
-2378 -2978 0
-2379 -2979 0
-2380 -2980 0
-2609 -3561 0
-2610 -3562 0
-2611 -3563 0
-2612 -3564 0
-2645 -3761 0
-2646 -3762 0
-2647 -3763 0
-2648 -3764 0
-2713 -2801 0
-2714 -2802 0
-2715 -2803 0
-2716 -2804 0
-2753 -3085 0
-2754 -3086 0
-2755 -3087 0
-2756 -3088 0
-2861 -4037 0
-2862 -4038 0
-2863 -4039 0
-2864 -4040 0
-2961 -3153 0
-2962 -3154 0
-2963 -3155 0
-2964 -3156 0
-3245 -3653 0
-3246 -3654 0
-3247 -3655 0
-3248 -3656 0
-3321 -3937 0
-3322 -3938 0
-3323 -3939 0
-3324 -3940 0
-3345 -3733 0
-3346 -3734 0
-3347 -3735 0
-3348 -3736 0
-3369 -4029 0
-3370 -4030 0
-3371 -4031 0
-3372 -4032 0
-1 -1149 0
-2 -1150 0
-3 -1151 0
-4 -1152 0
-9 -2761 0
-10 -2762 0
-11 -2763 0
-12 -2764 0
-29 -3813 0
-30 -3814 0
-31 -3815 0
-32 -3816 0
-89 -1245 0
-90 -1246 0
-91 -1247 0
-92 -1248 0
-129 -809 0
-130 -810 0
-131 -811 0
-132 -812 0
-153 -1741 0
-154 -1742 0
-155 -1743 0
-156 -1744 0
-225 -3881 0
-226 -3882 0
-227 -3883 0
-228 -3884 0
-237 -3797 0
-238 -3798 0
-239 -3799 0
-240 -3800 0
-273 -1813 0
-274 -1814 0
-275 -1815 0
-276 -1816 0
-325 -625 0
-326 -626 0
-327 -627 0
-328 -628 0
-341 -2281 0
-342 -2282 0
-343 -2283 0
-344 -2284 0
-361 -1541 0
-362 -1542 0
-363 -1543 0
-364 -1544 0
-489 -1017 0
-490 -1018 0
-491 -1019 0
-492 -1020 0
-549 -817 0
-550 -818 0
-551 -819 0
-552 -820 0
-637 -2489 0
-638 -2490 0
-639 -2491 0
-640 -2492 0
-669 -1057 0
-670 -1058 0
-671 -1059 0
-672 -1060 0
-697 -1093 0
-698 -1094 0
-699 -1095 0
-700 -1096 0
-733 -1345 0
-734 -1346 0
-735 -1347 0
-736 -1348 0
-781 -1985 0
-782 -1986 0
-783 -1987 0
-784 -1988 0
-845 -3373 0
-846 -3374 0
-847 -3375 0
-848 -3376 0
-877 -2749 0
-878 -2750 0
-879 -2751 0
-880 -2752 0
-893 -1493 0
-894 -1494 0
-895 -1495 0
-896 -1496 0
-969 -1061 0
-970 -1062 0
-971 -1063 0
-972 -1064 0
-985 -3549 0
-986 -3550 0
-987 -3551 0
-988 -3552 0
-997 -1165 0
-998 -1166 0
-999 -1167 0
-1000 -1168 0
-1009 -1157 0
-1010 -1158 0
-1011 -1159 0
-1012 -1160 0
-1121 -2317 0
-1122 -2318 0
-1123 -2319 0
-1124 -2320 0
-1181 -2037 0
-1182 -2038 0
-1183 -2039 0
-1184 -2040 0
-1193 -3049 0
-1194 -3050 0
-1195 -3051 0
-1196 -3052 0
-1213 -3169 0
-1214 -3170 0
-1215 -3171 0
-1216 -3172 0
-1289 -3801 0
-1290 -3802 0
-1291 -3803 0
-1292 -3804 0
-1309 -1525 0
-1310 -1526 0
-1311 -1527 0
-1312 -1528 0
-1621 -2033 0
-1622 -2034 0
-1623 -2035 0
-1624 -2036 0
-1805 -2129 0
-1806 -2130 0
-1807 -2131 0
-1808 -2132 0
-1973 -3665 0
-1974 -3666 0
-1975 -3667 0
-1976 -3668 0
-2113 -2505 0
-2114 -2506 0
-2115 -2507 0
-2116 -2508 0
-2273 -3173 0
-2274 -3174 0
-2275 -3175 0
-2276 -3176 0
-2373 -3605 0
-2374 -3606 0
-2375 -3607 0
-2376 -3608 0
-3221 -3529 0
-3222 -3530 0
-3223 -3531 0
-3224 -3532 0
-37 -1441 0
-38 -1442 0
-39 -1443 0
-40 -1444 0
-45 -49 0
-46 -50 0
-47 -51 0
-48 -52 0
-85 -509 0
-86 -510 0
-87 -511 0
-88 -512 0
-101 -889 0
-102 -890 0
-103 -891 0
-104 -892 0
-109 -2561 0
-110 -2562 0
-111 -2563 0
-112 -2564 0
-125 -2061 0
-126 -2062 0
-127 -2063 0
-128 -2064 0
-129 -325 0
-130 -326 0
-131 -327 0
-132 -328 0
-133 -137 0
-134 -138 0
-135 -139 0
-136 -140 0
-153 -1193 0
-154 -1194 0
-155 -1195 0
-156 -1196 0
-169 -1609 0
-170 -1610 0
-171 -1611 0
-172 -1612 0
-245 -1089 0
-246 -1090 0
-247 -1091 0
-248 -1092 0
-249 -577 0
-250 -578 0
-251 -579 0
-252 -580 0
-269 -537 0
-270 -538 0
-271 -539 0
-272 -540 0
-273 -1973 0
-274 -1974 0
-275 -1975 0
-276 -1976 0
-277 -2337 0
-278 -2338 0
-279 -2339 0
-280 -2340 0
-337 -2213 0
-338 -2214 0
-339 -2215 0
-340 -2216 0
-357 -977 0
-358 -978 0
-359 -979 0
-360 -980 0
-361 -2373 0
-362 -2374 0
-363 -2375 0
-364 -2376 0
-365 -473 0
-366 -474 0
-367 -475 0
-368 -476 0
-385 -1281 0
-386 -1282 0
-387 -1283 0
-388 -1284 0
-453 -3677 0
-454 -3678 0
-455 -3679 0
-456 -3680 0
-457 -553 0
-458 -554 0
-459 -555 0
-460 -556 0
-493 -917 0
-494 -918 0
-495 -919 0
-496 -920 0
-557 -2181 0
-558 -2182 0
-559 -2183 0
-560 -2184 0
-569 -1113 0
-570 -1114 0
-571 -1115 0
-572 -1116 0
-597 -1385 0
-598 -1386 0
-599 -1387 0
-600 -1388 0
-657 -665 0
-658 -666 0
-659 -667 0
-660 -668 0
-669 -733 0
-670 -734 0
-671 -735 0
-672 -736 0
-685 -829 0
-686 -830 0
-687 -831 0
-688 -832 0
-693 -2597 0
-694 -2598 0
-695 -2599 0
-696 -2600 0
-717 -1653 0
-718 -1654 0
-719 -1655 0
-720 -1656 0
-725 -1153 0
-726 -1154 0
-727 -1155 0
-728 -1156 0
-741 -3745 0
-742 -3746 0
-743 -3747 0
-744 -3748 0
-749 -3969 0
-750 -3970 0
-751 -3971 0
-752 -3972 0
-813 -1129 0
-814 -1130 0
-815 -1131 0
-816 -1132 0
-873 -1329 0
-874 -1330 0
-875 -1331 0
-876 -1332 0
-885 -1173 0
-886 -1174 0
-887 -1175 0
-888 -1176 0
-1057 -1345 0
-1058 -1346 0
-1059 -1347 0
-1060 -1348 0
-1061 -3533 0
-1062 -3534 0
-1063 -3535 0
-1064 -3536 0
-1097 -1757 0
-1098 -1758 0
-1099 -1759 0
-1100 -1760 0
-1125 -1445 0
-1126 -1446 0
-1127 -1447 0
-1128 -1448 0
-1177 -2545 0
-1178 -2546 0
-1179 -2547 0
-1180 -2548 0
-1181 -2601 0
-1182 -2602 0
-1183 -2603 0
-1184 -2604 0
-1197 -1941 0
-1198 -1942 0
-1199 -1943 0
-1200 -1944 0
-1201 -1533 0
-1202 -1534 0
-1203 -1535 0
-1204 -1536 0
-1205 -1285 0
-1206 -1286 0
-1207 -1287 0
-1208 -1288 0
-1253 -1437 0
-1254 -1438 0
-1255 -1439 0
-1256 -1440 0
-1393 -1677 0
-1394 -1678 0
-1395 -1679 0
-1396 -1680 0
-1405 -1457 0
-1406 -1458 0
-1407 -1459 0
-1408 -1460 0
-1421 -2993 0
-1422 -2994 0
-1423 -2995 0
-1424 -2996 0
-1541 -3605 0
-1542 -3606 0
-1543 -3607 0
-1544 -3608 0
-1613 -2501 0
-1614 -2502 0
-1615 -2503 0
-1616 -2504 0
-1617 -3265 0
-1618 -3266 0
-1619 -3267 0
-1620 -3268 0
-1621 -3361 0
-1622 -3362 0
-1623 -3363 0
-1624 -3364 0
-1741 -3049 0
-1742 -3050 0
-1743 -3051 0
-1744 -3052 0
-1769 -1977 0
-1770 -1978 0
-1771 -1979 0
-1772 -1980 0
-1785 -2333 0
-1786 -2334 0
-1787 -2335 0
-1788 -2336 0
-1801 -3661 0
-1802 -3662 0
-1803 -3663 0
-1804 -3664 0
-1813 -3665 0
-1814 -3666 0
-1815 -3667 0
-1816 -3668 0
-1857 -2013 0
-1858 -2014 0
-1859 -2015 0
-1860 -2016 0
-1909 -3509 0
-1910 -3510 0
-1911 -3511 0
-1912 -3512 0
-1949 -2309 0
-1950 -2310 0
-1951 -2311 0
-1952 -2312 0
-2037 -2389 0
-2038 -2390 0
-2039 -2391 0
-2040 -2392 0
-2049 -2253 0
-2050 -2254 0
-2051 -2255 0
-2052 -2256 0
-2125 -2177 0
-2126 -2178 0
-2127 -2179 0
-2128 -2180 0
-2161 -2997 0
-2162 -2998 0
-2163 -2999 0
-2164 -3000 0
-2233 -3077 0
-2234 -3078 0
-2235 -3079 0
-2236 -3080 0
-2281 -3393 0
-2282 -3394 0
-2283 -3395 0
-2284 -3396 0
-2369 -2641 0
-2370 -2642 0
-2371 -2643 0
-2372 -2644 0
-2613 -3581 0
-2614 -3582 0
-2615 -3583 0
-2616 -3584 0
-2657 -3529 0
-2658 -3530 0
-2659 -3531 0
-2660 -3532 0
-2909 -3009 0
-2910 -3010 0
-2911 -3011 0
-2912 -3012 0
-2925 -3909 0
-2926 -3910 0
-2927 -3911 0
-2928 -3912 0
-2985 -3017 0
-2986 -3018 0
-2987 -3019 0
-2988 -3020 0
-3037 -3221 0
-3038 -3222 0
-3039 -3223 0
-3040 -3224 0
-3189 -3513 0
-3190 -3514 0
-3191 -3515 0
-3192 -3516 0
-3369 -3501 0
-3370 -3502 0
-3371 -3503 0
-3372 -3504 0
-13 -2137 0
-14 -2138 0
-15 -2139 0
-16 -2140 0
-93 -1925 0
-94 -1926 0
-95 -1927 0
-96 -1928 0
-97 -3629 0
-98 -3630 0
-99 -3631 0
-100 -3632 0
-101 -1929 0
-102 -1930 0
-103 -1931 0
-104 -1932 0
-125 -3573 0
-126 -3574 0
-127 -3575 0
-128 -3576 0
-133 -1097 0
-134 -1098 0
-135 -1099 0
-136 -1100 0
-137 -1757 0
-138 -1758 0
-139 -1759 0
-140 -1760 0
-169 -461 0
-170 -462 0
-171 -463 0
-172 -464 0
-225 -393 0
-226 -394 0
-227 -395 0
-228 -396 0
-241 -4089 0
-242 -4090 0
-243 -4091 0
-244 -4092 0
-277 -2445 0
-278 -2446 0
-279 -2447 0
-280 -2448 0
-293 -973 0
-294 -974 0
-295 -975 0
-296 -976 0
-365 -1249 0
-366 -1250 0
-367 -1251 0
-368 -1252 0
-413 -3001 0
-414 -3002 0
-415 -3003 0
-416 -3004 0
-525 -953 0
-526 -954 0
-527 -955 0
-528 -956 0
-613 -1137 0
-614 -1138 0
-615 -1139 0
-616 -1140 0
-621 -3693 0
-622 -3694 0
-623 -3695 0
-624 -3696 0
-721 -1509 0
-722 -1510 0
-723 -1511 0
-724 -1512 0
-745 -3409 0
-746 -3410 0
-747 -3411 0
-748 -3412 0
-1005 -1165 0
-1006 -1166 0
-1007 -1167 0
-1008 -1168 0
-1025 -3901 0
-1026 -3902 0
-1027 -3903 0
-1028 -3904 0
-1221 -1733 0
-1222 -1734 0
-1223 -1735 0
-1224 -1736 0
-1333 -3789 0
-1334 -3790 0
-1335 -3791 0
-1336 -3792 0
-1569 -2421 0
-1570 -2422 0
-1571 -2423 0
-1572 -2424 0
-1601 -2289 0
-1602 -2290 0
-1603 -2291 0
-1604 -2292 0
-1781 -2941 0
-1782 -2942 0
-1783 -2943 0
-1784 -2944 0
-2049 -3425 0
-2050 -3426 0
-2051 -3427 0
-2052 -3428 0
-2057 -2725 0
-2058 -2726 0
-2059 -2727 0
-2060 -2728 0
-2253 -3289 0
-2254 -3290 0
-2255 -3291 0
-2256 -3292 0
-2293 -2769 0
-2294 -2770 0
-2295 -2771 0
-2296 -2772 0
-2321 -2873 0
-2322 -2874 0
-2323 -2875 0
-2324 -2876 0
-2377 -2461 0
-2378 -2462 0
-2379 -2463 0
-2380 -2464 0
-2785 -3497 0
-2786 -3498 0
-2787 -3499 0
-2788 -3500 0
-3221 -3657 0
-3222 -3658 0
-3223 -3659 0
-3224 -3660 0
-37 -3137 0
-38 -3138 0
-39 -3139 0
-40 -3140 0
-61 -2193 0
-62 -2194 0
-63 -2195 0
-64 -2196 0
-65 -3721 0
-66 -3722 0
-67 -3723 0
-68 -3724 0
-101 -2065 0
-102 -2066 0
-103 -2067 0
-104 -2068 0
-105 -353 0
-106 -354 0
-107 -355 0
-108 -356 0
-113 -1357 0
-114 -1358 0
-115 -1359 0
-116 -1360 0
-129 -1197 0
-130 -1198 0
-131 -1199 0
-132 -1200 0
-149 -261 0
-150 -262 0
-151 -263 0
-152 -264 0
-153 -2473 0
-154 -2474 0
-155 -2475 0
-156 -2476 0
-213 -637 0
-214 -638 0
-215 -639 0
-216 -640 0
-229 -2413 0
-230 -2414 0
-231 -2415 0
-232 -2416 0
-269 -457 0
-270 -458 0
-271 -459 0
-272 -460 0
-325 -1941 0
-326 -1942 0
-327 -1943 0
-328 -1944 0
-341 -1469 0
-342 -1470 0
-343 -1471 0
-344 -1472 0
-381 -4057 0
-382 -4058 0
-383 -4059 0
-384 -4060 0
-409 -545 0
-410 -546 0
-411 -547 0
-412 -548 0
-437 -2569 0
-438 -2570 0
-439 -2571 0
-440 -2572 0
-441 -673 0
-442 -674 0
-443 -675 0
-444 -676 0
-493 -597 0
-494 -598 0
-495 -599 0
-496 -600 0
-501 -3061 0
-502 -3062 0
-503 -3063 0
-504 -3064 0
-521 -845 0
-522 -846 0
-523 -847 0
-524 -848 0
-537 -553 0
-538 -554 0
-539 -555 0
-540 -556 0
-573 -2025 0
-574 -2026 0
-575 -2027 0
-576 -2028 0
-593 -2117 0
-594 -2118 0
-595 -2119 0
-596 -2120 0
-601 -2393 0
-602 -2394 0
-603 -2395 0
-604 -2396 0
-633 -2465 0
-634 -2466 0
-635 -2467 0
-636 -2468 0
-669 -813 0
-670 -814 0
-671 -815 0
-672 -816 0
-681 -1721 0
-682 -1722 0
-683 -1723 0
-684 -1724 0
-693 -1493 0
-694 -1494 0
-695 -1495 0
-696 -1496 0
-697 -1009 0
-698 -1010 0
-699 -1011 0
-700 -1012 0
-713 -1697 0
-714 -1698 0
-715 -1699 0
-716 -1700 0
-729 -1277 0
-730 -1278 0
-731 -1279 0
-732 -1280 0
-733 -1129 0
-734 -1130 0
-735 -1131 0
-736 -1132 0
-761 -893 0
-762 -894 0
-763 -895 0
-764 -896 0
-769 -1397 0
-770 -1398 0
-771 -1399 0
-772 -1400 0
-817 -1017 0
-818 -1018 0
-819 -1019 0
-820 -1020 0
-821 -1389 0
-822 -1390 0
-823 -1391 0
-824 -1392 0
-849 -2861 0
-850 -2862 0
-851 -2863 0
-852 -2864 0
-869 -1305 0
-870 -1306 0
-871 -1307 0
-872 -1308 0
-877 -2773 0
-878 -2774 0
-879 -2775 0
-880 -2776 0
-913 -2381 0
-914 -2382 0
-915 -2383 0
-916 -2384 0
-917 -1385 0
-918 -1386 0
-919 -1387 0
-920 -1388 0
-1021 -1449 0
-1022 -1450 0
-1023 -1451 0
-1024 -1452 0
-1045 -3905 0
-1046 -3906 0
-1047 -3907 0
-1048 -3908 0
-1093 -1157 0
-1094 -1158 0
-1095 -1159 0
-1096 -1160 0
-1133 -1749 0
-1134 -1750 0
-1135 -1751 0
-1136 -1752 0
-1141 -3017 0
-1142 -3018 0
-1143 -3019 0
-1144 -3020 0
-1209 -2145 0
-1210 -2146 0
-1211 -2147 0
-1212 -2148 0
-1241 -2133 0
-1242 -2134 0
-1243 -2135 0
-1244 -2136 0
-1249 -1709 0
-1250 -1710 0
-1251 -1711 0
-1252 -1712 0
-1261 -2565 0
-1262 -2566 0
-1263 -2567 0
-1264 -2568 0
-1341 -3069 0
-1342 -3070 0
-1343 -3071 0
-1344 -3072 0
-1361 -3853 0
-1362 -3854 0
-1363 -3855 0
-1364 -3856 0
-1525 -3801 0
-1526 -3802 0
-1527 -3803 0
-1528 -3804 0
-1573 -4037 0
-1574 -4038 0
-1575 -4039 0
-1576 -4040 0
-1681 -3437 0
-1682 -3438 0
-1683 -3439 0
-1684 -3440 0
-1893 -2985 0
-1894 -2986 0
-1895 -2987 0
-1896 -2988 0
-1949 -3577 0
-1950 -3578 0
-1951 -3579 0
-1952 -3580 0
-1965 -2981 0
-1966 -2982 0
-1967 -2983 0
-1968 -2984 0
-2057 -2293 0
-2058 -2294 0
-2059 -2295 0
-2060 -2296 0
-2209 -2573 0
-2210 -2574 0
-2211 -2575 0
-2212 -2576 0
-2361 -3445 0
-2362 -3446 0
-2363 -3447 0
-2364 -3448 0
-2377 -2961 0
-2378 -2962 0
-2379 -2963 0
-2380 -2964 0
-2537 -2661 0
-2538 -2662 0
-2539 -2663 0
-2540 -2664 0
-2705 -3861 0
-2706 -3862 0
-2707 -3863 0
-2708 -3864 0
-2725 -2769 0
-2726 -2770 0
-2727 -2771 0
-2728 -2772 0
-2781 -3117 0
-2782 -3118 0
-2783 -3119 0
-2784 -3120 0
-2977 -3153 0
-2978 -3154 0
-2979 -3155 0
-2980 -3156 0
-3553 -3885 0
-3554 -3886 0
-3555 -3887 0
-3556 -3888 0
-89 -425 0
-90 -426 0
-91 -427 0
-92 -428 0
-93 -4041 0
-94 -4042 0
-95 -4043 0
-96 -4044 0
-101 -1361 0
-102 -1362 0
-103 -1363 0
-104 -1364 0
-129 -3021 0
-130 -3022 0
-131 -3023 0
-132 -3024 0
-133 -2821 0
-134 -2822 0
-135 -2823 0
-136 -2824 0
-153 -941 0
-154 -942 0
-155 -943 0
-156 -944 0
-237 -1609 0
-238 -1610 0
-239 -1611 0
-240 -1612 0
-269 -2537 0
-270 -2538 0
-271 -2539 0
-272 -2540 0
-313 -1477 0
-314 -1478 0
-315 -1479 0
-316 -1480 0
-385 -1037 0
-386 -1038 0
-387 -1039 0
-388 -1040 0
-397 -1689 0
-398 -1690 0
-399 -1691 0
-400 -1692 0
-457 -2661 0
-458 -2662 0
-459 -2663 0
-460 -2664 0
-481 -3625 0
-482 -3626 0
-483 -3627 0
-484 -3628 0
-533 -3781 0
-534 -3782 0
-535 -3783 0
-536 -3784 0
-601 -3677 0
-602 -3678 0
-603 -3679 0
-604 -3680 0
-605 -2805 0
-606 -2806 0
-607 -2807 0
-608 -2808 0
-653 -1521 0
-654 -1522 0
-655 -1523 0
-656 -1524 0
-717 -3333 0
-718 -3334 0
-719 -3335 0
-720 -3336 0
-725 -925 0
-726 -926 0
-727 -927 0
-728 -928 0
-757 -1317 0
-758 -1318 0
-759 -1319 0
-760 -1320 0
-881 -3961 0
-882 -3962 0
-883 -3963 0
-884 -3964 0
-921 -3393 0
-922 -3394 0
-923 -3395 0
-924 -3396 0
-977 -2337 0
-978 -2338 0
-979 -2339 0
-980 -2340 0
-1421 -1481 0
-1422 -1482 0
-1423 -1483 0
-1424 -1484 0
-1493 -2465 0
-1494 -2466 0
-1495 -2467 0
-1496 -2468 0
-1657 -3081 0
-1658 -3082 0
-1659 -3083 0
-1660 -3084 0
-1921 -3613 0
-1922 -3614 0
-1923 -3615 0
-1924 -3616 0
-2065 -3853 0
-2066 -3854 0
-2067 -3855 0
-2068 -3856 0
-2129 -3813 0
-2130 -3814 0
-2131 -3815 0
-2132 -3816 0
-2345 -2353 0
-2346 -2354 0
-2347 -2355 0
-2348 -2356 0
-2405 -2945 0
-2406 -2946 0
-2407 -2947 0
-2408 -2948 0
-2545 -3533 0
-2546 -3534 0
-2547 -3535 0
-2548 -3536 0
-2657 -3013 0
-2658 -3014 0
-2659 -3015 0
-2660 -3016 0
-3093 -3585 0
-3094 -3586 0
-3095 -3587 0
-3096 -3588 0
-3273 -3717 0
-3274 -3718 0
-3275 -3719 0
-3276 -3720 0
-3337 -3729 0
-3338 -3730 0
-3339 -3731 0
-3340 -3732 0
-3457 -3561 0
-3458 -3562 0
-3459 -3563 0
-3460 -3564 0
-17 -21 0
-18 -22 0
-19 -23 0
-20 -24 0
-29 -1553 0
-30 -1554 0
-31 -1555 0
-32 -1556 0
-33 -2261 0
-34 -2262 0
-35 -2263 0
-36 -2264 0
-57 -1773 0
-58 -1774 0
-59 -1775 0
-60 -1776 0
-89 -2237 0
-90 -2238 0
-91 -2239 0
-92 -2240 0
-93 -97 0
-94 -98 0
-95 -99 0
-96 -100 0
-113 -3753 0
-114 -3754 0
-115 -3755 0
-116 -3756 0
-129 -3225 0
-130 -3226 0
-131 -3227 0
-132 -3228 0
-133 -1969 0
-134 -1970 0
-135 -1971 0
-136 -1972 0
-161 -1077 0
-162 -1078 0
-163 -1079 0
-164 -1080 0
-201 -3633 0
-202 -3634 0
-203 -3635 0
-204 -3636 0
-253 -1217 0
-254 -1218 0
-255 -1219 0
-256 -1220 0
-269 -1073 0
-270 -1074 0
-271 -1075 0
-272 -1076 0
-293 -1329 0
-294 -1330 0
-295 -1331 0
-296 -1332 0
-317 -1069 0
-318 -1070 0
-319 -1071 0
-320 -1072 0
-425 -1445 0
-426 -1446 0
-427 -1447 0
-428 -1448 0
-437 -573 0
-438 -574 0
-439 -575 0
-440 -576 0
-457 -717 0
-458 -718 0
-459 -719 0
-460 -720 0
-489 -1409 0
-490 -1410 0
-491 -1411 0
-492 -1412 0
-493 -2421 0
-494 -2422 0
-495 -2423 0
-496 -2424 0
-497 -873 0
-498 -874 0
-499 -875 0
-500 -876 0
-553 -1653 0
-554 -1654 0
-555 -1655 0
-556 -1656 0
-637 -2285 0
-638 -2286 0
-639 -2287 0
-640 -2288 0
-657 -3877 0
-658 -3878 0
-659 -3879 0
-660 -3880 0
-669 -3073 0
-670 -3074 0
-671 -3075 0
-672 -3076 0
-681 -2041 0
-682 -2042 0
-683 -2043 0
-684 -2044 0
-701 -1945 0
-702 -1946 0
-703 -1947 0
-704 -1948 0
-709 -3129 0
-710 -3130 0
-711 -3131 0
-712 -3132 0
-769 -1093 0
-770 -1094 0
-771 -1095 0
-772 -1096 0
-813 -885 0
-814 -886 0
-815 -887 0
-816 -888 0
-821 -3653 0
-822 -3654 0
-823 -3655 0
-824 -3656 0
-825 -1665 0
-826 -1666 0
-827 -1667 0
-828 -1668 0
-881 -3461 0
-882 -3462 0
-883 -3463 0
-884 -3464 0
-893 -1121 0
-894 -1122 0
-895 -1123 0
-896 -1124 0
-925 -2217 0
-926 -2218 0
-927 -2219 0
-928 -2220 0
-993 -3249 0
-994 -3250 0
-995 -3251 0
-996 -3252 0
-1025 -1373 0
-1026 -1374 0
-1027 -1375 0
-1028 -1376 0
-1101 -1125 0
-1102 -1126 0
-1103 -1127 0
-1104 -1128 0
-1117 -1137 0
-1118 -1138 0
-1119 -1139 0
-1120 -1140 0
-1129 -1173 0
-1130 -1174 0
-1131 -1175 0
-1132 -1176 0
-1181 -1829 0
-1182 -1830 0
-1183 -1831 0
-1184 -1832 0
-1209 -3833 0
-1210 -3834 0
-1211 -3835 0
-1212 -3836 0
-1273 -1569 0
-1274 -1570 0
-1275 -1571 0
-1276 -1572 0
-1289 -3365 0
-1290 -3366 0
-1291 -3367 0
-1292 -3368 0
-1305 -1897 0
-1306 -1898 0
-1307 -1899 0
-1308 -1900 0
-1365 -3237 0
-1366 -3238 0
-1367 -3239 0
-1368 -3240 0
-1385 -2181 0
-1386 -2182 0
-1387 -2183 0
-1388 -2184 0
-1413 -2257 0
-1414 -2258 0
-1415 -2259 0
-1416 -2260 0
-1417 -2717 0
-1418 -2718 0
-1419 -2719 0
-1420 -2720 0
-1449 -2633 0
-1450 -2634 0
-1451 -2635 0
-1452 -2636 0
-1493 -2317 0
-1494 -2318 0
-1495 -2319 0
-1496 -2320 0
-1621 -3649 0
-1622 -3650 0
-1623 -3651 0
-1624 -3652 0
-1693 -2953 0
-1694 -2954 0
-1695 -2955 0
-1696 -2956 0
-1925 -3629 0
-1926 -3630 0
-1927 -3631 0
-1928 -3632 0
-1937 -3501 0
-1938 -3502 0
-1939 -3503 0
-1940 -3504 0
-1965 -3245 0
-1966 -3246 0
-1967 -3247 0
-1968 -3248 0
-2081 -2197 0
-2082 -2198 0
-2083 -2199 0
-2084 -2200 0
-2273 -3845 0
-2274 -3846 0
-2275 -3847 0
-2276 -3848 0
-2409 -2605 0
-2410 -2606 0
-2411 -2607 0
-2412 -2608 0
-2541 -3545 0
-2542 -3546 0
-2543 -3547 0
-2544 -3548 0
-2661 -3333 0
-2662 -3334 0
-2663 -3335 0
-2664 -3336 0
-3385 -3509 0
-3386 -3510 0
-3387 -3511 0
-3388 -3512 0
-41 -2837 0
-42 -2838 0
-43 -2839 0
-44 -2840 0
-85 -2297 0
-86 -2298 0
-87 -2299 0
-88 -2300 0
-89 -3941 0
-90 -3942 0
-91 -3943 0
-92 -3944 0
-101 -1461 0
-102 -1462 0
-103 -1463 0
-104 -1464 0
-129 -2405 0
-130 -2406 0
-131 -2407 0
-132 -2408 0
-133 -1493 0
-134 -1494 0
-135 -1495 0
-136 -1496 0
-145 -1109 0
-146 -1110 0
-147 -1111 0
-148 -1112 0
-173 -2177 0
-174 -2178 0
-175 -2179 0
-176 -2180 0
-225 -721 0
-226 -722 0
-227 -723 0
-228 -724 0
-253 -2865 0
-254 -2866 0
-255 -2867 0
-256 -2868 0
-301 -2153 0
-302 -2154 0
-303 -2155 0
-304 -2156 0
-341 -1161 0
-342 -1162 0
-343 -1163 0
-344 -1164 0
-361 -1009 0
-362 -1010 0
-363 -1011 0
-364 -1012 0
-365 -613 0
-366 -614 0
-367 -615 0
-368 -616 0
-381 -3965 0
-382 -3966 0
-383 -3967 0
-384 -3968 0
-393 -1509 0
-394 -1510 0
-395 -1511 0
-396 -1512 0
-445 -3789 0
-446 -3790 0
-447 -3791 0
-448 -3792 0
-477 -1333 0
-478 -1334 0
-479 -1335 0
-480 -1336 0
-493 -3901 0
-494 -3902 0
-495 -3903 0
-496 -3904 0
-525 -1017 0
-526 -1018 0
-527 -1019 0
-528 -1020 0
-593 -3361 0
-594 -3362 0
-595 -3363 0
-596 -3364 0
-601 -977 0
-602 -978 0
-603 -979 0
-604 -980 0
-657 -3777 0
-658 -3778 0
-659 -3779 0
-660 -3780 0
-705 -2489 0
-706 -2490 0
-707 -2491 0
-708 -2492 0
-713 -1425 0
-714 -1426 0
-715 -1427 0
-716 -1428 0
-821 -1413 0
-822 -1414 0
-823 -1415 0
-824 -1416 0
-837 -2877 0
-838 -2878 0
-839 -2879 0
-840 -2880 0
-905 -2553 0
-906 -2554 0
-907 -2555 0
-908 -2556 0
-937 -1925 0
-938 -1926 0
-939 -1927 0
-940 -1928 0
-1033 -3117 0
-1034 -3118 0
-1035 -3119 0
-1036 -3120 0
-1101 -3885 0
-1102 -3886 0
-1103 -3887 0
-1104 -3888 0
-1181 -3101 0
-1182 -3102 0
-1183 -3103 0
-1184 -3104 0
-1205 -3497 0
-1206 -3498 0
-1207 -3499 0
-1208 -3500 0
-1421 -2345 0
-1422 -2346 0
-1423 -2347 0
-1424 -2348 0
-1481 -2353 0
-1482 -2354 0
-1483 -2355 0
-1484 -2356 0
-1497 -3261 0
-1498 -3262 0
-1499 -3263 0
-1500 -3264 0
-1501 -1621 0
-1502 -1622 0
-1503 -1623 0
-1504 -1624 0
-1649 -2597 0
-1650 -2598 0
-1651 -2599 0
-1652 -2600 0
-1661 -2477 0
-1662 -2478 0
-1663 -2479 0
-1664 -2480 0
-1669 -3057 0
-1670 -3058 0
-1671 -3059 0
-1672 -3060 0
-1673 -2781 0
-1674 -2782 0
-1675 -2783 0
-1676 -2784 0
-1797 -3469 0
-1798 -3470 0
-1799 -3471 0
-1800 -3472 0
-1933 -2017 0
-1934 -2018 0
-1935 -2019 0
-1936 -2020 0
-1969 -2317 0
-1970 -2318 0
-1971 -2319 0
-1972 -2320 0
-2057 -2929 0
-2058 -2930 0
-2059 -2931 0
-2060 -2932 0
-2233 -3553 0
-2234 -3554 0
-2235 -3555 0
-2236 -3556 0
-2245 -2565 0
-2246 -2566 0
-2247 -2567 0
-2248 -2568 0
-2349 -4065 0
-2350 -4066 0
-2351 -4067 0
-2352 -4068 0
-2365 -3513 0
-2366 -3514 0
-2367 -3515 0
-2368 -3516 0
-2425 -3049 0
-2426 -3050 0
-2427 -3051 0
-2428 -3052 0
-2453 -3389 0
-2454 -3390 0
-2455 -3391 0
-2456 -3392 0
-2461 -3289 0
-2462 -3290 0
-2463 -3291 0
-2464 -3292 0
-2689 -3797 0
-2690 -3798 0
-2691 -3799 0
-2692 -3800 0
-2853 -2873 0
-2854 -2874 0
-2855 -2875 0
-2856 -2876 0
-2937 -3005 0
-2938 -3006 0
-2939 -3007 0
-2940 -3008 0
-3037 -3273 0
-3038 -3274 0
-3039 -3275 0
-3040 -3276 0
-3245 -3501 0
-3246 -3502 0
-3247 -3503 0
-3248 -3504 0
-3301 -3565 0
-3302 -3566 0
-3303 -3567 0
-3304 -3568 0
-21 -3621 0
-22 -3622 0
-23 -3623 0
-24 -3624 0
-41 -1797 0
-42 -1798 0
-43 -1799 0
-44 -1800 0
-85 -2761 0
-86 -2762 0
-87 -2763 0
-88 -2764 0
-101 -397 0
-102 -398 0
-103 -399 0
-104 -400 0
-109 -2517 0
-110 -2518 0
-111 -2519 0
-112 -2520 0
-117 -1625 0
-118 -1626 0
-119 -1627 0
-120 -1628 0
-129 -253 0
-130 -254 0
-131 -255 0
-132 -256 0
-133 -705 0
-134 -706 0
-135 -707 0
-136 -708 0
-141 -1565 0
-142 -1566 0
-143 -1567 0
-144 -1568 0
-153 -381 0
-154 -382 0
-155 -383 0
-156 -384 0
-157 -649 0
-158 -650 0
-159 -651 0
-160 -652 0
-165 -1297 0
-166 -1298 0
-167 -1299 0
-168 -1300 0
-169 -621 0
-170 -622 0
-171 -623 0
-172 -624 0
-173 -301 0
-174 -302 0
-175 -303 0
-176 -304 0
-181 -1381 0
-182 -1382 0
-183 -1383 0
-184 -1384 0
-245 -1785 0
-246 -1786 0
-247 -1787 0
-248 -1788 0
-265 -1457 0
-266 -1458 0
-267 -1459 0
-268 -1460 0
-293 -1305 0
-294 -1306 0
-295 -1307 0
-296 -1308 0
-297 -3685 0
-298 -3686 0
-299 -3687 0
-300 -3688 0
-321 -1485 0
-322 -1486 0
-323 -1487 0
-324 -1488 0
-385 -1985 0
-386 -1986 0
-387 -1987 0
-388 -1988 0
-409 -2013 0
-410 -2014 0
-411 -2015 0
-412 -2016 0
-421 -1645 0
-422 -1646 0
-423 -1647 0
-424 -1648 0
-433 -1481 0
-434 -1482 0
-435 -1483 0
-436 -1484 0
-445 -1669 0
-446 -1670 0
-447 -1671 0
-448 -1672 0
-453 -517 0
-454 -518 0
-455 -519 0
-456 -520 0
-461 -3693 0
-462 -3694 0
-463 -3695 0
-464 -3696 0
-465 -3253 0
-466 -3254 0
-467 -3255 0
-468 -3256 0
-477 -1857 0
-478 -1858 0
-479 -1859 0
-480 -1860 0
-489 -1449 0
-490 -1450 0
-491 -1451 0
-492 -1452 0
-497 -1321 0
-498 -1322 0
-499 -1323 0
-500 -1324 0
-549 -1021 0
-550 -1022 0
-551 -1023 0
-552 -1024 0
-557 -585 0
-558 -586 0
-559 -587 0
-560 -588 0
-565 -1885 0
-566 -1886 0
-567 -1887 0
-568 -1888 0
-573 -2637 0
-574 -2638 0
-575 -2639 0
-576 -2640 0
-617 -1049 0
-618 -1050 0
-619 -1051 0
-620 -1052 0
-641 -869 0
-642 -870 0
-643 -871 0
-644 -872 0
-677 -2965 0
-678 -2966 0
-679 -2967 0
-680 -2968 0
-737 -1033 0
-738 -1034 0
-739 -1035 0
-740 -1036 0
-741 -3217 0
-742 -3218 0
-743 -3219 0
-744 -3220 0
-749 -825 0
-750 -826 0
-751 -827 0
-752 -828 0
-777 -2389 0
-778 -2390 0
-779 -2391 0
-780 -2392 0
-793 -1405 0
-794 -1406 0
-795 -1407 0
-796 -1408 0
-805 -1853 0
-806 -1854 0
-807 -1855 0
-808 -1856 0
-829 -1113 0
-830 -1114 0
-831 -1115 0
-832 -1116 0
-833 -2009 0
-834 -2010 0
-835 -2011 0
-836 -2012 0
-841 -2037 0
-842 -2038 0
-843 -2039 0
-844 -2040 0
-909 -1901 0
-910 -1902 0
-911 -1903 0
-912 -1904 0
-913 -1141 0
-914 -1142 0
-915 -1143 0
-916 -1144 0
-945 -1453 0
-946 -1454 0
-947 -1455 0
-948 -1456 0
-961 -1777 0
-962 -1778 0
-963 -1779 0
-964 -1780 0
-977 -1441 0
-978 -1442 0
-979 -1443 0
-980 -1444 0
-1009 -3769 0
-1010 -3770 0
-1011 -3771 0
-1012 -3772 0
-1061 -1149 0
-1062 -1150 0
-1063 -1151 0
-1064 -1152 0
-1077 -1773 0
-1078 -1774 0
-1079 -1775 0
-1080 -1776 0
-1089 -2333 0
-1090 -2334 0
-1091 -2335 0
-1092 -2336 0
-1121 -2285 0
-1122 -2286 0
-1123 -2287 0
-1124 -2288 0
-1169 -2433 0
-1170 -2434 0
-1171 -2435 0
-1172 -2436 0
-1173 -1653 0
-1174 -1654 0
-1175 -1655 0
-1176 -1656 0
-1177 -1393 0
-1178 -1394 0
-1179 -1395 0
-1180 -1396 0
-1329 -1897 0
-1330 -1898 0
-1331 -1899 0
-1332 -1900 0
-1341 -2649 0
-1342 -2650 0
-1343 -2651 0
-1344 -2652 0
-1361 -1689 0
-1362 -1690 0
-1363 -1691 0
-1364 -1692 0
-1373 -2781 0
-1374 -2782 0
-1375 -2783 0
-1376 -2784 0
-1409 -2633 0
-1410 -2634 0
-1411 -2635 0
-1412 -2636 0
-1493 -2489 0
-1494 -2490 0
-1495 -2491 0
-1496 -2492 0
-1569 -1673 0
-1570 -1674 0
-1571 -1675 0
-1572 -1676 0
-1909 -2349 0
-1910 -2350 0
-1911 -2351 0
-1912 -2352 0
-1917 -2265 0
-1918 -2266 0
-1919 -2267 0
-1920 -2268 0
-1921 -2005 0
-1922 -2006 0
-1923 -2007 0
-1924 -2008 0
-2041 -2485 0
-2042 -2486 0
-2043 -2487 0
-2044 -2488 0
-2097 -2541 0
-2098 -2542 0
-2099 -2543 0
-2100 -2544 0
-2125 -2769 0
-2126 -2770 0
-2127 -2771 0
-2128 -2772 0
-2157 -2277 0
-2158 -2278 0
-2159 -2279 0
-2160 -2280 0
-2245 -3229 0
-2246 -3230 0
-2247 -3231 0
-2248 -3232 0
-2249 -2497 0
-2250 -2498 0
-2251 -2499 0
-2252 -2500 0
-2381 -3017 0
-2382 -3018 0
-2383 -3019 0
-2384 -3020 0
-2405 -2865 0
-2406 -2866 0
-2407 -2867 0
-2408 -2868 0
-2437 -2677 0
-2438 -2678 0
-2439 -2679 0
-2440 -2680 0
-2457 -2573 0
-2458 -2574 0
-2459 -2575 0
-2460 -2576 0
-2469 -3637 0
-2470 -3638 0
-2471 -3639 0
-2472 -3640 0
-2473 -4057 0
-2474 -4058 0
-2475 -4059 0
-2476 -4060 0
-2565 -2861 0
-2566 -2862 0
-2567 -2863 0
-2568 -2864 0
-2577 -2825 0
-2578 -2826 0
-2579 -2827 0
-2580 -2828 0
-2605 -2993 0
-2606 -2994 0
-2607 -2995 0
-2608 -2996 0
-2837 -3469 0
-2838 -3470 0
-2839 -3471 0
-2840 -3472 0
-2885 -2989 0
-2886 -2990 0
-2887 -2991 0
-2888 -2992 0
-3369 -4053 0
-3370 -4054 0
-3371 -4055 0
-3372 -4056 0
-13 -3333 0
-14 -3334 0
-15 -3335 0
-16 -3336 0
-29 -3153 0
-30 -3154 0
-31 -3155 0
-32 -3156 0
-37 -717 0
-38 -718 0
-39 -719 0
-40 -720 0
-89 -1081 0
-90 -1082 0
-91 -1083 0
-92 -1084 0
-97 -2261 0
-98 -2262 0
-99 -2263 0
-100 -2264 0
-129 -2525 0
-130 -2526 0
-131 -2527 0
-132 -2528 0
-153 -557 0
-154 -558 0
-155 -559 0
-156 -560 0
-213 -781 0
-214 -782 0
-215 -783 0
-216 -784 0
-225 -2977 0
-226 -2978 0
-227 -2979 0
-228 -2980 0
-237 -3365 0
-238 -3366 0
-239 -3367 0
-240 -3368 0
-321 -737 0
-322 -738 0
-323 -739 0
-324 -740 0
-357 -885 0
-358 -886 0
-359 -887 0
-360 -888 0
-381 -585 0
-382 -586 0
-383 -587 0
-384 -588 0
-413 -1553 0
-414 -1554 0
-415 -1555 0
-416 -1556 0
-629 -1277 0
-630 -1278 0
-631 -1279 0
-632 -1280 0
-633 -1037 0
-634 -1038 0
-635 -1039 0
-636 -1040 0
-641 -3305 0
-642 -3306 0
-643 -3307 0
-644 -3308 0
-721 -1545 0
-722 -1546 0
-723 -1547 0
-724 -1548 0
-749 -1061 0
-750 -1062 0
-751 -1063 0
-752 -1064 0
-761 -857 0
-762 -858 0
-763 -859 0
-764 -860 0
-825 -1149 0
-826 -1150 0
-827 -1151 0
-828 -1152 0
-849 -2849 0
-850 -2850 0
-851 -2851 0
-852 -2852 0
-877 -997 0
-878 -998 0
-879 -999 0
-880 -1000 0
-881 -1001 0
-882 -1002 0
-883 -1003 0
-884 -1004 0
-929 -1389 0
-930 -1390 0
-931 -1391 0
-932 -1392 0
-977 -1173 0
-978 -1174 0
-979 -1175 0
-980 -1176 0
-989 -2289 0
-990 -2290 0
-991 -2291 0
-992 -2292 0
-1025 -1401 0
-1026 -1402 0
-1027 -1403 0
-1028 -1404 0
-1193 -2181 0
-1194 -2182 0
-1195 -2183 0
-1196 -2184 0
-1377 -1601 0
-1378 -1602 0
-1379 -1603 0
-1380 -1604 0
-1437 -1533 0
-1438 -1534 0
-1439 -1535 0
-1440 -1536 0
-1441 -1653 0
-1442 -1654 0
-1443 -1655 0
-1444 -1656 0
-1505 -2549 0
-1506 -2550 0
-1507 -2551 0
-1508 -2552 0
-1593 -2385 0
-1594 -2386 0
-1595 -2387 0
-1596 -2388 0
-1725 -1969 0
-1726 -1970 0
-1727 -1971 0
-1728 -1972 0
-1993 -3005 0
-1994 -3006 0
-1995 -3007 0
-1996 -3008 0
-1997 -2197 0
-1998 -2198 0
-1999 -2199 0
-2000 -2200 0
-2053 -2937 0
-2054 -2938 0
-2055 -2939 0
-2056 -2940 0
-2325 -2329 0
-2326 -2330 0
-2327 -2331 0
-2328 -2332 0
-2557 -3053 0
-2558 -3054 0
-2559 -3055 0
-2560 -3056 0
-2725 -2941 0
-2726 -2942 0
-2727 -2943 0
-2728 -2944 0
-2901 -2913 0
-2902 -2914 0
-2903 -2915 0
-2904 -2916 0
-3309 -3561 0
-3310 -3562 0
-3311 -3563 0
-3312 -3564 0
-5 -1325 0
-6 -1326 0
-7 -1327 0
-8 -1328 0
-9 -1777 0
-10 -1778 0
-11 -1779 0
-12 -1780 0
-33 -261 0
-34 -262 0
-35 -263 0
-36 -264 0
-69 -73 0
-70 -74 0
-71 -75 0
-72 -76 0
-81 -1489 0
-82 -1490 0
-83 -1491 0
-84 -1492 0
-93 -701 0
-94 -702 0
-95 -703 0
-96 -704 0
-97 -1945 0
-98 -1946 0
-99 -1947 0
-100 -1948 0
-113 -1013 0
-114 -1014 0
-115 -1015 0
-116 -1016 0
-125 -961 0
-126 -962 0
-127 -963 0
-128 -964 0
-141 -1561 0
-142 -1562 0
-143 -1563 0
-144 -1564 0
-145 -149 0
-146 -150 0
-147 -151 0
-148 -152 0
-181 -1169 0
-182 -1170 0
-183 -1171 0
-184 -1172 0
-213 -2869 0
-214 -2870 0
-215 -2871 0
-216 -2872 0
-225 -2053 0
-226 -2054 0
-227 -2055 0
-228 -2056 0
-229 -3209 0
-230 -3210 0
-231 -3211 0
-232 -3212 0
-249 -3125 0
-250 -3126 0
-251 -3127 0
-252 -3128 0
-285 -485 0
-286 -486 0
-287 -487 0
-288 -488 0
-349 -1157 0
-350 -1158 0
-351 -1159 0
-352 -1160 0
-541 -1397 0
-542 -1398 0
-543 -1399 0
-544 -1400 0
-561 -3537 0
-562 -3538 0
-563 -3539 0
-564 -3540 0
-593 -1285 0
-594 -1286 0
-595 -1287 0
-596 -1288 0
-605 -3065 0
-606 -3066 0
-607 -3067 0
-608 -3068 0
-721 -1993 0
-722 -1994 0
-723 -1995 0
-724 -1996 0
-753 -3429 0
-754 -3430 0
-755 -3431 0
-756 -3432 0
-781 -2617 0
-782 -2618 0
-783 -2619 0
-784 -2620 0
-797 -1749 0
-798 -1750 0
-799 -1751 0
-800 -1752 0
-821 -3505 0
-822 -3506 0
-823 -3507 0
-824 -3508 0
-849 -989 0
-850 -990 0
-851 -991 0
-852 -992 0
-861 -1065 0
-862 -1066 0
-863 -1067 0
-864 -1068 0
-1005 -2089 0
-1006 -2090 0
-1007 -2091 0
-1008 -2092 0
-1181 -3893 0
-1182 -3894 0
-1183 -3895 0
-1184 -3896 0
-1309 -2113 0
-1310 -2114 0
-1311 -2115 0
-1312 -2116 0
-1381 -2433 0
-1382 -2434 0
-1383 -2435 0
-1384 -2436 0
-1413 -3377 0
-1414 -3378 0
-1415 -3379 0
-1416 -3380 0
-1525 -2505 0
-1526 -2506 0
-1527 -2507 0
-1528 -2508 0
-1529 -4033 0
-1530 -4034 0
-1531 -4035 0
-1532 -4036 0
-1545 -3005 0
-1546 -3006 0
-1547 -3007 0
-1548 -3008 0
-1557 -1789 0
-1558 -1790 0
-1559 -1791 0
-1560 -1792 0
-1573 -2137 0
-1574 -2138 0
-1575 -2139 0
-1576 -2140 0
-1617 -1761 0
-1618 -1762 0
-1619 -1763 0
-1620 -1764 0
-1621 -3497 0
-1622 -3498 0
-1623 -3499 0
-1624 -3500 0
-1737 -3605 0
-1738 -3606 0
-1739 -3607 0
-1740 -3608 0
-1805 -3133 0
-1806 -3134 0
-1807 -3135 0
-1808 -3136 0
-1865 -2173 0
-1866 -2174 0
-1867 -2175 0
-1868 -2176 0
-1881 -2121 0
-1882 -2122 0
-1883 -2123 0
-1884 -2124 0
-1893 -3589 0
-1894 -3590 0
-1895 -3591 0
-1896 -3592 0
-1949 -3269 0
-1950 -3270 0
-1951 -3271 0
-1952 -3272 0
-1961 -2373 0
-1962 -2374 0
-1963 -2375 0
-1964 -2376 0
-2049 -3257 0
-2050 -3258 0
-2051 -3259 0
-2052 -3260 0
-2081 -3609 0
-2082 -3610 0
-2083 -3611 0
-2084 -3612 0
-2161 -2925 0
-2162 -2926 0
-2163 -2927 0
-2164 -2928 0
-2229 -2693 0
-2230 -2694 0
-2231 -2695 0
-2232 -2696 0
-2533 -2845 0
-2534 -2846 0
-2535 -2847 0
-2536 -2848 0
-2857 -3281 0
-2858 -3282 0
-2859 -3283 0
-2860 -3284 0
-2997 -3909 0
-2998 -3910 0
-2999 -3911 0
-3000 -3912 0
-3105 -3545 0
-3106 -3546 0
-3107 -3547 0
-3108 -3548 0
-3489 -3517 0
-3490 -3518 0
-3491 -3519 0
-3492 -3520 0
-69 -285 0
-70 -286 0
-71 -287 0
-72 -288 0
-73 -485 0
-74 -486 0
-75 -487 0
-76 -488 0
-153 -3001 0
-154 -3002 0
-155 -3003 0
-156 -3004 0
-217 -3205 0
-218 -3206 0
-219 -3207 0
-220 -3208 0
-249 -1529 0
-250 -1530 0
-251 -1531 0
-252 -1532 0
-269 -441 0
-270 -442 0
-271 -443 0
-272 -444 0
-321 -413 0
-322 -414 0
-323 -415 0
-324 -416 0
-329 -513 0
-330 -514 0
-331 -515 0
-332 -516 0
-385 -2257 0
-386 -2258 0
-387 -2259 0
-388 -2260 0
-409 -473 0
-410 -474 0
-411 -475 0
-412 -476 0
-445 -1249 0
-446 -1250 0
-447 -1251 0
-448 -1252 0
-457 -673 0
-458 -674 0
-459 -675 0
-460 -676 0
-525 -2149 0
-526 -2150 0
-527 -2151 0
-528 -2152 0
-657 -3353 0
-658 -3354 0
-659 -3355 0
-660 -3356 0
-677 -3649 0
-678 -3650 0
-679 -3651 0
-680 -3652 0
-705 -1797 0
-706 -1798 0
-707 -1799 0
-708 -1800 0
-737 -1553 0
-738 -1554 0
-739 -1555 0
-740 -1556 0
-809 -1845 0
-810 -1846 0
-811 -1847 0
-812 -1848 0
-813 -845 0
-814 -846 0
-815 -847 0
-816 -848 0
-829 -889 0
-830 -890 0
-831 -891 0
-832 -892 0
-1005 -1737 0
-1006 -1738 0
-1007 -1739 0
-1008 -1740 0
-1061 -2953 0
-1062 -2954 0
-1063 -2955 0
-1064 -2956 0
-1153 -1441 0
-1154 -1442 0
-1155 -1443 0
-1156 -1444 0
-1245 -1457 0
-1246 -1458 0
-1247 -1459 0
-1248 -1460 0
-1337 -1913 0
-1338 -1914 0
-1339 -1915 0
-1340 -1916 0
-1401 -1545 0
-1402 -1546 0
-1403 -1547 0
-1404 -1548 0
-1493 -2837 0
-1494 -2838 0
-1495 -2839 0
-1496 -2840 0
-1601 -1897 0
-1602 -1898 0
-1603 -1899 0
-1604 -1900 0
-1837 -2221 0
-1838 -2222 0
-1839 -2223 0
-1840 -2224 0
-1877 -2709 0
-1878 -2710 0
-1879 -2711 0
-1880 -2712 0
-1937 -2501 0
-1938 -2502 0
-1939 -2503 0
-1940 -2504 0
-2037 -2761 0
-2038 -2762 0
-2039 -2763 0
-2040 -2764 0
-2089 -3605 0
-2090 -3606 0
-2091 -3607 0
-2092 -3608 0
-2281 -3833 0
-2282 -3834 0
-2283 -3835 0
-2284 -3836 0
-2437 -2549 0
-2438 -2550 0
-2439 -2551 0
-2440 -2552 0
-2489 -3469 0
-2490 -3470 0
-2491 -3471 0
-2492 -3472 0
-2609 -2633 0
-2610 -2634 0
-2611 -2635 0
-2612 -2636 0
-2737 -3225 0
-2738 -3226 0
-2739 -3227 0
-2740 -3228 0
-3125 -4033 0
-3126 -4034 0
-3127 -4035 0
-3128 -4036 0
-25 -2353 0
-26 -2354 0
-27 -2355 0
-28 -2356 0
-29 -1369 0
-30 -1370 0
-31 -1371 0
-32 -1372 0
-41 -1105 0
-42 -1106 0
-43 -1107 0
-44 -1108 0
-61 -2397 0
-62 -2398 0
-63 -2399 0
-64 -2400 0
-105 -1481 0
-106 -1482 0
-107 -1483 0
-108 -1484 0
-133 -1869 0
-134 -1870 0
-135 -1871 0
-136 -1872 0
-137 -1765 0
-138 -1766 0
-139 -1767 0
-140 -1768 0
-157 -2249 0
-158 -2250 0
-159 -2251 0
-160 -2252 0
-161 -957 0
-162 -958 0
-163 -959 0
-164 -960 0
-169 -2805 0
-170 -2806 0
-171 -2807 0
-172 -2808 0
-197 -853 0
-198 -854 0
-199 -855 0
-200 -856 0
-213 -849 0
-214 -850 0
-215 -851 0
-216 -852 0
-225 -3301 0
-226 -3302 0
-227 -3303 0
-228 -3304 0
-269 -1893 0
-270 -1894 0
-271 -1895 0
-272 -1896 0
-329 -2969 0
-330 -2970 0
-331 -2971 0
-332 -2972 0
-341 -433 0
-342 -434 0
-343 -435 0
-344 -436 0
-361 -1125 0
-362 -1126 0
-363 -1127 0
-364 -1128 0
-397 -2761 0
-398 -2762 0
-399 -2763 0
-400 -2764 0
-417 -561 0
-418 -562 0
-419 -563 0
-420 -564 0
-457 -2985 0
-458 -2986 0
-459 -2987 0
-460 -2988 0
-465 -605 0
-466 -606 0
-467 -607 0
-468 -608 0
-533 -2881 0
-534 -2882 0
-535 -2883 0
-536 -2884 0
-537 -1141 0
-538 -1142 0
-539 -1143 0
-540 -1144 0
-553 -3017 0
-554 -3018 0
-555 -3019 0
-556 -3020 0
-569 -2037 0
-570 -2038 0
-571 -2039 0
-572 -2040 0
-637 -2861 0
-638 -2862 0
-639 -2863 0
-640 -2864 0
-645 -1537 0
-646 -1538 0
-647 -1539 0
-648 -1540 0
-649 -2497 0
-650 -2498 0
-651 -2499 0
-652 -2500 0
-685 -841 0
-686 -842 0
-687 -843 0
-688 -844 0
-713 -3013 0
-714 -3014 0
-715 -3015 0
-716 -3016 0
-721 -3565 0
-722 -3566 0
-723 -3567 0
-724 -3568 0
-733 -913 0
-734 -914 0
-735 -915 0
-736 -916 0
-761 -1261 0
-762 -1262 0
-763 -1263 0
-764 -1264 0
-773 -1573 0
-774 -1574 0
-775 -1575 0
-776 -1576 0
-781 -2849 0
-782 -2850 0
-783 -2851 0
-784 -2852 0
-821 -2229 0
-822 -2230 0
-823 -2231 0
-824 -2232 0
-861 -2201 0
-862 -2202 0
-863 -2203 0
-864 -2204 0
-893 -2565 0
-894 -2566 0
-895 -2567 0
-896 -2568 0
-929 -1889 0
-930 -1890 0
-931 -1891 0
-932 -1892 0
-949 -2813 0
-950 -2814 0
-951 -2815 0
-952 -2816 0
-1029 -1917 0
-1030 -1918 0
-1031 -1919 0
-1032 -1920 0
-1049 -1381 0
-1050 -1382 0
-1051 -1383 0
-1052 -1384 0
-1113 -2389 0
-1114 -2390 0
-1115 -2391 0
-1116 -2392 0
-1129 -2381 0
-1130 -2382 0
-1131 -2383 0
-1132 -2384 0
-1185 -2673 0
-1186 -2674 0
-1187 -2675 0
-1188 -2676 0
-1213 -3681 0
-1214 -3682 0
-1215 -3683 0
-1216 -3684 0
-1253 -1745 0
-1254 -1746 0
-1255 -1747 0
-1256 -1748 0
-1293 -3321 0
-1294 -3322 0
-1295 -3323 0
-1296 -3324 0
-1437 -1521 0
-1438 -1522 0
-1439 -1523 0
-1440 -1524 0
-1461 -2297 0
-1462 -2298 0
-1463 -2299 0
-1464 -2300 0
-1501 -1717 0
-1502 -1718 0
-1503 -1719 0
-1504 -1720 0
-1605 -3033 0
-1606 -3034 0
-1607 -3035 0
-1608 -3036 0
-1733 -3409 0
-1734 -3410 0
-1735 -3411 0
-1736 -3412 0
-1853 -1885 0
-1854 -1886 0
-1855 -1887 0
-1856 -1888 0
-1861 -2093 0
-1862 -2094 0
-1863 -2095 0
-1864 -2096 0
-1905 -3525 0
-1906 -3526 0
-1907 -3527 0
-1908 -3528 0
-1921 -2245 0
-1922 -2246 0
-1923 -2247 0
-1924 -2248 0
-2005 -3229 0
-2006 -3230 0
-2007 -3231 0
-2008 -3232 0
-2081 -2857 0
-2082 -2858 0
-2083 -2859 0
-2084 -2860 0
-2117 -3061 0
-2118 -3062 0
-2119 -3063 0
-2120 -3064 0
-2185 -3277 0
-2186 -3278 0
-2187 -3279 0
-2188 -3280 0
-2301 -3593 0
-2302 -3594 0
-2303 -3595 0
-2304 -3596 0
-2309 -3665 0
-2310 -3666 0
-2311 -3667 0
-2312 -3668 0
-2321 -2621 0
-2322 -2622 0
-2323 -2623 0
-2324 -2624 0
-2357 -3937 0
-2358 -3938 0
-2359 -3939 0
-2360 -3940 0
-2541 -2793 0
-2542 -2794 0
-2543 -2795 0
-2544 -2796 0
-2845 -3897 0
-2846 -3898 0
-2847 -3899 0
-2848 -3900 0
-2937 -3689 0
-2938 -3690 0
-2939 -3691 0
-2940 -3692 0
-3381 -3849 0
-3382 -3850 0
-3383 -3851 0
-3384 -3852 0
-85 -1601 0
-86 -1602 0
-87 -1603 0
-88 -1604 0
-145 -2601 0
-146 -2602 0
-147 -2603 0
-148 -2604 0
-249 -2269 0
-250 -2270 0
-251 -2271 0
-252 -2272 0
-273 -3557 0
-274 -3558 0
-275 -3559 0
-276 -3560 0
-349 -3117 0
-350 -3118 0
-351 -3119 0
-352 -3120 0
-357 -2477 0
-358 -2478 0
-359 -2479 0
-360 -2480 0
-373 -3265 0
-374 -3266 0
-375 -3267 0
-376 -3268 0
-445 -3893 0
-446 -3894 0
-447 -3895 0
-448 -3896 0
-465 -2681 0
-466 -2682 0
-467 -2683 0
-468 -2684 0
-513 -3769 0
-514 -3770 0
-515 -3771 0
-516 -3772 0
-521 -645 0
-522 -646 0
-523 -647 0
-524 -648 0
-605 -2609 0
-606 -2610 0
-607 -2611 0
-608 -2612 0
-653 -3041 0
-654 -3042 0
-655 -3043 0
-656 -3044 0
-669 -785 0
-670 -786 0
-671 -787 0
-672 -788 0
-689 -3257 0
-690 -3258 0
-691 -3259 0
-692 -3260 0
-693 -1153 0
-694 -1154 0
-695 -1155 0
-696 -1156 0
-793 -1761 0
-794 -1762 0
-795 -1763 0
-796 -1764 0
-809 -1245 0
-810 -1246 0
-811 -1247 0
-812 -1248 0
-817 -1377 0
-818 -1378 0
-819 -1379 0
-820 -1380 0
-1177 -2121 0
-1178 -2122 0
-1179 -2123 0
-1180 -2124 0
-1249 -1777 0
-1250 -1778 0
-1251 -1779 0
-1252 -1780 0
-1253 -2541 0
-1254 -2542 0
-1255 -2543 0
-1256 -2544 0
-1501 -2005 0
-1502 -2006 0
-1503 -2007 0
-1504 -2008 0
-1577 -2553 0
-1578 -2554 0
-1579 -2555 0
-1580 -2556 0
-1717 -3229 0
-1718 -3230 0
-1719 -3231 0
-1720 -3232 0
-1745 -2793 0
-1746 -2794 0
-1747 -2795 0
-1748 -2796 0
-1769 -2677 0
-1770 -2678 0
-1771 -2679 0
-1772 -2680 0
-1813 -1885 0
-1814 -1886 0
-1815 -1887 0
-1816 -1888 0
-1929 -2617 0
-1930 -2618 0
-1931 -2619 0
-1932 -2620 0
-2033 -2489 0
-2034 -2490 0
-2035 -2491 0
-2036 -2492 0
-2125 -2473 0
-2126 -2474 0
-2127 -2475 0
-2128 -2476 0
-2169 -2557 0
-2170 -2558 0
-2171 -2559 0
-2172 -2560 0
-2405 -3941 0
-2406 -3942 0
-2407 -3943 0
-2408 -3944 0
-2737 -3313 0
-2738 -3314 0
-2739 -3315 0
-2740 -3316 0
-2769 -4057 0
-2770 -4058 0
-2771 -4059 0
-2772 -4060 0
-29 -2669 0
-30 -2670 0
-31 -2671 0
-32 -2672 0
-41 -513 0
-42 -514 0
-43 -515 0
-44 -516 0
-77 -1637 0
-78 -1638 0
-79 -1639 0
-80 -1640 0
-89 -3093 0
-90 -3094 0
-91 -3095 0
-92 -3096 0
-117 -1069 0
-118 -1070 0
-119 -1071 0
-120 -1072 0
-133 -329 0
-134 -330 0
-135 -331 0
-136 -332 0
-157 -741 0
-158 -742 0
-159 -743 0
-160 -744 0
-173 -461 0
-174 -462 0
-175 -463 0
-176 -464 0
-197 -317 0
-198 -318 0
-199 -319 0
-200 -320 0
-209 -2137 0
-210 -2138 0
-211 -2139 0
-212 -2140 0
-265 -1137 0
-266 -1138 0
-267 -1139 0
-268 -1140 0
-293 -2017 0
-294 -2018 0
-295 -2019 0
-296 -2020 0
-301 -3693 0
-302 -3694 0
-303 -3695 0
-304 -3696 0
-321 -2933 0
-322 -2934 0
-323 -2935 0
-324 -2936 0
-325 -1509 0
-326 -1510 0
-327 -1511 0
-328 -1512 0
-373 -3525 0
-374 -3526 0
-375 -3527 0
-376 -3528 0
-401 -469 0
-402 -470 0
-403 -471 0
-404 -472 0
-409 -1133 0
-410 -1134 0
-411 -1135 0
-412 -1136 0
-425 -3585 0
-426 -3586 0
-427 -3587 0
-428 -3588 0
-437 -769 0
-438 -770 0
-439 -771 0
-440 -772 0
-501 -1573 0
-502 -1574 0
-503 -1575 0
-504 -1576 0
-525 -1317 0
-526 -1318 0
-527 -1319 0
-528 -1320 0
-545 -1749 0
-546 -1750 0
-547 -1751 0
-548 -1752 0
-573 -1093 0
-574 -1094 0
-575 -1095 0
-576 -1096 0
-593 -773 0
-594 -774 0
-595 -775 0
-596 -776 0
-601 -697 0
-602 -698 0
-603 -699 0
-604 -700 0
-629 -1117 0
-630 -1118 0
-631 -1119 0
-632 -1120 0
-649 -3217 0
-650 -3218 0
-651 -3219 0
-652 -3220 0
-713 -3145 0
-714 -3146 0
-715 -3147 0
-716 -3148 0
-753 -1905 0
-754 -1906 0
-755 -1907 0
-756 -1908 0
-805 -3705 0
-806 -3706 0
-807 -3707 0
-808 -3708 0
-829 -1349 0
-830 -1350 0
-831 -1351 0
-832 -1352 0
-945 -3389 0
-946 -3390 0
-947 -3391 0
-948 -3392 0
-985 -2361 0
-986 -2362 0
-987 -2363 0
-988 -2364 0
-1045 -2305 0
-1046 -2306 0
-1047 -2307 0
-1048 -2308 0
-1245 -3057 0
-1246 -3058 0
-1247 -3059 0
-1248 -3060 0
-1365 -3781 0
-1366 -3782 0
-1367 -3783 0
-1368 -3784 0
-1549 -3789 0
-1550 -3790 0
-1551 -3791 0
-1552 -3792 0
-1605 -1733 0
-1606 -1734 0
-1607 -1735 0
-1608 -1736 0
-1649 -1873 0
-1650 -1874 0
-1651 -1875 0
-1652 -1876 0
-1765 -2353 0
-1766 -2354 0
-1767 -2355 0
-1768 -2356 0
-1869 -2969 0
-1870 -2970 0
-1871 -2971 0
-1872 -2972 0
-2409 -3901 0
-2410 -3902 0
-2411 -3903 0
-2412 -3904 0
-2457 -3189 0
-2458 -3190 0
-2459 -3191 0
-2460 -3192 0
-2557 -2649 0
-2558 -2650 0
-2559 -2651 0
-2560 -2652 0
-2625 -3309 0
-2626 -3310 0
-2627 -3311 0
-2628 -3312 0
-3033 -3409 0
-3034 -3410 0
-3035 -3411 0
-3036 -3412 0
-3041 -3965 0
-3042 -3966 0
-3043 -3967 0
-3044 -3968 0
-3061 -4037 0
-3062 -4038 0
-3063 -4039 0
-3064 -4040 0
-3321 -3681 0
-3322 -3682 0
-3323 -3683 0
-3324 -3684 0
-3349 -3553 0
-3350 -3554 0
-3351 -3555 0
-3352 -3556 0
-1 -1709 0
-2 -1710 0
-3 -1711 0
-4 -1712 0
-25 -1157 0
-26 -1158 0
-27 -1159 0
-28 -1160 0
-89 -1761 0
-90 -1762 0
-91 -1763 0
-92 -1764 0
-93 -1017 0
-94 -1018 0
-95 -1019 0
-96 -1020 0
-105 -1541 0
-106 -1542 0
-107 -1543 0
-108 -1544 0
-125 -873 0
-126 -874 0
-127 -875 0
-128 -876 0
-129 -793 0
-130 -794 0
-131 -795 0
-132 -796 0
-137 -2025 0
-138 -2026 0
-139 -2027 0
-140 -2028 0
-153 -3065 0
-154 -3066 0
-155 -3067 0
-156 -3068 0
-225 -365 0
-226 -366 0
-227 -367 0
-228 -368 0
-253 -1405 0
-254 -1406 0
-255 -1407 0
-256 -1408 0
-269 -313 0
-270 -314 0
-271 -315 0
-272 -316 0
-273 -605 0
-274 -606 0
-275 -607 0
-276 -608 0
-369 -497 0
-370 -498 0
-371 -499 0
-372 -500 0
-393 -1249 0
-394 -1250 0
-395 -1251 0
-396 -1252 0
-501 -1105 0
-502 -1106 0
-503 -1107 0
-504 -1108 0
-533 -757 0
-534 -758 0
-535 -759 0
-536 -760 0
-609 -2317 0
-610 -2318 0
-611 -2319 0
-612 -2320 0
-637 -3137 0
-638 -3138 0
-639 -3139 0
-640 -3140 0
-645 -2173 0
-646 -2174 0
-647 -2175 0
-648 -2176 0
-669 -689 0
-670 -690 0
-671 -691 0
-672 -692 0
-785 -3257 0
-786 -3258 0
-787 -3259 0
-788 -3260 0
-857 -885 0
-858 -886 0
-859 -887 0
-860 -888 0
-937 -953 0
-938 -954 0
-939 -955 0
-940 -956 0
-985 -3829 0
-986 -3830 0
-987 -3831 0
-988 -3832 0
-1025 -1333 0
-1026 -1334 0
-1027 -1335 0
-1028 -1336 0
-1045 -2149 0
-1046 -2150 0
-1047 -2151 0
-1048 -2152 0
-1109 -2297 0
-1110 -2298 0
-1111 -2299 0
-1112 -2300 0
-1161 -2697 0
-1162 -2698 0
-1163 -2699 0
-1164 -2700 0
-1193 -1945 0
-1194 -1946 0
-1195 -1947 0
-1196 -1948 0
-1213 -3465 0
-1214 -3466 0
-1215 -3467 0
-1216 -3468 0
-1257 -2349 0
-1258 -2350 0
-1259 -2351 0
-1260 -2352 0
-1289 -2065 0
-1290 -2066 0
-1291 -2067 0
-1292 -2068 0
-1413 -3373 0
-1414 -3374 0
-1415 -3375 0
-1416 -3376 0
-1473 -1909 0
-1474 -1910 0
-1475 -1911 0
-1476 -1912 0
-2309 -3797 0
-2310 -3798 0
-2311 -3799 0
-2312 -3800 0
-2461 -3877 0
-2462 -3878 0
-2463 -3879 0
-2464 -3880 0
-37 -233 0
-38 -234 0
-39 -235 0
-40 -236 0
-45 -1433 0
-46 -1434 0
-47 -1435 0
-48 -1436 0
-69 -201 0
-70 -202 0
-71 -203 0
-72 -204 0
-89 -665 0
-90 -666 0
-91 -667 0
-92 -668 0
-93 -577 0
-94 -578 0
-95 -579 0
-96 -580 0
-97 -509 0
-98 -510 0
-99 -511 0
-100 -512 0
-117 -1089 0
-118 -1090 0
-119 -1091 0
-120 -1092 0
-121 -2561 0
-122 -2562 0
-123 -2563 0
-124 -2564 0
-125 -3305 0
-126 -3306 0
-127 -3307 0
-128 -3308 0
-129 -729 0
-130 -730 0
-131 -731 0
-132 -732 0
-133 -401 0
-134 -402 0
-135 -403 0
-136 -404 0
-141 -2797 0
-142 -2798 0
-143 -2799 0
-144 -2800 0
-169 -1361 0
-170 -1362 0
-171 -1363 0
-172 -1364 0
-173 -3729 0
-174 -3730 0
-175 -3731 0
-176 -3732 0
-181 -1037 0
-182 -1038 0
-183 -1039 0
-184 -1040 0
-213 -537 0
-214 -538 0
-215 -539 0
-216 -540 0
-237 -889 0
-238 -890 0
-239 -891 0
-240 -892 0
-297 -633 0
-298 -634 0
-299 -635 0
-300 -636 0
-321 -409 0
-322 -410 0
-323 -411 0
-324 -412 0
-329 -469 0
-330 -470 0
-331 -471 0
-332 -472 0
-337 -1821 0
-338 -1822 0
-339 -1823 0
-340 -1824 0
-345 -1301 0
-346 -1302 0
-347 -1303 0
-348 -1304 0
-361 -2937 0
-362 -2938 0
-363 -2939 0
-364 -2940 0
-413 -473 0
-414 -474 0
-415 -475 0
-416 -476 0
-549 -641 0
-550 -642 0
-551 -643 0
-552 -644 0
-565 -777 0
-566 -778 0
-567 -779 0
-568 -780 0
-609 -1281 0
-610 -1282 0
-611 -1283 0
-612 -1284 0
-617 -1225 0
-618 -1226 0
-619 -1227 0
-620 -1228 0
-621 -1689 0
-622 -1690 0
-623 -1691 0
-624 -1692 0
-693 -1345 0
-694 -1346 0
-695 -1347 0
-696 -1348 0
-805 -829 0
-806 -830 0
-807 -831 0
-808 -832 0
-849 -1141 0
-850 -1142 0
-851 -1143 0
-852 -1144 0
-877 -917 0
-878 -918 0
-879 -919 0
-880 -920 0
-893 -1129 0
-894 -1130 0
-895 -1131 0
-896 -1132 0
-953 -2693 0
-954 -2694 0
-955 -2695 0
-956 -2696 0
-1009 -3005 0
-1010 -3006 0
-1011 -3007 0
-1012 -3008 0
-1121 -1173 0
-1122 -1174 0
-1123 -1175 0
-1124 -1176 0
-1125 -3689 0
-1126 -3690 0
-1127 -3691 0
-1128 -3692 0
-1197 -1277 0
-1198 -1278 0
-1199 -1279 0
-1200 -1280 0
-1205 -3505 0
-1206 -3506 0
-1207 -3507 0
-1208 -3508 0
-1317 -1477 0
-1318 -1478 0
-1319 -1479 0
-1320 -1480 0
-1373 -2521 0
-1374 -2522 0
-1375 -2523 0
-1376 -2524 0
-1429 -3009 0
-1430 -3010 0
-1431 -3011 0
-1432 -3012 0
-1485 -2013 0
-1486 -2014 0
-1487 -2015 0
-1488 -2016 0
-1593 -2341 0
-1594 -2342 0
-1595 -2343 0
-1596 -2344 0
-1625 -2333 0
-1626 -2334 0
-1627 -2335 0
-1628 -2336 0
-1717 -2229 0
-1718 -2230 0
-1719 -2231 0
-1720 -2232 0
-1769 -2593 0
-1770 -2594 0
-1771 -2595 0
-1772 -2596 0
-1885 -2389 0
-1886 -2390 0
-1887 -2391 0
-1888 -2392 0
-2057 -3881 0
-2058 -3882 0
-2059 -3883 0
-2060 -3884 0
-2073 -3897 0
-2074 -3898 0
-2075 -3899 0
-2076 -3900 0
-2077 -3741 0
-2078 -3742 0
-2079 -3743 0
-2080 -3744 0
-2093 -2397 0
-2094 -2398 0
-2095 -2399 0
-2096 -2400 0
-2101 -3661 0
-2102 -3662 0
-2103 -3663 0
-2104 -3664 0
-2177 -3533 0
-2178 -3534 0
-2179 -3535 0
-2180 -3536 0
-2245 -3033 0
-2246 -3034 0
-2247 -3035 0
-2248 -3036 0
-2293 -3813 0
-2294 -3814 0
-2295 -3815 0
-2296 -3816 0
-2369 -2845 0
-2370 -2846 0
-2371 -2847 0
-2372 -2848 0
-2721 -3413 0
-2722 -3414 0
-2723 -3415 0
-2724 -3416 0
-2861 -3017 0
-2862 -3018 0
-2863 -3019 0
-2864 -3020 0
-3029 -3393 0
-3030 -3394 0
-3031 -3395 0
-3032 -3396 0
-3097 -3821 0
-3098 -3822 0
-3099 -3823 0
-3100 -3824 0
-3213 -3877 0
-3214 -3878 0
-3215 -3879 0
-3216 -3880 0
-3297 -3581 0
-3298 -3582 0
-3299 -3583 0
-3300 -3584 0
-3317 -4069 0
-3318 -4070 0
-3319 -4071 0
-3320 -4072 0
-3545 -3605 0
-3546 -3606 0
-3547 -3607 0
-3548 -3608 0
-3577 -3801 0
-3578 -3802 0
-3579 -3803 0
-3580 -3804 0
-3601 -3925 0
-3602 -3926 0
-3603 -3927 0
-3604 -3928 0
-33 -2849 0
-34 -2850 0
-35 -2851 0
-36 -2852 0
-41 -1217 0
-42 -1218 0
-43 -1219 0
-44 -1220 0
-93 -849 0
-94 -850 0
-95 -851 0
-96 -852 0
-101 -1073 0
-102 -1074 0
-103 -1075 0
-104 -1076 0
-133 -1421 0
-134 -1422 0
-135 -1423 0
-136 -1424 0
-137 -2993 0
-138 -2994 0
-139 -2995 0
-140 -2996 0
-189 -2265 0
-190 -2266 0
-191 -2267 0
-192 -2268 0
-249 -1893 0
-250 -1894 0
-251 -1895 0
-252 -1896 0
-261 -2289 0
-262 -2290 0
-263 -2291 0
-264 -2292 0
-293 -1537 0
-294 -1538 0
-295 -1539 0
-296 -1540 0
-341 -2421 0
-342 -2422 0
-343 -2423 0
-344 -2424 0
-353 -585 0
-354 -586 0
-355 -587 0
-356 -588 0
-545 -1601 0
-546 -1602 0
-547 -1603 0
-548 -1604 0
-577 -1141 0
-578 -1142 0
-579 -1143 0
-580 -1144 0
-629 -2109 0
-630 -2110 0
-631 -2111 0
-632 -2112 0
-701 -989 0
-702 -990 0
-703 -991 0
-704 -992 0
-713 -1673 0
-714 -1674 0
-715 -1675 0
-716 -1676 0
-737 -1829 0
-738 -1830 0
-739 -1831 0
-740 -1832 0
-765 -1181 0
-766 -1182 0
-767 -1183 0
-768 -1184 0
-813 -3425 0
-814 -3426 0
-815 -3427 0
-816 -3428 0
-845 -1313 0
-846 -1314 0
-847 -1315 0
-848 -1316 0
-969 -3573 0
-970 -3574 0
-971 -3575 0
-972 -3576 0
-1129 -3289 0
-1130 -3290 0
-1131 -3291 0
-1132 -3292 0
-1201 -2941 0
-1202 -2942 0
-1203 -2943 0
-1204 -2944 0
-1221 -1241 0
-1222 -1242 0
-1223 -1243 0
-1224 -1244 0
-1253 -2725 0
-1254 -2726 0
-1255 -2727 0
-1256 -2728 0
-1397 -3057 0
-1398 -3058 0
-1399 -3059 0
-1400 -3060 0
-1425 -2781 0
-1426 -2782 0
-1427 -2783 0
-1428 -2784 0
-1437 -2653 0
-1438 -2654 0
-1439 -2655 0
-1440 -2656 0
-1493 -2345 0
-1494 -2346 0
-1495 -2347 0
-1496 -2348 0
-1605 -2461 0
-1606 -2462 0
-1607 -2463 0
-1608 -2464 0
-1681 -1873 0
-1682 -1874 0
-1683 -1875 0
-1684 -1876 0
-1913 -2485 0
-1914 -2486 0
-1915 -2487 0
-1916 -2488 0
-2129 -4053 0
-2130 -4054 0
-2131 -4055 0
-2132 -4056 0
-2177 -3629 0
-2178 -3630 0
-2179 -3631 0
-2180 -3632 0
-2889 -3789 0
-2890 -3790 0
-2891 -3791 0
-2892 -3792 0
-3125 -3589 0
-3126 -3590 0
-3127 -3591 0
-3128 -3592 0
-61 -3997 0
-62 -3998 0
-63 -3999 0
-64 -4000 0
-101 -845 0
-102 -846 0
-103 -847 0
-104 -848 0
-133 -1197 0
-134 -1198 0
-135 -1199 0
-136 -1200 0
-137 -1941 0
-138 -1942 0
-139 -1943 0
-140 -1944 0
-149 -973 0
-150 -974 0
-151 -975 0
-152 -976 0
-193 -485 0
-194 -486 0
-195 -487 0
-196 -488 0
-217 -2665 0
-218 -2666 0
-219 -2667 0
-220 -2668 0
-305 -933 0
-306 -934 0
-307 -935 0
-308 -936 0
-321 -489 0
-322 -490 0
-323 -491 0
-324 -492 0
-341 -969 0
-342 -970 0
-343 -971 0
-344 -972 0
-397 -673 0
-398 -674 0
-399 -675 0
-400 -676 0
-401 -1277 0
-402 -1278 0
-403 -1279 0
-404 -1280 0
-437 -629 0
-438 -630 0
-439 -631 0
-440 -632 0
-477 -497 0
-478 -498 0
-479 -499 0
-480 -500 0
-565 -2565 0
-566 -2566 0
-567 -2567 0
-568 -2568 0
-581 -3777 0
-582 -3778 0
-583 -3779 0
-584 -3780 0
-617 -3445 0
-618 -3446 0
-619 -3447 0
-620 -3448 0
-633 -2945 0
-634 -2946 0
-635 -2947 0
-636 -2948 0
-685 -813 0
-686 -814 0
-687 -815 0
-688 -816 0
-693 -2405 0
-694 -2406 0
-695 -2407 0
-696 -2408 0
-769 -1117 0
-770 -1118 0
-771 -1119 0
-772 -1120 0
-777 -2381 0
-778 -2382 0
-779 -2383 0
-780 -2384 0
-805 -893 0
-806 -894 0
-807 -895 0
-808 -896 0
-829 -1129 0
-830 -1130 0
-831 -1131 0
-832 -1132 0
-921 -2545 0
-922 -2546 0
-923 -2547 0
-924 -2548 0
-925 -3885 0
-926 -3886 0
-927 -3887 0
-928 -3888 0
-1013 -1325 0
-1014 -1326 0
-1015 -1327 0
-1016 -1328 0
-1053 -1101 0
-1054 -1102 0
-1055 -1103 0
-1056 -1104 0
-1073 -1313 0
-1074 -1314 0
-1075 -1315 0
-1076 -1316 0
-1093 -1137 0
-1094 -1138 0
-1095 -1139 0
-1096 -1140 0
-1133 -2017 0
-1134 -2018 0
-1135 -2019 0
-1136 -2020 0
-1153 -3941 0
-1154 -3942 0
-1155 -3943 0
-1156 -3944 0
-1209 -1693 0
-1210 -1694 0
-1211 -1695 0
-1212 -1696 0
-1337 -1721 0
-1338 -1722 0
-1339 -1723 0
-1340 -1724 0
-1381 -4037 0
-1382 -4038 0
-1383 -4039 0
-1384 -4040 0
-1513 -3061 0
-1514 -3062 0
-1515 -3063 0
-1516 -3064 0
-1517 -3389 0
-1518 -3390 0
-1519 -3391 0
-1520 -3392 0
-1541 -1709 0
-1542 -1710 0
-1543 -1711 0
-1544 -1712 0
-1885 -2861 0
-1886 -2862 0
-1887 -2863 0
-1888 -2864 0
-2037 -2985 0
-2038 -2986 0
-2039 -2987 0
-2040 -2988 0
-2057 -2829 0
-2058 -2830 0
-2059 -2831 0
-2060 -2832 0
-2073 -2949 0
-2074 -2950 0
-2075 -2951 0
-2076 -2952 0
-2197 -2549 0
-2198 -2550 0
-2199 -2551 0
-2200 -2552 0
-2309 -3361 0
-2310 -3362 0
-2311 -3363 0
-2312 -3364 0
-2377 -3113 0
-2378 -3114 0
-2379 -3115 0
-2380 -3116 0
-2389 -3017 0
-2390 -3018 0
-2391 -3019 0
-2392 -3020 0
-2421 -3573 0
-2422 -3574 0
-2423 -3575 0
-2424 -3576 0
-2505 -3377 0
-2506 -3378 0
-2507 -3379 0
-2508 -3380 0
-2513 -3385 0
-2514 -3386 0
-2515 -3387 0
-2516 -3388 0
-2533 -3709 0
-2534 -3710 0
-2535 -3711 0
-2536 -3712 0
-2589 -2773 0
-2590 -2774 0
-2591 -2775 0
-2592 -2776 0
-2649 -3093 0
-2650 -3094 0
-2651 -3095 0
-2652 -3096 0
-3249 -3525 0
-3250 -3526 0
-3251 -3527 0
-3252 -3528 0
-3269 -3497 0
-3270 -3498 0
-3271 -3499 0
-3272 -3500 0
-3393 -3533 0
-3394 -3534 0
-3395 -3535 0
-3396 -3536 0
-3541 -3905 0
-3542 -3906 0
-3543 -3907 0
-3544 -3908 0
-33 -2661 0
-34 -2662 0
-35 -2663 0
-36 -2664 0
-85 -1477 0
-86 -1478 0
-87 -1479 0
-88 -1480 0
-101 -1685 0
-102 -1686 0
-103 -1687 0
-104 -1688 0
-125 -1933 0
-126 -1934 0
-127 -1935 0
-128 -1936 0
-133 -3233 0
-134 -3234 0
-135 -3235 0
-136 -3236 0
-145 -2537 0
-146 -2538 0
-147 -2539 0
-148 -2540 0
-205 -1149 0
-206 -1150 0
-207 -1151 0
-208 -1152 0
-237 -1065 0
-238 -1066 0
-239 -1067 0
-240 -1068 0
-265 -4033 0
-266 -4034 0
-267 -4035 0
-268 -4036 0
-273 -3781 0
-274 -3782 0
-275 -3783 0
-276 -3784 0
-373 -1529 0
-374 -1530 0
-375 -1531 0
-376 -1532 0
-385 -469 0
-386 -470 0
-387 -471 0
-388 -472 0
-565 -925 0
-566 -926 0
-567 -927 0
-568 -928 0
-601 -2053 0
-602 -2054 0
-603 -2055 0
-604 -2056 0
-605 -1317 0
-606 -1318 0
-607 -1319 0
-608 -1320 0
-653 -825 0
-654 -826 0
-655 -827 0
-656 -828 0
-693 -769 0
-694 -770 0
-695 -771 0
-696 -772 0
-753 -1589 0
-754 -1590 0
-755 -1591 0
-756 -1592 0
-857 -1733 0
-858 -1734 0
-859 -1735 0
-860 -1736 0
-881 -3149 0
-882 -3150 0
-883 -3151 0
-884 -3152 0
-921 -2505 0
-922 -2506 0
-923 -2507 0
-924 -2508 0
-977 -1993 0
-978 -1994 0
-979 -1995 0
-980 -1996 0
-1173 -3005 0
-1174 -3006 0
-1175 -3007 0
-1176 -3008 0
-1261 -3553 0
-1262 -3554 0
-1263 -3555 0
-1264 -3556 0
-1293 -2541 0
-1294 -2542 0
-1295 -2543 0
-1296 -2544 0
-1421 -1669 0
-1422 -1670 0
-1423 -1671 0
-1424 -1672 0
-1505 -3241 0
-1506 -3242 0
-1507 -3243 0
-1508 -3244 0
-1549 -3125 0
-1550 -3126 0
-1551 -3127 0
-1552 -3128 0
-1569 -2141 0
-1570 -2142 0
-1571 -2143 0
-1572 -2144 0
-1781 -2701 0
-1782 -2702 0
-1783 -2703 0
-1784 -2704 0
-1921 -3569 0
-1922 -3570 0
-1923 -3571 0
-1924 -3572 0
-2177 -2221 0
-2178 -2222 0
-2179 -2223 0
-2180 -2224 0
-2261 -3333 0
-2262 -3334 0
-2263 -3335 0
-2264 -3336 0
-2273 -2841 0
-2274 -2842 0
-2275 -2843 0
-2276 -2844 0
-2285 -3769 0
-2286 -3770 0
-2287 -3771 0
-2288 -3772 0
-2345 -3057 0
-2346 -3058 0
-2347 -3059 0
-2348 -3060 0
-2545 -3377 0
-2546 -3378 0
-2547 -3379 0
-2548 -3380 0
-2565 -3885 0
-2566 -3886 0
-2567 -3887 0
-2568 -3888 0
-2885 -3497 0
-2886 -3498 0
-2887 -3499 0
-2888 -3500 0
-2905 -3353 0
-2906 -3354 0
-2907 -3355 0
-2908 -3356 0
-3261 -3585 0
-3262 -3586 0
-3263 -3587 0
-3264 -3588 0
-3273 -3493 0
-3274 -3494 0
-3275 -3495 0
-3276 -3496 0
-3313 -3893 0
-3314 -3894 0
-3315 -3895 0
-3316 -3896 0
-3337 -3505 0
-3338 -3506 0
-3339 -3507 0
-3340 -3508 0
-17 -3817 0
-18 -3818 0
-19 -3819 0
-20 -3820 0
-37 -2529 0
-38 -2530 0
-39 -2531 0
-40 -2532 0
-41 -1553 0
-42 -1554 0
-43 -1555 0
-44 -1556 0
-65 -3633 0
-66 -3634 0
-67 -3635 0
-68 -3636 0
-93 -3717 0
-94 -3718 0
-95 -3719 0
-96 -3720 0
-133 -737 0
-134 -738 0
-135 -739 0
-136 -740 0
-161 -257 0
-162 -258 0
-163 -259 0
-164 -260 0
-197 -789 0
-198 -790 0
-199 -791 0
-200 -792 0
-205 -2261 0
-206 -2262 0
-207 -2263 0
-208 -2264 0
-209 -1445 0
-210 -1446 0
-211 -1447 0
-212 -1448 0
-249 -745 0
-250 -746 0
-251 -747 0
-252 -748 0
-265 -1329 0
-266 -1330 0
-267 -1331 0
-268 -1332 0
-269 -1241 0
-270 -1242 0
-271 -1243 0
-272 -1244 0
-325 -2061 0
-326 -2062 0
-327 -2063 0
-328 -2064 0
-457 -2133 0
-458 -2134 0
-459 -2135 0
-460 -2136 0
-541 -797 0
-542 -798 0
-543 -799 0
-544 -800 0
-593 -1961 0
-594 -1962 0
-595 -1963 0
-596 -1964 0
-669 -3701 0
-670 -3702 0
-671 -3703 0
-672 -3704 0
-681 -2741 0
-682 -2742 0
-683 -2743 0
-684 -2744 0
-693 -1373 0
-694 -1374 0
-695 -1375 0
-696 -1376 0
-705 -1033 0
-706 -1034 0
-707 -1035 0
-708 -1036 0
-709 -1825 0
-710 -1826 0
-711 -1827 0
-712 -1828 0
-729 -3305 0
-730 -3306 0
-731 -3307 0
-732 -3308 0
-769 -1133 0
-770 -1134 0
-771 -1135 0
-772 -1136 0
-793 -873 0
-794 -874 0
-795 -875 0
-796 -876 0
-821 -2977 0
-822 -2978 0
-823 -2979 0
-824 -2980 0
-865 -2165 0
-866 -2166 0
-867 -2167 0
-868 -2168 0
-909 -1409 0
-910 -1410 0
-911 -1411 0
-912 -1412 0
-937 -1497 0
-938 -1498 0
-939 -1499 0
-940 -1500 0
-953 -1125 0
-954 -1126 0
-955 -1127 0
-956 -1128 0
-1117 -2017 0
-1118 -2018 0
-1119 -2019 0
-1120 -2020 0
-1149 -3333 0
-1150 -3334 0
-1151 -3335 0
-1152 -3336 0
-1185 -1353 0
-1186 -1354 0
-1187 -1355 0
-1188 -1356 0
-1209 -1361 0
-1210 -1362 0
-1211 -1363 0
-1212 -1364 0
-1245 -1601 0
-1246 -1602 0
-1247 -1603 0
-1248 -1604 0
-1285 -2373 0
-1286 -2374 0
-1287 -2375 0
-1288 -2376 0
-1345 -2521 0
-1346 -2522 0
-1347 -2523 0
-1348 -2524 0
-1389 -3153 0
-1390 -3154 0
-1391 -3155 0
-1392 -3156 0
-1397 -1749 0
-1398 -1750 0
-1399 -1751 0
-1400 -1752 0
-1413 -1545 0
-1414 -1546 0
-1415 -1547 0
-1416 -1548 0
-1421 -1829 0
-1422 -1830 0
-1423 -1831 0
-1424 -1832 0
-1437 -1609 0
-1438 -1610 0
-1439 -1611 0
-1440 -1612 0
-1457 -1897 0
-1458 -1898 0
-1459 -1899 0
-1460 -1900 0
-1525 -2329 0
-1526 -2330 0
-1527 -2331 0
-1528 -2332 0
-1613 -1865 0
-1614 -1866 0
-1615 -1867 0
-1616 -1868 0
-1633 -3085 0
-1634 -3086 0
-1635 -3087 0
-1636 -3088 0
-1741 -2217 0
-1742 -2218 0
-1743 -2219 0
-1744 -2220 0
-1745 -2805 0
-1746 -2806 0
-1747 -2807 0
-1748 -2808 0
-1757 -2181 0
-1758 -2182 0
-1759 -2183 0
-1760 -2184 0
-1901 -2633 0
-1902 -2634 0
-1903 -2635 0
-1904 -2636 0
-1925 -3261 0
-1926 -3262 0
-1927 -3263 0
-1928 -3264 0
-1937 -2253 0
-1938 -2254 0
-1939 -2255 0
-1940 -2256 0
-1965 -2377 0
-1966 -2378 0
-1967 -2379 0
-1968 -2380 0
-2021 -3193 0
-2022 -3194 0
-2023 -3195 0
-2024 -3196 0
-2081 -2765 0
-2082 -2766 0
-2083 -2767 0
-2084 -2768 0
-2085 -3365 0
-2086 -3366 0
-2087 -3367 0
-2088 -3368 0
-2145 -3853 0
-2146 -3854 0
-2147 -3855 0
-2148 -3856 0
-2185 -3285 0
-2186 -3286 0
-2187 -3287 0
-2188 -3288 0
-2209 -2753 0
-2210 -2754 0
-2211 -2755 0
-2212 -2756 0
-2273 -3273 0
-2274 -3274 0
-2275 -3275 0
-2276 -3276 0
-2301 -2933 0
-2302 -2934 0
-2303 -2935 0
-2304 -2936 0
-2409 -2685 0
-2410 -2686 0
-2411 -2687 0
-2412 -2688 0
-2489 -3117 0
-2490 -3118 0
-2491 -3119 0
-2492 -3120 0
-2693 -3689 0
-2694 -3690 0
-2695 -3691 0
-2696 -3692 0
-2713 -4009 0
-2714 -4010 0
-2715 -4011 0
-2716 -4012 0
-2769 -3561 0
-2770 -3562 0
-2771 -3563 0
-2772 -3564 0
-2841 -3493 0
-2842 -3494 0
-2843 -3495 0
-2844 -3496 0
-3429 -3509 0
-3430 -3510 0
-3431 -3511 0
-3432 -3512 0
-3601 -3981 0
-3602 -3982 0
-3603 -3983 0
-3604 -3984 0
-3617 -3873 0
-3618 -3874 0
-3619 -3875 0
-3620 -3876 0
-1 -973 0
-2 -974 0
-3 -975 0
-4 -976 0
-9 -1537 0
-10 -1538 0
-11 -1539 0
-12 -1540 0
-29 -293 0
-30 -294 0
-31 -295 0
-32 -296 0
-33 -2381 0
-34 -2382 0
-35 -2383 0
-36 -2384 0
-41 -265 0
-42 -266 0
-43 -267 0
-44 -268 0
-101 -309 0
-102 -310 0
-103 -311 0
-104 -312 0
-105 -149 0
-106 -150 0
-107 -151 0
-108 -152 0
-133 -1549 0
-134 -1550 0
-135 -1551 0
-136 -1552 0
-145 -913 0
-146 -914 0
-147 -915 0
-148 -916 0
-169 -277 0
-170 -278 0
-171 -279 0
-172 -280 0
-173 -3045 0
-174 -3046 0
-175 -3047 0
-176 -3048 0
-185 -3177 0
-186 -3178 0
-187 -3179 0
-188 -3180 0
-225 -641 0
-226 -642 0
-227 -643 0
-228 -644 0
-237 -977 0
-238 -978 0
-239 -979 0
-240 -980 0
-253 -2109 0
-254 -2110 0
-255 -2111 0
-256 -2112 0
-273 -1261 0
-274 -1262 0
-275 -1263 0
-276 -1264 0
-329 -3789 0
-330 -3790 0
-331 -3791 0
-332 -3792 0
-349 -2297 0
-350 -2298 0
-351 -2299 0
-352 -2300 0
-361 -961 0
-362 -962 0
-363 -963 0
-364 -964 0
-381 -989 0
-382 -990 0
-383 -991 0
-384 -992 0
-457 -3777 0
-458 -3778 0
-459 -3779 0
-460 -3780 0
-461 -2445 0
-462 -2446 0
-463 -2447 0
-464 -2448 0
-513 -1137 0
-514 -1138 0
-515 -1139 0
-516 -1140 0
-569 -581 0
-570 -582 0
-571 -583 0
-572 -584 0
-585 -2289 0
-586 -2290 0
-587 -2291 0
-588 -2292 0
-589 -613 0
-590 -614 0
-591 -615 0
-592 -616 0
-617 -1161 0
-618 -1162 0
-619 -1163 0
-620 -1164 0
-637 -3941 0
-638 -3942 0
-639 -3943 0
-640 -3944 0
-705 -1245 0
-706 -1246 0
-707 -1247 0
-708 -1248 0
-773 -1509 0
-774 -1510 0
-775 -1511 0
-776 -1512 0
-781 -3289 0
-782 -3290 0
-783 -3291 0
-784 -3292 0
-897 -1109 0
-898 -1110 0
-899 -1111 0
-900 -1112 0
-905 -3281 0
-906 -3282 0
-907 -3283 0
-908 -3284 0
-1033 -1601 0
-1034 -1602 0
-1035 -1603 0
-1036 -1604 0
-1065 -1993 0
-1066 -1994 0
-1067 -1995 0
-1068 -1996 0
-1365 -3349 0
-1366 -3350 0
-1367 -3351 0
-1368 -3352 0
-1381 -2353 0
-1382 -2354 0
-1383 -2355 0
-1384 -2356 0
-1437 -3969 0
-1438 -3970 0
-1439 -3971 0
-1440 -3972 0
-1513 -1765 0
-1514 -1766 0
-1515 -1767 0
-1516 -1768 0
-1533 -3533 0
-1534 -3534 0
-1535 -3535 0
-1536 -3536 0
-1609 -2337 0
-1610 -2338 0
-1611 -2339 0
-1612 -2340 0
-1621 -2405 0
-1622 -2406 0
-1623 -2407 0
-1624 -2408 0
-1669 -3589 0
-1670 -3590 0
-1671 -3591 0
-1672 -3592 0
-1857 -3949 0
-1858 -3950 0
-1859 -3951 0
-1860 -3952 0
-1921 -2225 0
-1922 -2226 0
-1923 -2227 0
-1924 -2228 0
-1961 -2061 0
-1962 -2062 0
-1963 -2063 0
-1964 -2064 0
-2081 -2409 0
-2082 -2410 0
-2083 -2411 0
-2084 -2412 0
-2085 -2545 0
-2086 -2546 0
-2087 -2547 0
-2088 -2548 0
-2197 -2605 0
-2198 -2606 0
-2199 -2607 0
-2200 -2608 0
-2201 -3565 0
-2202 -3566 0
-2203 -3567 0
-2204 -3568 0
-2309 -2597 0
-2310 -2598 0
-2311 -2599 0
-2312 -2600 0
-2329 -2521 0
-2330 -2522 0
-2331 -2523 0
-2332 -2524 0
-2853 -3785 0
-2854 -3786 0
-2855 -3787 0
-2856 -3788 0
-2977 -3305 0
-2978 -3306 0
-2979 -3307 0
-2980 -3308 0
-1 -673 0
-2 -674 0
-3 -675 0
-4 -676 0
-77 -2193 0
-78 -2194 0
-79 -2195 0
-80 -2196 0
-89 -1453 0
-90 -1454 0
-91 -1455 0
-92 -1456 0
-105 -397 0
-106 -398 0
-107 -399 0
-108 -400 0
-109 -1785 0
-110 -1786 0
-111 -1787 0
-112 -1788 0
-121 -1625 0
-122 -1626 0
-123 -1627 0
-124 -1628 0
-125 -1865 0
-126 -1866 0
-127 -1867 0
-128 -1868 0
-129 -1613 0
-130 -1614 0
-131 -1615 0
-132 -1616 0
-133 -2129 0
-134 -2130 0
-135 -2131 0
-136 -2132 0
-141 -2417 0
-142 -2418 0
-143 -2419 0
-144 -2420 0
-145 -3821 0
-146 -3822 0
-147 -3823 0
-148 -3824 0
-149 -233 0
-150 -234 0
-151 -235 0
-152 -236 0
-157 -949 0
-158 -950 0
-159 -951 0
-160 -952 0
-161 -1629 0
-162 -1630 0
-163 -1631 0
-164 -1632 0
-169 -589 0
-170 -590 0
-171 -591 0
-172 -592 0
-181 -349 0
-182 -350 0
-183 -351 0
-184 -352 0
-185 -3621 0
-186 -3622 0
-187 -3623 0
-188 -3624 0
-209 -1457 0
-210 -1458 0
-211 -1459 0
-212 -1460 0
-221 -289 0
-222 -290 0
-223 -291 0
-224 -292 0
-257 -429 0
-258 -430 0
-259 -431 0
-260 -432 0
-273 -3097 0
-274 -3098 0
-275 -3099 0
-276 -3100 0
-277 -613 0
-278 -614 0
-279 -615 0
-280 -616 0
-297 -2929 0
-298 -2930 0
-299 -2931 0
-300 -2932 0
-301 -1797 0
-302 -1798 0
-303 -1799 0
-304 -1800 0
-325 -2501 0
-326 -2502 0
-327 -2503 0
-328 -2504 0
-361 -2349 0
-362 -2350 0
-363 -2351 0
-364 -2352 0
-393 -441 0
-394 -442 0
-395 -443 0
-396 -444 0
-425 -1305 0
-426 -1306 0
-427 -1307 0
-428 -1308 0
-461 -513 0
-462 -514 0
-463 -515 0
-464 -516 0
-557 -717 0
-558 -718 0
-559 -719 0
-560 -720 0
-565 -2621 0
-566 -2622 0
-567 -2623 0
-568 -2624 0
-617 -2189 0
-618 -2190 0
-619 -2191 0
-620 -2192 0
-669 -2817 0
-670 -2818 0
-671 -2819 0
-672 -2820 0
-681 -3413 0
-682 -3414 0
-683 -3415 0
-684 -3416 0
-733 -2341 0
-734 -2342 0
-735 -2343 0
-736 -2344 0
-761 -1593 0
-762 -1594 0
-763 -1595 0
-764 -1596 0
-805 -2321 0
-806 -2322 0
-807 -2323 0
-808 -2324 0
-857 -2385 0
-858 -2386 0
-859 -2387 0
-860 -2388 0
-881 -3173 0
-882 -3174 0
-883 -3175 0
-884 -3176 0
-953 -1405 0
-954 -1406 0
-955 -1407 0
-956 -1408 0
-961 -2173 0
-962 -2174 0
-963 -2175 0
-964 -2176 0
-1009 -4065 0
-1010 -4066 0
-1011 -4067 0
-1012 -4068 0
-1053 -1857 0
-1054 -1858 0
-1055 -1859 0
-1056 -1860 0
-1061 -3373 0
-1062 -3374 0
-1063 -3375 0
-1064 -3376 0
-1097 -1393 0
-1098 -1394 0
-1099 -1395 0
-1100 -1396 0
-1101 -1321 0
-1102 -1322 0
-1103 -1323 0
-1104 -1324 0
-1161 -1461 0
-1162 -1462 0
-1163 -1463 0
-1164 -1464 0
-1165 -1985 0
-1166 -1986 0
-1167 -1987 0
-1168 -1988 0
-1193 -1441 0
-1194 -1442 0
-1195 -1443 0
-1196 -1444 0
-1341 -1517 0
-1342 -1518 0
-1343 -1519 0
-1344 -1520 0
-1421 -4053 0
-1422 -4054 0
-1423 -4055 0
-1424 -4056 0
-1445 -1897 0
-1446 -1898 0
-1447 -1899 0
-1448 -1900 0
-1469 -2065 0
-1470 -2066 0
-1471 -2067 0
-1472 -2068 0
-1481 -2761 0
-1482 -2762 0
-1483 -2763 0
-1484 -2764 0
-1577 -2033 0
-1578 -2034 0
-1579 -2035 0
-1580 -2036 0
-1657 -3253 0
-1658 -3254 0
-1659 -3255 0
-1660 -3256 0
-1833 -1901 0
-1834 -1902 0
-1835 -1903 0
-1836 -1904 0
-1877 -2573 0
-1878 -2574 0
-1879 -2575 0
-1880 -2576 0
-1925 -2865 0
-1926 -2866 0
-1927 -2867 0
-1928 -2868 0
-2081 -2185 0
-2082 -2186 0
-2083 -2187 0
-2084 -2188 0
-2097 -2785 0
-2098 -2786 0
-2099 -2787 0
-2100 -2788 0
-2105 -3801 0
-2106 -3802 0
-2107 -3803 0
-2108 -3804 0
-2153 -3469 0
-2154 -3470 0
-2155 -3471 0
-2156 -3472 0
-2177 -2837 0
-2178 -2838 0
-2179 -2839 0
-2180 -2840 0
-2249 -2813 0
-2250 -2814 0
-2251 -2815 0
-2252 -2816 0
-2425 -2637 0
-2426 -2638 0
-2427 -2639 0
-2428 -2640 0
-2473 -3137 0
-2474 -3138 0
-2475 -3139 0
-2476 -3140 0
-2605 -3501 0
-2606 -3502 0
-2607 -3503 0
-2608 -3504 0
-2737 -3369 0
-2738 -3370 0
-2739 -3371 0
-2740 -3372 0
-2765 -3285 0
-2766 -3286 0
-2767 -3287 0
-2768 -3288 0
-2821 -3813 0
-2822 -3814 0
-2823 -3815 0
-2824 -3816 0
-2857 -3277 0
-2858 -3278 0
-2859 -3279 0
-2860 -3280 0
-2925 -4025 0
-2926 -4026 0
-2927 -4027 0
-2928 -4028 0
-2973 -2981 0
-2974 -2982 0
-2975 -2983 0
-2976 -2984 0
-3029 -3797 0
-3030 -3798 0
-3031 -3799 0
-3032 -3800 0
-3349 -3889 0
-3350 -3890 0
-3351 -3891 0
-3352 -3892 0
-61 -289 0
-62 -290 0
-63 -291 0
-64 -292 0
-149 -3409 0
-150 -3410 0
-151 -3411 0
-152 -3412 0
-165 -221 0
-166 -222 0
-167 -223 0
-168 -224 0
-333 -1369 0
-334 -1370 0
-335 -1371 0
-336 -1372 0
-409 -745 0
-410 -746 0
-411 -747 0
-412 -748 0
-701 -3885 0
-702 -3886 0
-703 -3887 0
-704 -3888 0
-829 -1401 0
-830 -1402 0
-831 -1403 0
-832 -1404 0
-889 -1545 0
-890 -1546 0
-891 -1547 0
-892 -1548 0
-1065 -2669 0
-1066 -2670 0
-1067 -2671 0
-1068 -2672 0
-1153 -3101 0
-1154 -3102 0
-1155 -3103 0
-1156 -3104 0
-1193 -3261 0
-1194 -3262 0
-1195 -3263 0
-1196 -3264 0
-1245 -2985 0
-1246 -2986 0
-1247 -2987 0
-1248 -2988 0
-1741 -2969 0
-1742 -2970 0
-1743 -2971 0
-1744 -2972 0
-1993 -2017 0
-1994 -2018 0
-1995 -2019 0
-1996 -2020 0
-2153 -4037 0
-2154 -4038 0
-2155 -4039 0
-2156 -4040 0
-2169 -2789 0
-2170 -2790 0
-2171 -2791 0
-2172 -2792 0
-2637 -2761 0
-2638 -2762 0
-2639 -2763 0
-2640 -2764 0
-2869 -3093 0
-2870 -3094 0
-2871 -3095 0
-2872 -3096 0
-3201 -3493 0
-3202 -3494 0
-3203 -3495 0
-3204 -3496 0
-3545 -3561 0
-3546 -3562 0
-3547 -3563 0
-3548 -3564 0
-13 -1777 0
-14 -1778 0
-15 -1779 0
-16 -1780 0
-25 -2617 0
-26 -2618 0
-27 -2619 0
-28 -2620 0
-33 -1081 0
-34 -1082 0
-35 -1083 0
-36 -1084 0
-85 -3877 0
-86 -3878 0
-87 -3879 0
-88 -3880 0
-97 -2237 0
-98 -2238 0
-99 -2239 0
-100 -2240 0
-145 -2461 0
-146 -2462 0
-147 -2463 0
-148 -2464 0
-169 -361 0
-170 -362 0
-171 -363 0
-172 -364 0
-181 -557 0
-182 -558 0
-183 -559 0
-184 -560 0
-229 -3417 0
-230 -3418 0
-231 -3419 0
-232 -3420 0
-249 -657 0
-250 -658 0
-251 -659 0
-252 -660 0
-277 -961 0
-278 -962 0
-279 -963 0
-280 -964 0
-305 -2729 0
-306 -2730 0
-307 -2731 0
-308 -2732 0
-321 -1661 0
-322 -1662 0
-323 -1663 0
-324 -1664 0
-349 -717 0
-350 -718 0
-351 -719 0
-352 -720 0
-373 -2905 0
-374 -2906 0
-375 -2907 0
-376 -2908 0
-421 -1561 0
-422 -1562 0
-423 -1563 0
-424 -1564 0
-561 -1953 0
-562 -1954 0
-563 -1955 0
-564 -1956 0
-565 -3313 0
-566 -3314 0
-567 -3315 0
-568 -3316 0
-577 -665 0
-578 -666 0
-579 -667 0
-580 -668 0
-589 -2349 0
-590 -2350 0
-591 -2351 0
-592 -2352 0
-605 -3213 0
-606 -3214 0
-607 -3215 0
-608 -3216 0
-613 -2173 0
-614 -2174 0
-615 -2175 0
-616 -2176 0
-661 -1729 0
-662 -1730 0
-663 -1731 0
-664 -1732 0
-693 -3785 0
-694 -3786 0
-695 -3787 0
-696 -3788 0
-797 -2133 0
-798 -2134 0
-799 -2135 0
-800 -2136 0
-861 -1257 0
-862 -1258 0
-863 -1259 0
-864 -1260 0
-925 -3893 0
-926 -3894 0
-927 -3895 0
-928 -3896 0
-1005 -3053 0
-1006 -3054 0
-1007 -3055 0
-1008 -3056 0
-1017 -1761 0
-1018 -1762 0
-1019 -1763 0
-1020 -1764 0
-1109 -3289 0
-1110 -3290 0
-1111 -3291 0
-1112 -3292 0
-1209 -3505 0
-1210 -3506 0
-1211 -3507 0
-1212 -3508 0
-1333 -3257 0
-1334 -3258 0
-1335 -3259 0
-1336 -3260 0
-1361 -2937 0
-1362 -2938 0
-1363 -2939 0
-1364 -2940 0
-1493 -2121 0
-1494 -2122 0
-1495 -2123 0
-1496 -2124 0
-1529 -3353 0
-1530 -3354 0
-1531 -3355 0
-1532 -3356 0
-1609 -2373 0
-1610 -2374 0
-1611 -2375 0
-1612 -2376 0
-1681 -2113 0
-1682 -2114 0
-1683 -2115 0
-1684 -2116 0
-1949 -2853 0
-1950 -2854 0
-1951 -2855 0
-1952 -2856 0
-1973 -3657 0
-1974 -3658 0
-1975 -3659 0
-1976 -3660 0
-2057 -2825 0
-2058 -2826 0
-2059 -2827 0
-2060 -2828 0
-2077 -3601 0
-2078 -3602 0
-2079 -3603 0
-2080 -3604 0
-2721 -4005 0
-2722 -4006 0
-2723 -4007 0
-2724 -4008 0
-2785 -3133 0
-2786 -3134 0
-2787 -3135 0
-2788 -3136 0
-3485 -3637 0
-3486 -3638 0
-3487 -3639 0
-3488 -3640 0
-3713 -3873 0
-3714 -3874 0
-3715 -3875 0
-3716 -3876 0
-3741 -3925 0
-3742 -3926 0
-3743 -3927 0
-3744 -3928 0
-33 -1545 0
-34 -1546 0
-35 -1547 0
-36 -1548 0
-89 -645 0
-90 -646 0
-91 -647 0
-92 -648 0
-93 -721 0
-94 -722 0
-95 -723 0
-96 -724 0
-129 -521 0
-130 -522 0
-131 -523 0
-132 -524 0
-137 -889 0
-138 -890 0
-139 -891 0
-140 -892 0
-153 -697 0
-154 -698 0
-155 -699 0
-156 -700 0
-205 -2257 0
-206 -2258 0
-207 -2259 0
-208 -2260 0
-253 -441 0
-254 -442 0
-255 -443 0
-256 -444 0
-261 -3005 0
-262 -3006 0
-263 -3007 0
-264 -3008 0
-321 -1793 0
-322 -1794 0
-323 -1795 0
-324 -1796 0
-333 -473 0
-334 -474 0
-335 -475 0
-336 -476 0
-565 -1373 0
-566 -1374 0
-567 -1375 0
-568 -1376 0
-597 -1733 0
-598 -1734 0
-599 -1735 0
-600 -1736 0
-701 -1993 0
-702 -1994 0
-703 -1995 0
-704 -1996 0
-725 -1517 0
-726 -1518 0
-727 -1519 0
-728 -1520 0
-765 -1221 0
-766 -1222 0
-767 -1223 0
-768 -1224 0
-777 -2521 0
-778 -2522 0
-779 -2523 0
-780 -2524 0
-925 -1133 0
-926 -1134 0
-927 -1135 0
-928 -1136 0
-929 -1589 0
-930 -1590 0
-931 -1591 0
-932 -1592 0
-953 -1249 0
-954 -1250 0
-955 -1251 0
-956 -1252 0
-1005 -2329 0
-1006 -2330 0
-1007 -2331 0
-1008 -2332 0
-1053 -2141 0
-1054 -2142 0
-1055 -2143 0
-1056 -2144 0
-1097 -1929 0
-1098 -1930 0
-1099 -1931 0
-1100 -1932 0
-1101 -1933 0
-1102 -1934 0
-1103 -1935 0
-1104 -1936 0
-1181 -1241 0
-1182 -1242 0
-1183 -1243 0
-1184 -1244 0
-1513 -1737 0
-1514 -1738 0
-1515 -1739 0
-1516 -1740 0
-1617 -1865 0
-1618 -1866 0
-1619 -1867 0
-1620 -1868 0
-1621 -1905 0
-1622 -1906 0
-1623 -1907 0
-1624 -1908 0
-1761 -2173 0
-1762 -2174 0
-1763 -2175 0
-1764 -2176 0
-1813 -3249 0
-1814 -3250 0
-1815 -3251 0
-1816 -3252 0
-1833 -3001 0
-1834 -3002 0
-1835 -3003 0
-1836 -3004 0
-1877 -2365 0
-1878 -2366 0
-1879 -2367 0
-1880 -2368 0
-1881 -2385 0
-1882 -2386 0
-1883 -2387 0
-1884 -2388 0
-1885 -2781 0
-1886 -2782 0
-1887 -2783 0
-1888 -2784 0
-1937 -2341 0
-1938 -2342 0
-1939 -2343 0
-1940 -2344 0
-2393 -3509 0
-2394 -3510 0
-2395 -3511 0
-2396 -3512 0
-2737 -3073 0
-2738 -3074 0
-2739 -3075 0
-2740 -3076 0
-3033 -3305 0
-3034 -3306 0
-3035 -3307 0
-3036 -3308 0
-3137 -4065 0
-3138 -4066 0
-3139 -4067 0
-3140 -4068 0
-3277 -3821 0
-3278 -3822 0
-3279 -3823 0
-3280 -3824 0
-3317 -3701 0
-3318 -3702 0
-3319 -3703 0
-3320 -3704 0
-17 -933 0
-18 -934 0
-19 -935 0
-20 -936 0
-33 -1369 0
-34 -1370 0
-35 -1371 0
-36 -1372 0
-41 -2149 0
-42 -2150 0
-43 -2151 0
-44 -2152 0
-57 -1645 0
-58 -1646 0
-59 -1647 0
-60 -1648 0
-65 -2397 0
-66 -2398 0
-67 -2399 0
-68 -2400 0
-81 -2093 0
-82 -2094 0
-83 -2095 0
-84 -2096 0
-101 -365 0
-102 -366 0
-103 -367 0
-104 -368 0
-105 -517 0
-106 -518 0
-107 -519 0
-108 -520 0
-133 -525 0
-134 -526 0
-135 -527 0
-136 -528 0
-137 -333 0
-138 -334 0
-139 -335 0
-140 -336 0
-145 -3301 0
-146 -3302 0
-147 -3303 0
-148 -3304 0
-161 -421 0
-162 -422 0
-163 -423 0
-164 -424 0
-181 -2805 0
-182 -2806 0
-183 -2807 0
-184 -2808 0
-205 -1105 0
-206 -1106 0
-207 -1107 0
-208 -1108 0
-213 -1021 0
-214 -1022 0
-215 -1023 0
-216 -1024 0
-229 -305 0
-230 -306 0
-231 -307 0
-232 -308 0
-237 -413 0
-238 -414 0
-239 -415 0
-240 -416 0
-269 -2009 0
-270 -2010 0
-271 -2011 0
-272 -2012 0
-329 -1317 0
-330 -1318 0
-331 -1319 0
-332 -1320 0
-341 -453 0
-342 -454 0
-343 -455 0
-344 -456 0
-417 -2509 0
-418 -2510 0
-419 -2511 0
-420 -2512 0
-457 -1321 0
-458 -1322 0
-459 -1323 0
-460 -1324 0
-465 -3157 0
-466 -3158 0
-467 -3159 0
-468 -3160 0
-469 -1477 0
-470 -1478 0
-471 -1479 0
-472 -1480 0
-493 -2233 0
-494 -2234 0
-495 -2235 0
-496 -2236 0
-537 -869 0
-538 -870 0
-539 -871 0
-540 -872 0
-553 -1305 0
-554 -1306 0
-555 -1307 0
-556 -1308 0
-557 -1125 0
-558 -1126 0
-559 -1127 0
-560 -1128 0
-569 -1857 0
-570 -1858 0
-571 -1859 0
-572 -1860 0
-581 -3949 0
-582 -3950 0
-583 -3951 0
-584 -3952 0
-593 -1045 0
-594 -1046 0
-595 -1047 0
-596 -1048 0
-597 -1101 0
-598 -1102 0
-599 -1103 0
-600 -1104 0
-637 -1449 0
-638 -1450 0
-639 -1451 0
-640 -1452 0
-649 -1565 0
-650 -1566 0
-651 -1567 0
-652 -1568 0
-669 -833 0
-670 -834 0
-671 -835 0
-672 -836 0
-693 -817 0
-694 -818 0
-695 -819 0
-696 -820 0
-753 -801 0
-754 -802 0
-755 -803 0
-756 -804 0
-773 -2305 0
-774 -2306 0
-775 -2307 0
-776 -2308 0
-821 -2449 0
-822 -2450 0
-823 -2451 0
-824 -2452 0
-837 -1053 0
-838 -1054 0
-839 -1055 0
-840 -1056 0
-877 -3325 0
-878 -3326 0
-879 -3327 0
-880 -3328 0
-897 -2201 0
-898 -2202 0
-899 -2203 0
-900 -2204 0
-917 -3077 0
-918 -3078 0
-919 -3079 0
-920 -3080 0
-949 -2417 0
-950 -2418 0
-951 -2419 0
-952 -2420 0
-985 -2441 0
-986 -2442 0
-987 -2443 0
-988 -2444 0
-997 -1497 0
-998 -1498 0
-999 -1499 0
-1000 -1500 0
-1001 -1869 0
-1002 -1870 0
-1003 -1871 0
-1004 -1872 0
-1005 -3013 0
-1006 -3014 0
-1007 -3015 0
-1008 -3016 0
-1025 -4021 0
-1026 -4022 0
-1027 -4023 0
-1028 -4024 0
-1109 -3565 0
-1110 -3566 0
-1111 -3567 0
-1112 -3568 0
-1113 -2013 0
-1114 -2014 0
-1115 -2015 0
-1116 -2016 0
-1121 -1409 0
-1122 -1410 0
-1123 -1411 0
-1124 -1412 0
-1145 -3597 0
-1146 -3598 0
-1147 -3599 0
-1148 -3600 0
-1153 -1377 0
-1154 -1378 0
-1155 -1379 0
-1156 -1380 0
-1165 -1481 0
-1166 -1482 0
-1167 -1483 0
-1168 -1484 0
-1173 -1329 0
-1174 -1330 0
-1175 -1331 0
-1176 -1332 0
-1213 -3309 0
-1214 -3310 0
-1215 -3311 0
-1216 -3312 0
-1225 -1361 0
-1226 -1362 0
-1227 -1363 0
-1228 -1364 0
-1293 -2625 0
-1294 -2626 0
-1295 -2627 0
-1296 -2628 0
-1393 -1405 0
-1394 -1406 0
-1395 -1407 0
-1396 -1408 0
-1413 -1529 0
-1414 -1530 0
-1415 -1531 0
-1416 -1532 0
-1525 -3881 0
-1526 -3882 0
-1527 -3883 0
-1528 -3884 0
-1577 -1745 0
-1578 -1746 0
-1579 -1747 0
-1580 -1748 0
-1621 -2829 0
-1622 -2830 0
-1623 -2831 0
-1624 -2832 0
-1653 -1897 0
-1654 -1898 0
-1655 -1899 0
-1656 -1900 0
-1733 -1933 0
-1734 -1934 0
-1735 -1935 0
-1736 -1936 0
-1937 -3889 0
-1938 -3890 0
-1939 -3891 0
-1940 -3892 0
-1949 -2057 0
-1950 -2058 0
-1951 -2059 0
-1952 -2060 0
-1985 -2761 0
-1986 -2762 0
-1987 -2763 0
-1988 -2764 0
-2105 -2821 0
-2106 -2822 0
-2107 -2823 0
-2108 -2824 0
-2117 -3905 0
-2118 -3906 0
-2119 -3907 0
-2120 -3908 0
-2197 -3237 0
-2198 -3238 0
-2199 -3239 0
-2200 -3240 0
-2285 -2633 0
-2286 -2634 0
-2287 -2635 0
-2288 -2636 0
-2313 -3933 0
-2314 -3934 0
-2315 -3935 0
-2316 -3936 0
-2409 -3349 0
-2410 -3350 0
-2411 -3351 0
-2412 -3352 0
-2553 -2793 0
-2554 -2794 0
-2555 -2795 0
-2556 -2796 0
-2581 -3541 0
-2582 -3542 0
-2583 -3543 0
-2584 -3544 0
-2677 -3229 0
-2678 -3230 0
-2679 -3231 0
-2680 -3232 0
-3161 -3613 0
-3162 -3614 0
-3163 -3615 0
-3164 -3616 0
-3377 -4033 0
-3378 -4034 0
-3379 -4035 0
-3380 -4036 0
-3801 -3813 0
-3802 -3814 0
-3803 -3815 0
-3804 -3816 0
-13 -1305 0
-14 -1306 0
-15 -1307 0
-16 -1308 0
-25 -553 0
-26 -554 0
-27 -555 0
-28 -556 0
-37 -1453 0
-38 -1454 0
-39 -1455 0
-40 -1456 0
-97 -3265 0
-98 -3266 0
-99 -3267 0
-100 -3268 0
-125 -3113 0
-126 -3114 0
-127 -3115 0
-128 -3116 0
-133 -2981 0
-134 -2982 0
-135 -2983 0
-136 -2984 0
-145 -3773 0
-146 -3774 0
-147 -3775 0
-148 -3776 0
-149 -665 0
-150 -666 0
-151 -667 0
-152 -668 0
-173 -2205 0
-174 -2206 0
-175 -2207 0
-176 -2208 0
-273 -3865 0
-274 -3866 0
-275 -3867 0
-276 -3868 0
-277 -293 0
-278 -294 0
-279 -295 0
-280 -296 0
-329 -457 0
-330 -458 0
-331 -459 0
-332 -460 0
-341 -1605 0
-342 -1606 0
-343 -1607 0
-344 -1608 0
-357 -945 0
-358 -946 0
-359 -947 0
-360 -948 0
-433 -3033 0
-434 -3034 0
-435 -3035 0
-436 -3036 0
-445 -657 0
-446 -658 0
-447 -659 0
-448 -660 0
-465 -1805 0
-466 -1806 0
-467 -1807 0
-468 -1808 0
-513 -673 0
-514 -674 0
-515 -675 0
-516 -676 0
-557 -1081 0
-558 -1082 0
-559 -1083 0
-560 -1084 0
-565 -3921 0
-566 -3922 0
-567 -3923 0
-568 -3924 0
-605 -1617 0
-606 -1618 0
-607 -1619 0
-608 -1620 0
-617 -1289 0
-618 -1290 0
-619 -1291 0
-620 -1292 0
-653 -3441 0
-654 -3442 0
-655 -3443 0
-656 -3444 0
-677 -1881 0
-678 -1882 0
-679 -1883 0
-680 -1884 0
-693 -1937 0
-694 -1938 0
-695 -1939 0
-696 -1940 0
-737 -2961 0
-738 -2962 0
-739 -2963 0
-740 -2964 0
-817 -3889 0
-818 -3890 0
-819 -3891 0
-820 -3892 0
-925 -2269 0
-926 -2270 0
-927 -2271 0
-928 -2272 0
-1061 -1277 0
-1062 -1278 0
-1063 -1279 0
-1064 -1280 0
-1201 -1389 0
-1202 -1390 0
-1203 -1391 0
-1204 -1392 0
-1249 -3353 0
-1250 -3354 0
-1251 -3355 0
-1252 -3356 0
-1317 -1321 0
-1318 -1322 0
-1319 -1323 0
-1320 -1324 0
-1373 -2253 0
-1374 -2254 0
-1375 -2255 0
-1376 -2256 0
-1569 -2377 0
-1570 -2378 0
-1571 -2379 0
-1572 -2380 0
-1577 -2757 0
-1578 -2758 0
-1579 -2759 0
-1580 -2760 0
-1597 -3385 0
-1598 -3386 0
-1599 -3387 0
-1600 -3388 0
-1657 -2005 0
-1658 -2006 0
-1659 -2007 0
-1660 -2008 0
-1681 -3581 0
-1682 -3582 0
-1683 -3583 0
-1684 -3584 0
-1725 -2901 0
-1726 -2902 0
-1727 -2903 0
-1728 -2904 0
-1745 -1889 0
-1746 -1890 0
-1747 -1891 0
-1748 -1892 0
-1813 -3277 0
-1814 -3278 0
-1815 -3279 0
-1816 -3280 0
-1949 -2185 0
-1950 -2186 0
-1951 -2187 0
-1952 -2188 0
-1969 -2913 0
-1970 -2914 0
-1971 -2915 0
-1972 -2916 0
-2301 -2841 0
-2302 -2842 0
-2303 -2843 0
-2304 -2844 0
-2353 -3017 0
-2354 -3018 0
-2355 -3019 0
-2356 -3020 0
-2369 -3973 0
-2370 -3974 0
-2371 -3975 0
-2372 -3976 0
-2421 -2461 0
-2422 -2462 0
-2423 -2463 0
-2424 -2464 0
-2737 -3793 0
-2738 -3794 0
-2739 -3795 0
-2740 -3796 0
-2933 -3493 0
-2934 -3494 0
-2935 -3495 0
-2936 -3496 0
-2969 -2985 0
-2970 -2986 0
-2971 -2987 0
-2972 -2988 0
-3073 -3673 0
-3074 -3674 0
-3075 -3675 0
-3076 -3676 0
-3249 -3821 0
-3250 -3822 0
-3251 -3823 0
-3252 -3824 0
-3461 -3849 0
-3462 -3850 0
-3463 -3851 0
-3464 -3852 0
-3473 -3925 0
-3474 -3926 0
-3475 -3927 0
-3476 -3928 0
-1 -3093 0
-2 -3094 0
-3 -3095 0
-4 -3096 0
-17 -317 0
-18 -318 0
-19 -319 0
-20 -320 0
-21 -1069 0
-22 -1070 0
-23 -1071 0
-24 -1072 0
-29 -3493 0
-30 -3494 0
-31 -3495 0
-32 -3496 0
-33 -3101 0
-34 -3102 0
-35 -3103 0
-36 -3104 0
-101 -1517 0
-102 -1518 0
-103 -1519 0
-104 -1520 0
-105 -2649 0
-106 -2650 0
-107 -2651 0
-108 -2652 0
-133 -725 0
-134 -726 0
-135 -727 0
-136 -728 0
-137 -1153 0
-138 -1154 0
-139 -1155 0
-140 -1156 0
-141 -337 0
-142 -338 0
-143 -339 0
-144 -340 0
-157 -1085 0
-158 -1086 0
-159 -1087 0
-160 -1088 0
-165 -217 0
-166 -218 0
-167 -219 0
-168 -220 0
-169 -2933 0
-170 -2934 0
-171 -2935 0
-172 -2936 0
-189 -3405 0
-190 -3406 0
-191 -3407 0
-192 -3408 0
-205 -2345 0
-206 -2346 0
-207 -2347 0
-208 -2348 0
-209 -989 0
-210 -990 0
-211 -991 0
-212 -992 0
-229 -3953 0
-230 -3954 0
-231 -3955 0
-232 -3956 0
-301 -381 0
-302 -382 0
-303 -383 0
-304 -384 0
-333 -1377 0
-334 -1378 0
-335 -1379 0
-336 -1380 0
-341 -1341 0
-342 -1342 0
-343 -1343 0
-344 -1344 0
-401 -581 0
-402 -582 0
-403 -583 0
-404 -584 0
-501 -849 0
-502 -850 0
-503 -851 0
-504 -852 0
-617 -3705 0
-618 -3706 0
-619 -3707 0
-620 -3708 0
-753 -1593 0
-754 -1594 0
-755 -1595 0
-756 -1596 0
-845 -3389 0
-846 -3390 0
-847 -3391 0
-848 -3392 0
-929 -2841 0
-930 -2842 0
-931 -2843 0
-932 -2844 0
-1029 -1229 0
-1030 -1230 0
-1031 -1231 0
-1032 -1232 0
-1061 -3789 0
-1062 -3790 0
-1063 -3791 0
-1064 -3792 0
-1149 -3057 0
-1150 -3058 0
-1151 -3059 0
-1152 -3060 0
-1225 -1349 0
-1226 -1350 0
-1227 -1351 0
-1228 -1352 0
-1253 -2301 0
-1254 -2302 0
-1255 -2303 0
-1256 -2304 0
-1277 -3777 0
-1278 -3778 0
-1279 -3779 0
-1280 -3780 0
-1285 -2869 0
-1286 -2870 0
-1287 -2871 0
-1288 -2872 0
-1469 -3069 0
-1470 -3070 0
-1471 -3071 0
-1472 -3072 0
-1513 -1885 0
-1514 -1886 0
-1515 -1887 0
-1516 -1888 0
-1521 -3397 0
-1522 -3398 0
-1523 -3399 0
-1524 -3400 0
-1553 -2529 0
-1554 -2530 0
-1555 -2531 0
-1556 -2532 0
-1717 -2881 0
-1718 -2882 0
-1719 -2883 0
-1720 -2884 0
-1737 -2781 0
-1738 -2782 0
-1739 -2783 0
-1740 -2784 0
-1745 -3593 0
-1746 -3594 0
-1747 -3595 0
-1748 -3596 0
-1941 -3941 0
-1942 -3942 0
-1943 -3943 0
-1944 -3944 0
-2077 -2721 0
-2078 -2722 0
-2079 -2723 0
-2080 -2724 0
-2085 -2873 0
-2086 -2874 0
-2087 -2875 0
-2088 -2876 0
-2105 -2877 0
-2106 -2878 0
-2107 -2879 0
-2108 -2880 0
-2153 -3965 0
-2154 -3966 0
-2155 -3967 0
-2156 -3968 0
-2393 -2477 0
-2394 -2478 0
-2395 -2479 0
-2396 -2480 0
-2401 -2833 0
-2402 -2834 0
-2403 -2835 0
-2404 -2836 0
-2525 -3425 0
-2526 -3426 0
-2527 -3427 0
-2528 -3428 0
-2693 -3589 0
-2694 -3590 0
-2695 -3591 0
-2696 -3592 0
-3021 -3553 0
-3022 -3554 0
-3023 -3555 0
-3024 -3556 0
-3337 -3785 0
-3338 -3786 0
-3339 -3787 0
-3340 -3788 0
-3601 -4005 0
-3602 -4006 0
-3603 -4007 0
-3604 -4008 0
-25 -1009 0
-26 -1010 0
-27 -1011 0
-28 -1012 0
-85 -873 0
-86 -874 0
-87 -875 0
-88 -876 0
-93 -489 0
-94 -490 0
-95 -491 0
-96 -492 0
-97 -1409 0
-98 -1410 0
-99 -1411 0
-100 -1412 0
-101 -1909 0
-102 -1910 0
-103 -1911 0
-104 -1912 0
-105 -361 0
-106 -362 0
-107 -363 0
-108 -364 0
-137 -2393 0
-138 -2394 0
-139 -2395 0
-140 -2396 0
-149 -961 0
-150 -962 0
-151 -963 0
-152 -964 0
-233 -2173 0
-234 -2174 0
-235 -2175 0
-236 -2176 0
-249 -497 0
-250 -498 0
-251 -499 0
-252 -500 0
-269 -2453 0
-270 -2454 0
-271 -2455 0
-272 -2456 0
-385 -885 0
-386 -886 0
-387 -887 0
-388 -888 0
-397 -2349 0
-398 -2350 0
-399 -2351 0
-400 -2352 0
-509 -1329 0
-510 -1330 0
-511 -1331 0
-512 -1332 0
-537 -645 0
-538 -646 0
-539 -647 0
-540 -648 0
-581 -3257 0
-582 -3258 0
-583 -3259 0
-584 -3260 0
-609 -1121 0
-610 -1122 0
-611 -1123 0
-612 -1124 0
-653 -909 0
-654 -910 0
-655 -911 0
-656 -912 0
-889 -3509 0
-890 -3510 0
-891 -3511 0
-892 -3512 0
-1141 -1537 0
-1142 -1538 0
-1143 -1539 0
-1144 -1540 0
-1149 -1709 0
-1150 -1710 0
-1151 -1711 0
-1152 -1712 0
-1153 -2477 0
-1154 -2478 0
-1155 -2479 0
-1156 -2480 0
-1245 -1761 0
-1246 -1762 0
-1247 -1763 0
-1248 -1764 0
-1309 -1473 0
-1310 -1474 0
-1311 -1475 0
-1312 -1476 0
-1381 -3561 0
-1382 -3562 0
-1383 -3563 0
-1384 -3564 0
-1421 -3213 0
-1422 -3214 0
-1423 -3215 0
-1424 -3216 0
-1577 -2125 0
-1578 -2126 0
-1579 -2127 0
-1580 -2128 0
-1741 -3065 0
-1742 -3066 0
-1743 -3067 0
-1744 -3068 0
-1853 -2681 0
-1854 -2682 0
-1855 -2683 0
-1856 -2684 0
-1885 -2609 0
-1886 -2610 0
-1887 -2611 0
-1888 -2612 0
-1977 -2549 0
-1978 -2550 0
-1979 -2551 0
-1980 -2552 0
-2057 -3157 0
-2058 -3158 0
-2059 -3159 0
-2060 -3160 0
-2169 -2577 0
-2170 -2578 0
-2171 -2579 0
-2172 -2580 0
-2489 -3137 0
-2490 -3138 0
-2491 -3139 0
-2492 -3140 0
-2613 -3857 0
-2614 -3858 0
-2615 -3859 0
-2616 -3860 0
-2653 -3001 0
-2654 -3002 0
-2655 -3003 0
-2656 -3004 0
-2877 -3069 0
-2878 -3070 0
-2879 -3071 0
-2880 -3072 0
-2965 -3457 0
-2966 -3458 0
-2967 -3459 0
-2968 -3460 0
-3169 -3465 0
-3170 -3466 0
-3171 -3467 0
-3172 -3468 0
-3549 -3829 0
-3550 -3830 0
-3551 -3831 0
-3552 -3832 0
-13 -1477 0
-14 -1478 0
-15 -1479 0
-16 -1480 0
-25 -469 0
-26 -470 0
-27 -471 0
-28 -472 0
-37 -313 0
-38 -314 0
-39 -315 0
-40 -316 0
-49 -1433 0
-50 -1434 0
-51 -1435 0
-52 -1436 0
-53 -1705 0
-54 -1706 0
-55 -1707 0
-56 -1708 0
-69 -1557 0
-70 -1558 0
-71 -1559 0
-72 -1560 0
-73 -1789 0
-74 -1790 0
-75 -1791 0
-76 -1792 0
-89 -657 0
-90 -658 0
-91 -659 0
-92 -660 0
-93 -249 0
-94 -250 0
-95 -251 0
-96 -252 0
-117 -245 0
-118 -246 0
-119 -247 0
-120 -248 0
-129 -1233 0
-130 -1234 0
-131 -1235 0
-132 -1236 0
-137 -401 0
-138 -402 0
-139 -403 0
-140 -404 0
-153 -445 0
-154 -446 0
-155 -447 0
-156 -448 0
-209 -2693 0
-210 -2694 0
-211 -2695 0
-212 -2696 0
-213 -269 0
-214 -270 0
-215 -271 0
-216 -272 0
-273 -2789 0
-274 -2790 0
-275 -2791 0
-276 -2792 0
-285 -289 0
-286 -290 0
-287 -291 0
-288 -292 0
-297 -1041 0
-298 -1042 0
-299 -1043 0
-300 -1044 0
-321 -477 0
-322 -478 0
-323 -479 0
-324 -480 0
-325 -729 0
-326 -730 0
-327 -731 0
-328 -732 0
-357 -689 0
-358 -690 0
-359 -691 0
-360 -692 0
-381 -1669 0
-382 -1670 0
-383 -1671 0
-384 -1672 0
-489 -497 0
-490 -498 0
-491 -499 0
-492 -500 0
-501 -2229 0
-502 -2230 0
-503 -2231 0
-504 -2232 0
-549 -833 0
-550 -834 0
-551 -835 0
-552 -836 0
-565 -841 0
-566 -842 0
-567 -843 0
-568 -844 0
-593 -821 0
-594 -822 0
-595 -823 0
-596 -824 0
-601 -981 0
-602 -982 0
-603 -983 0
-604 -984 0
-621 -2701 0
-622 -2702 0
-623 -2703 0
-624 -2704 0
-653 -809 0
-654 -810 0
-655 -811 0
-656 -812 0
-693 -1057 0
-694 -1058 0
-695 -1059 0
-696 -1060 0
-701 -3125 0
-702 -3126 0
-703 -3127 0
-704 -3128 0
-849 -1893 0
-850 -1894 0
-851 -1895 0
-852 -1896 0
-989 -3589 0
-990 -3590 0
-991 -3591 0
-992 -3592 0
-1021 -2009 0
-1022 -2010 0
-1023 -2011 0
-1024 -2012 0
-1045 -2449 0
-1046 -2450 0
-1047 -2451 0
-1048 -2452 0
-1065 -1685 0
-1066 -1686 0
-1067 -1687 0
-1068 -1688 0
-1285 -3505 0
-1286 -3506 0
-1287 -3507 0
-1288 -3508 0
-1377 -3949 0
-1378 -3950 0
-1379 -3951 0
-1380 -3952 0
-1429 -2909 0
-1430 -2910 0
-1431 -2911 0
-1432 -2912 0
-1445 -3689 0
-1446 -3690 0
-1447 -3691 0
-1448 -3692 0
-1485 -1857 0
-1486 -1858 0
-1487 -1859 0
-1488 -1860 0
-1593 -2817 0
-1594 -2818 0
-1595 -2819 0
-1596 -2820 0
-1625 -1785 0
-1626 -1786 0
-1627 -1787 0
-1628 -1788 0
-1649 -1701 0
-1650 -1702 0
-1651 -1703 0
-1652 -1704 0
-1885 -2037 0
-1886 -2038 0
-1887 -2039 0
-1888 -2040 0
-1961 -2977 0
-1962 -2978 0
-1963 -2979 0
-1964 -2980 0
-1977 -2593 0
-1978 -2594 0
-1979 -2595 0
-1980 -2596 0
-1997 -2169 0
-1998 -2170 0
-1999 -2171 0
-2000 -2172 0
-2041 -3897 0
-2042 -3898 0
-2043 -3899 0
-2044 -3900 0
-2061 -3305 0
-2062 -3306 0
-2063 -3307 0
-2064 -3308 0
-2237 -3877 0
-2238 -3878 0
-2239 -3879 0
-2240 -3880 0
-2373 -2937 0
-2374 -2938 0
-2375 -2939 0
-2376 -2940 0
-2477 -3257 0
-2478 -3258 0
-2479 -3259 0
-2480 -3260 0
-2541 -3233 0
-2542 -3234 0
-2543 -3235 0
-2544 -3236 0
-2641 -2845 0
-2642 -2846 0
-2643 -2847 0
-2644 -2848 0
-2685 -4069 0
-2686 -4070 0
-2687 -4071 0
-2688 -4072 0
-2837 -3373 0
-2838 -3374 0
-2839 -3375 0
-2840 -3376 0
-2861 -2985 0
-2862 -2986 0
-2863 -2987 0
-2864 -2988 0
-3025 -3181 0
-3026 -3182 0
-3027 -3183 0
-3028 -3184 0
-3261 -3409 0
-3262 -3410 0
-3263 -3411 0
-3264 -3412 0
-3341 -3945 0
-3342 -3946 0
-3343 -3947 0
-3344 -3948 0
-3649 -4029 0
-3650 -4030 0
-3651 -4031 0
-3652 -4032 0
-1 -9 0
-2 -10 0
-3 -11 0
-4 -12 0
-25 -2781 0
-26 -2782 0
-27 -2783 0
-28 -2784 0
-105 -1673 0
-106 -1674 0
-107 -1675 0
-108 -1676 0
-129 -3521 0
-130 -3522 0
-131 -3523 0
-132 -3524 0
-133 -2657 0
-134 -2658 0
-135 -2659 0
-136 -2660 0
-137 -3529 0
-138 -3530 0
-139 -3531 0
-140 -3532 0
-173 -3237 0
-174 -3238 0
-175 -3239 0
-176 -3240 0
-261 -1601 0
-262 -1602 0
-263 -1603 0
-264 -1604 0
-341 -1569 0
-342 -1570 0
-343 -1571 0
-344 -1572 0
-353 -1033 0
-354 -1034 0
-355 -1035 0
-356 -1036 0
-557 -1829 0
-558 -1830 0
-559 -1831 0
-560 -1832 0
-597 -1181 0
-598 -1182 0
-599 -1183 0
-600 -1184 0
-629 -3889 0
-630 -3890 0
-631 -3891 0
-632 -3892 0
-701 -1377 0
-702 -1378 0
-703 -1379 0
-704 -1380 0
-749 -817 0
-750 -818 0
-751 -819 0
-752 -820 0
-813 -2049 0
-814 -2050 0
-815 -2051 0
-816 -2052 0
-845 -1865 0
-846 -1866 0
-847 -1867 0
-848 -1868 0
-893 -3273 0
-894 -3274 0
-895 -3275 0
-896 -3276 0
-973 -1537 0
-974 -1538 0
-975 -1539 0
-976 -1540 0
-1009 -2529 0
-1010 -2530 0
-1011 -2531 0
-1012 -2532 0
-1097 -1421 0
-1098 -1422 0
-1099 -1423 0
-1100 -1424 0
-1129 -2253 0
-1130 -2254 0
-1131 -2255 0
-1132 -2256 0
-1149 -2761 0
-1150 -2762 0
-1151 -2763 0
-1152 -2764 0
-1161 -1373 0
-1162 -1374 0
-1163 -1375 0
-1164 -1376 0
-1169 -2217 0
-1170 -2218 0
-1171 -2219 0
-1172 -2220 0
-1177 -3369 0
-1178 -3370 0
-1179 -3371 0
-1180 -3372 0
-1197 -1617 0
-1198 -1618 0
-1199 -1619 0
-1200 -1620 0
-1201 -1781 0
-1202 -1782 0
-1203 -1783 0
-1204 -1784 0
-1205 -2825 0
-1206 -2826 0
-1207 -2827 0
-1208 -2828 0
-1209 -3881 0
-1210 -3882 0
-1211 -3883 0
-1212 -3884 0
-1225 -2329 0
-1226 -2330 0
-1227 -2331 0
-1228 -2332 0
-1253 -2057 0
-1254 -2058 0
-1255 -2059 0
-1256 -2060 0
-1289 -3285 0
-1290 -3286 0
-1291 -3287 0
-1292 -3288 0
-1385 -2601 0
-1386 -2602 0
-1387 -2603 0
-1388 -2604 0
-1393 -4053 0
-1394 -4054 0
-1395 -4055 0
-1396 -4056 0
-1413 -3821 0
-1414 -3822 0
-1415 -3823 0
-1416 -3824 0
-1493 -2621 0
-1494 -2622 0
-1495 -2623 0
-1496 -2624 0
-1533 -1737 0
-1534 -1738 0
-1535 -1739 0
-1536 -1740 0
-1577 -1813 0
-1578 -1814 0
-1579 -1815 0
-1580 -1816 0
-1597 -1793 0
-1598 -1794 0
-1599 -1795 0
-1600 -1796 0
-1605 -2377 0
-1606 -2378 0
-1607 -2379 0
-1608 -2380 0
-1621 -3097 0
-1622 -3098 0
-1623 -3099 0
-1624 -3100 0
-1681 -2325 0
-1682 -2326 0
-1683 -2327 0
-1684 -2328 0
-1757 -2993 0
-1758 -2994 0
-1759 -2995 0
-1760 -2996 0
-1921 -3037 0
-1922 -3038 0
-1923 -3039 0
-1924 -3040 0
-1941 -3265 0
-1942 -3266 0
-1943 -3267 0
-1944 -3268 0
-2145 -3813 0
-2146 -3814 0
-2147 -3815 0
-2148 -3816 0
-2357 -3105 0
-2358 -3106 0
-2359 -3107 0
-2360 -3108 0
-2365 -2753 0
-2366 -2754 0
-2367 -2755 0
-2368 -2756 0
-2473 -2609 0
-2474 -2610 0
-2475 -2611 0
-2476 -2612 0
-2545 -3501 0
-2546 -3502 0
-2547 -3503 0
-2548 -3504 0
-2757 -3277 0
-2758 -3278 0
-2759 -3279 0
-2760 -3280 0
-2773 -3557 0
-2774 -3558 0
-2775 -3559 0
-2776 -3560 0
-2821 -3013 0
-2822 -3014 0
-2823 -3015 0
-2824 -3016 0
-2885 -3845 0
-2886 -3846 0
-2887 -3847 0
-2888 -3848 0
-2945 -3565 0
-2946 -3566 0
-2947 -3567 0
-2948 -3568 0
-3021 -3301 0
-3022 -3302 0
-3023 -3303 0
-3024 -3304 0
-3125 -3949 0
-3126 -3950 0
-3127 -3951 0
-3128 -3952 0
-25 -1509 0
-26 -1510 0
-27 -1511 0
-28 -1512 0
-57 -281 0
-58 -282 0
-59 -283 0
-60 -284 0
-73 -2665 0
-74 -2666 0
-75 -2667 0
-76 -2668 0
-101 -521 0
-102 -522 0
-103 -523 0
-104 -524 0
-105 -393 0
-106 -394 0
-107 -395 0
-108 -396 0
-109 -1953 0
-110 -1954 0
-111 -1955 0
-112 -1956 0
-113 -561 0
-114 -562 0
-115 -563 0
-116 -564 0
-121 -3765 0
-122 -3766 0
-123 -3767 0
-124 -3768 0
-137 -325 0
-138 -326 0
-139 -327 0
-140 -328 0
-193 -3205 0
-194 -3206 0
-195 -3207 0
-196 -3208 0
-229 -417 0
-230 -418 0
-231 -419 0
-232 -420 0
-257 -3421 0
-258 -3422 0
-259 -3423 0
-260 -3424 0
-261 -973 0
-262 -974 0
-263 -975 0
-264 -976 0
-305 -2509 0
-306 -2510 0
-307 -2511 0
-308 -2512 0
-321 -549 0
-322 -550 0
-323 -551 0
-324 -552 0
-349 -3525 0
-350 -3526 0
-351 -3527 0
-352 -3528 0
-397 -441 0
-398 -442 0
-399 -443 0
-400 -444 0
-401 -729 0
-402 -730 0
-403 -731 0
-404 -732 0
-405 -449 0
-406 -450 0
-407 -451 0
-408 -452 0
-409 -641 0
-410 -642 0
-411 -643 0
-412 -644 0
-477 -833 0
-478 -834 0
-479 -835 0
-480 -836 0
-557 -3573 0
-558 -3574 0
-559 -3575 0
-560 -3576 0
-565 -1261 0
-566 -1262 0
-567 -1263 0
-568 -1264 0
-617 -2361 0
-618 -2362 0
-619 -2363 0
-620 -2364 0
-621 -2305 0
-622 -2306 0
-623 -2307 0
-624 -2308 0
-717 -1313 0
-718 -1314 0
-719 -1315 0
-720 -1316 0
-777 -913 0
-778 -914 0
-779 -915 0
-780 -916 0
-905 -937 0
-906 -938 0
-907 -939 0
-908 -940 0
-925 -3553 0
-926 -3554 0
-927 -3555 0
-928 -3556 0
-1013 -3537 0
-1014 -3538 0
-1015 -3539 0
-1016 -3540 0
-1053 -2233 0
-1054 -2234 0
-1055 -2235 0
-1056 -2236 0
-1145 -3709 0
-1146 -3710 0
-1147 -3711 0
-1148 -3712 0
-1169 -2445 0
-1170 -2446 0
-1171 -2447 0
-1172 -2448 0
-1245 -2109 0
-1246 -2110 0
-1247 -2111 0
-1248 -2112 0
-1293 -1505 0
-1294 -1506 0
-1295 -1507 0
-1296 -1508 0
-1381 -1573 0
-1382 -1574 0
-1383 -1575 0
-1384 -1576 0
-1493 -2405 0
-1494 -2406 0
-1495 -2407 0
-1496 -2408 0
-1749 -2017 0
-1750 -2018 0
-1751 -2019 0
-1752 -2020 0
-1857 -2009 0
-1858 -2010 0
-1859 -2011 0
-1860 -2012 0
-1969 -3225 0
-1970 -3226 0
-1971 -3227 0
-1972 -3228 0
-2001 -3325 0
-2002 -3326 0
-2003 -3327 0
-2004 -3328 0
-2193 -3997 0
-2194 -3998 0
-2195 -3999 0
-2196 -4000 0
-2293 -2829 0
-2294 -2830 0
-2295 -2831 0
-2296 -2832 0
-2465 -2945 0
-2466 -2946 0
-2467 -2947 0
-2468 -2948 0
-2489 -2865 0
-2490 -2866 0
-2491 -2867 0
-2492 -2868 0
-2541 -3241 0
-2542 -3242 0
-2543 -3243 0
-2544 -3244 0
-2657 -3521 0
-2658 -3522 0
-2659 -3523 0
-2660 -3524 0
-2821 -3021 0
-2822 -3022 0
-2823 -3023 0
-2824 -3024 0
-2877 -3901 0
-2878 -3902 0
-2879 -3903 0
-2880 -3904 0
-2961 -3113 0
-2962 -3114 0
-2963 -3115 0
-2964 -3116 0
-3013 -3301 0
-3014 -3302 0
-3015 -3303 0
-3016 -3304 0
-3733 -3761 0
-3734 -3762 0
-3735 -3763 0
-3736 -3764 0
-33 -457 0
-34 -458 0
-35 -459 0
-36 -460 0
-85 -313 0
-86 -314 0
-87 -315 0
-88 -316 0
-93 -2841 0
-94 -2842 0
-95 -2843 0
-96 -2844 0
-125 -2453 0
-126 -2454 0
-127 -2455 0
-128 -2456 0
-145 -269 0
-146 -270 0
-147 -271 0
-148 -272 0
-173 -1205 0
-174 -1206 0
-175 -1207 0
-176 -1208 0
-181 -329 0
-182 -330 0
-183 -331 0
-184 -332 0
-205 -1393 0
-206 -1394 0
-207 -1395 0
-208 -1396 0
-273 -533 0
-274 -534 0
-275 -535 0
-276 -536 0
-297 -2301 0
-298 -2302 0
-299 -2303 0
-300 -2304 0
-373 -1613 0
-374 -1614 0
-375 -1615 0
-376 -1616 0
-433 -445 0
-434 -446 0
-435 -447 0
-436 -448 0
-565 -725 0
-566 -726 0
-567 -727 0
-568 -728 0
-605 -757 0
-606 -758 0
-607 -759 0
-608 -760 0
-609 -2873 0
-610 -2874 0
-611 -2875 0
-612 -2876 0
-633 -769 0
-634 -770 0
-635 -771 0
-636 -772 0
-1105 -1405 0
-1106 -1406 0
-1107 -1407 0
-1108 -1408 0
-1193 -2869 0
-1194 -2870 0
-1195 -2871 0
-1196 -2872 0
-1329 -2173 0
-1330 -2174 0
-1331 -2175 0
-1332 -2176 0
-1361 -1685 0
-1362 -1686 0
-1363 -1687 0
-1364 -1688 0
-1373 -1517 0
-1374 -1518 0
-1375 -1519 0
-1376 -1520 0
-1445 -1777 0
-1446 -1778 0
-1447 -1779 0
-1448 -1780 0
-1481 -1669 0
-1482 -1670 0
-1483 -1671 0
-1484 -1672 0
-1553 -2349 0
-1554 -2350 0
-1555 -2351 0
-1556 -2352 0
-1569 -3141 0
-1570 -3142 0
-1571 -3143 0
-1572 -3144 0
-2177 -3497 0
-2178 -3498 0
-2179 -3499 0
-2180 -3500 0
-2181 -2617 0
-2182 -2618 0
-2183 -2619 0
-2184 -2620 0
-2197 -2853 0
-2198 -2854 0
-2199 -2855 0
-2200 -2856 0
-2353 -3057 0
-2354 -3058 0
-2355 -3059 0
-2356 -3060 0
-2381 -3777 0
-2382 -3778 0
-2383 -3779 0
-2384 -3780 0
-2393 -3133 0
-2394 -3134 0
-2395 -3135 0
-2396 -3136 0
-2605 -3785 0
-2606 -3786 0
-2607 -3787 0
-2608 -3788 0
-2821 -3233 0
-2822 -3234 0
-2823 -3235 0
-2824 -3236 0
-3029 -3269 0
-3030 -3270 0
-3031 -3271 0
-3032 -3272 0
-3105 -3253 0
-3106 -3254 0
-3107 -3255 0
-3108 -3256 0
-21 -3817 0
-22 -3818 0
-23 -3819 0
-24 -3820 0
-37 -3493 0
-38 -3494 0
-39 -3495 0
-40 -3496 0
-57 -405 0
-58 -406 0
-59 -407 0
-60 -408 0
-61 -2165 0
-62 -2166 0
-63 -2167 0
-64 -2168 0
-65 -201 0
-66 -202 0
-67 -203 0
-68 -204 0
-85 -745 0
-86 -746 0
-87 -747 0
-88 -748 0
-97 -3717 0
-98 -3718 0
-99 -3719 0
-100 -3720 0
-101 -1221 0
-102 -1222 0
-103 -1223 0
-104 -1224 0
-117 -789 0
-118 -790 0
-119 -791 0
-120 -792 0
-129 -369 0
-130 -370 0
-131 -371 0
-132 -372 0
-133 -765 0
-134 -766 0
-135 -767 0
-136 -768 0
-161 -1641 0
-162 -1642 0
-163 -1643 0
-164 -1644 0
-173 -3613 0
-174 -3614 0
-175 -3615 0
-176 -3616 0
-209 -425 0
-210 -426 0
-211 -427 0
-212 -428 0
-265 -293 0
-266 -294 0
-267 -295 0
-268 -296 0
-281 -449 0
-282 -450 0
-283 -451 0
-284 -452 0
-349 -797 0
-350 -798 0
-351 -799 0
-352 -800 0
-385 -1401 0
-386 -1402 0
-387 -1403 0
-388 -1404 0
-513 -2669 0
-514 -2670 0
-515 -2671 0
-516 -2672 0
-693 -1025 0
-694 -1026 0
-695 -1027 0
-696 -1028 0
-717 -2133 0
-718 -2134 0
-719 -2135 0
-720 -2136 0
-817 -4021 0
-818 -4022 0
-819 -4023 0
-820 -4024 0
-881 -3165 0
-882 -3166 0
-883 -3167 0
-884 -3168 0
-953 -1101 0
-954 -1102 0
-955 -1103 0
-956 -1104 0
-1073 -1241 0
-1074 -1242 0
-1075 -1243 0
-1076 -1244 0
-1093 -1133 0
-1094 -1134 0
-1095 -1135 0
-1096 -1136 0
-1105 -1369 0
-1106 -1370 0
-1107 -1371 0
-1108 -1372 0
-1137 -2017 0
-1138 -2018 0
-1139 -2019 0
-1140 -2020 0
-1149 -2661 0
-1150 -2662 0
-1151 -2663 0
-1152 -2664 0
-1157 -1749 0
-1158 -1750 0
-1159 -1751 0
-1160 -1752 0
-1205 -3569 0
-1206 -3570 0
-1207 -3571 0
-1208 -3572 0
-1245 -2269 0
-1246 -2270 0
-1247 -2271 0
-1248 -2272 0
-1249 -1933 0
-1250 -1934 0
-1251 -1935 0
-1252 -1936 0
-1521 -4041 0
-1522 -4042 0
-1523 -4043 0
-1524 -4044 0
-1577 -2809 0
-1578 -2810 0
-1579 -2811 0
-1580 -2812 0
-1949 -2029 0
-1950 -2030 0
-1951 -2031 0
-1952 -2032 0
-1997 -3121 0
-1998 -3122 0
-1999 -3123 0
-2000 -3124 0
-2021 -4045 0
-2022 -4046 0
-2023 -4047 0
-2024 -4048 0
-2041 -2741 0
-2042 -2742 0
-2043 -2743 0
-2044 -2744 0
-2137 -3585 0
-2138 -3586 0
-2139 -3587 0
-2140 -3588 0
-2197 -2765 0
-2198 -2766 0
-2199 -2767 0
-2200 -2768 0
-2345 -3101 0
-2346 -3102 0
-2347 -3103 0
-2348 -3104 0
-2605 -2685 0
-2606 -2686 0
-2607 -2687 0
-2608 -2688 0
-2705 -3713 0
-2706 -3714 0
-2707 -3715 0
-2708 -3716 0
-2725 -3781 0
-2726 -3782 0
-2727 -3783 0
-2728 -3784 0
-2737 -3317 0
-2738 -3318 0
-2739 -3319 0
-2740 -3320 0
-2905 -3113 0
-2906 -3114 0
-2907 -3115 0
-2908 -3116 0
-2913 -2961 0
-2914 -2962 0
-2915 -2963 0
-2916 -2964 0
-2957 -3297 0
-2958 -3298 0
-2959 -3299 0
-2960 -3300 0
-3073 -3701 0
-3074 -3702 0
-3075 -3703 0
-3076 -3704 0
-3549 -3977 0
-3550 -3978 0
-3551 -3979 0
-3552 -3980 0
-3849 -3921 0
-3850 -3922 0
-3851 -3923 0
-3852 -3924 0
-17 -4081 0
-18 -4082 0
-19 -4083 0
-20 -4084 0
-25 -149 0
-26 -150 0
-27 -151 0
-28 -152 0
-33 -3033 0
-34 -3034 0
-35 -3035 0
-36 -3036 0
-69 -177 0
-70 -178 0
-71 -179 0
-72 -180 0
-93 -3349 0
-94 -3350 0
-95 -3351 0
-96 -3352 0
-101 -981 0
-102 -982 0
-103 -983 0
-104 -984 0
-169 -453 0
-170 -454 0
-171 -455 0
-172 -456 0
-181 -433 0
-182 -434 0
-183 -435 0
-184 -436 0
-237 -601 0
-238 -602 0
-239 -603 0
-240 -604 0
-329 -445 0
-330 -446 0
-331 -447 0
-332 -448 0
-457 -657 0
-458 -658 0
-459 -659 0
-460 -660 0
-465 -2577 0
-466 -2578 0
-467 -2579 0
-468 -2580 0
-481 -4085 0
-482 -4086 0
-483 -4087 0
-484 -4088 0
-513 -1249 0
-514 -1250 0
-515 -1251 0
-516 -1252 0
-553 -665 0
-554 -666 0
-555 -667 0
-556 -668 0
-609 -2605 0
-610 -2606 0
-611 -2607 0
-612 -2608 0
-673 -3353 0
-674 -3354 0
-675 -3355 0
-676 -3356 0
-677 -2737 0
-678 -2738 0
-679 -2739 0
-680 -2740 0
-717 -3877 0
-718 -3878 0
-719 -3879 0
-720 -3880 0
-781 -2461 0
-782 -2462 0
-783 -2463 0
-784 -2464 0
-805 -3841 0
-806 -3842 0
-807 -3843 0
-808 -3844 0
-893 -2225 0
-894 -2226 0
-895 -2227 0
-896 -2228 0
-1065 -2053 0
-1066 -2054 0
-1067 -2055 0
-1068 -2056 0
-1149 -2693 0
-1150 -2694 0
-1151 -2695 0
-1152 -2696 0
-1289 -1605 0
-1290 -1606 0
-1291 -1607 0
-1292 -1608 0
-1293 -3641 0
-1294 -3642 0
-1295 -3643 0
-1296 -3644 0
-1381 -1481 0
-1382 -1482 0
-1383 -1483 0
-1384 -1484 0
-1397 -3125 0
-1398 -3126 0
-1399 -3127 0
-1400 -3128 0
-1401 -4069 0
-1402 -4070 0
-1403 -4071 0
-1404 -4072 0
-1493 -1549 0
-1494 -1550 0
-1495 -1551 0
-1496 -1552 0
-1525 -1701 0
-1526 -1702 0
-1527 -1703 0
-1528 -1704 0
-1533 -3729 0
-1534 -3730 0
-1535 -3731 0
-1536 -3732 0
-1545 -3305 0
-1546 -3306 0
-1547 -3307 0
-1548 -3308 0
-1609 -3677 0
-1610 -3678 0
-1611 -3679 0
-1612 -3680 0
-1853 -2557 0
-1854 -2558 0
-1855 -2559 0
-1856 -2560 0
-1881 -3793 0
-1882 -3794 0
-1883 -3795 0
-1884 -3796 0
-1949 -2169 0
-1950 -2170 0
-1951 -2171 0
-1952 -2172 0
-2085 -3337 0
-2086 -3338 0
-2087 -3339 0
-2088 -3340 0
-2117 -2205 0
-2118 -2206 0
-2119 -2207 0
-2120 -2208 0
-2177 -3045 0
-2178 -3046 0
-2179 -3047 0
-2180 -3048 0
-2201 -3301 0
-2202 -3302 0
-2203 -3303 0
-2204 -3304 0
-2385 -3673 0
-2386 -3674 0
-2387 -3675 0
-2388 -3676 0
-2553 -3281 0
-2554 -3282 0
-2555 -3283 0
-2556 -3284 0
-2581 -3645 0
-2582 -3646 0
-2583 -3647 0
-2584 -3648 0
-2873 -3785 0
-2874 -3786 0
-2875 -3787 0
-2876 -3788 0
-3057 -3589 0
-3058 -3590 0
-3059 -3591 0
-3060 -3592 0
-3097 -3521 0
-3098 -3522 0
-3099 -3523 0
-3100 -3524 0
-3105 -3237 0
-3106 -3238 0
-3107 -3239 0
-3108 -3240 0
-3333 -3689 0
-3334 -3690 0
-3335 -3691 0
-3336 -3692 0
-1 -845 0
-2 -846 0
-3 -847 0
-4 -848 0
-9 -1865 0
-10 -1866 0
-11 -1867 0
-12 -1868 0
-13 -613 0
-14 -614 0
-15 -615 0
-16 -616 0
-25 -1461 0
-26 -1462 0
-27 -1463 0
-28 -1464 0
-53 -429 0
-54 -430 0
-55 -431 0
-56 -432 0
-57 -1629 0
-58 -1630 0
-59 -1631 0
-60 -1632 0
-89 -945 0
-90 -946 0
-91 -947 0
-92 -948 0
-109 -245 0
-110 -246 0
-111 -247 0
-112 -248 0
-149 -309 0
-150 -310 0
-151 -311 0
-152 -312 0
-153 -357 0
-154 -358 0
-155 -359 0
-156 -360 0
-173 -3829 0
-174 -3830 0
-175 -3831 0
-176 -3832 0
-189 -241 0
-190 -242 0
-191 -243 0
-192 -244 0
-209 -265 0
-210 -266 0
-211 -267 0
-212 -268 0
-213 -1593 0
-214 -1594 0
-215 -1595 0
-216 -1596 0
-253 -1613 0
-254 -1614 0
-255 -1615 0
-256 -1616 0
-269 -2817 0
-270 -2818 0
-271 -2819 0
-272 -2820 0
-353 -2065 0
-354 -2066 0
-355 -2067 0
-356 -2068 0
-361 -1909 0
-362 -1910 0
-363 -1911 0
-364 -1912 0
-393 -521 0
-394 -522 0
-395 -523 0
-396 -524 0
-405 -1585 0
-406 -1586 0
-407 -1587 0
-408 -1588 0
-445 -689 0
-446 -690 0
-447 -691 0
-448 -692 0
-461 -1989 0
-462 -1990 0
-463 -1991 0
-464 -1992 0
-493 -669 0
-494 -670 0
-495 -671 0
-496 -672 0
-537 -2341 0
-538 -2342 0
-539 -2343 0
-540 -2344 0
-557 -885 0
-558 -886 0
-559 -887 0
-560 -888 0
-585 -717 0
-586 -718 0
-587 -719 0
-588 -720 0
-593 -753 0
-594 -754 0
-595 -755 0
-596 -756 0
-597 -813 0
-598 -814 0
-599 -815 0
-600 -816 0
-649 -949 0
-650 -950 0
-651 -951 0
-652 -952 0
-705 -2129 0
-706 -2130 0
-707 -2131 0
-708 -2132 0
-773 -1905 0
-774 -1906 0
-775 -1907 0
-776 -1908 0
-781 -2385 0
-782 -2386 0
-783 -2387 0
-784 -2388 0
-925 -1333 0
-926 -1334 0
-927 -1335 0
-928 -1336 0
-1049 -2189 0
-1050 -2190 0
-1051 -2191 0
-1052 -2192 0
-1097 -1177 0
-1098 -1178 0
-1099 -1179 0
-1100 -1180 0
-1149 -3373 0
-1150 -3374 0
-1151 -3375 0
-1152 -3376 0
-1169 -2697 0
-1170 -2698 0
-1171 -2699 0
-1172 -2700 0
-1181 -2049 0
-1182 -2050 0
-1183 -2051 0
-1184 -2052 0
-1285 -3429 0
-1286 -3430 0
-1287 -3431 0
-1288 -3432 0
-1421 -3369 0
-1422 -3370 0
-1423 -3371 0
-1424 -3372 0
-1565 -2417 0
-1566 -2418 0
-1567 -2419 0
-1568 -2420 0
-1573 -3525 0
-1574 -3526 0
-1575 -3527 0
-1576 -3528 0
-1757 -2545 0
-1758 -2546 0
-1759 -2547 0
-1760 -2548 0
-1777 -2173 0
-1778 -2174 0
-1779 -2175 0
-1780 -2176 0
-1837 -2889 0
-1838 -2890 0
-1839 -2891 0
-1840 -2892 0
-1853 -2321 0
-1854 -2322 0
-1855 -2323 0
-1856 -2324 0
-1877 -2457 0
-1878 -2458 0
-1879 -2459 0
-1880 -2460 0
-1885 -2621 0
-1886 -2622 0
-1887 -2623 0
-1888 -2624 0
-1925 -2405 0
-1926 -2406 0
-1927 -2407 0
-1928 -2408 0
-2069 -3709 0
-2070 -3710 0
-2071 -3711 0
-2072 -3712 0
-2153 -2837 0
-2154 -2838 0
-2155 -2839 0
-2156 -2840 0
-2373 -3509 0
-2374 -3510 0
-2375 -3511 0
-2376 -3512 0
-2421 -3073 0
-2422 -3074 0
-2423 -3075 0
-2424 -3076 0
-2461 -3673 0
-2462 -3674 0
-2463 -3675 0
-2464 -3676 0
-2497 -2813 0
-2498 -2814 0
-2499 -2815 0
-2500 -2816 0
-2541 -2785 0
-2542 -2786 0
-2543 -2787 0
-2544 -2788 0
-2941 -4029 0
-2942 -4030 0
-2943 -4031 0
-2944 -4032 0
-2993 -3501 0
-2994 -3502 0
-2995 -3503 0
-2996 -3504 0
-3093 -3389 0
-3094 -3390 0
-3095 -3391 0
-3096 -3392 0
-3569 -3857 0
-3570 -3858 0
-3571 -3859 0
-3572 -3860 0
-3769 -4065 0
-3770 -4066 0
-3771 -4067 0
-3772 -4068 0
-41 -2829 0
-42 -2830 0
-43 -2831 0
-44 -2832 0
-105 -3781 0
-106 -3782 0
-107 -3783 0
-108 -3784 0
-149 -3553 0
-150 -3554 0
-151 -3555 0
-152 -3556 0
-261 -3885 0
-262 -3886 0
-263 -3887 0
-264 -3888 0
-409 -4021 0
-410 -4022 0
-411 -4023 0
-412 -4024 0
-509 -3565 0
-510 -3566 0
-511 -3567 0
-512 -3568 0
-573 -817 0
-574 -818 0
-575 -819 0
-576 -820 0
-829 -1025 0
-830 -1026 0
-831 -1027 0
-832 -1028 0
-1285 -3241 0
-1286 -3242 0
-1287 -3243 0
-1288 -3244 0
-1421 -2881 0
-1422 -2882 0
-1423 -2883 0
-1424 -2884 0
-1677 -2865 0
-1678 -2866 0
-1679 -2867 0
-1680 -2868 0
-1737 -2201 0
-1738 -2202 0
-1739 -2203 0
-1740 -2204 0
-1741 -3593 0
-1742 -3594 0
-1743 -3595 0
-1744 -3596 0
-1757 -1925 0
-1758 -1926 0
-1759 -1927 0
-1760 -1928 0
-2105 -2809 0
-2106 -2810 0
-2107 -2811 0
-2108 -2812 0
-2181 -3261 0
-2182 -3262 0
-2183 -3263 0
-2184 -3264 0
-2257 -3525 0
-2258 -3526 0
-2259 -3527 0
-2260 -3528 0
-2617 -3093 0
-2618 -3094 0
-2619 -3095 0
-2620 -3096 0
-3049 -3397 0
-3050 -3398 0
-3051 -3399 0
-3052 -3400 0
-3245 -3521 0
-3246 -3522 0
-3247 -3523 0
-3248 -3524 0
-25 -781 0
-26 -782 0
-27 -783 0
-28 -784 0
-57 -649 0
-58 -650 0
-59 -651 0
-60 -652 0
-93 -3865 0
-94 -3866 0
-95 -3867 0
-96 -3868 0
-113 -1801 0
-114 -1802 0
-115 -1803 0
-116 -1804 0
-149 -2461 0
-150 -2462 0
-151 -2463 0
-152 -2464 0
-217 -1729 0
-218 -1730 0
-219 -1731 0
-220 -1732 0
-261 -1081 0
-262 -1082 0
-263 -1083 0
-264 -1084 0
-265 -2905 0
-266 -2906 0
-267 -2907 0
-268 -2908 0
-293 -3113 0
-294 -3114 0
-295 -3115 0
-296 -3116 0
-309 -3673 0
-310 -3674 0
-311 -3675 0
-312 -3676 0
-321 -3037 0
-322 -3038 0
-323 -3039 0
-324 -3040 0
-409 -2377 0
-410 -2378 0
-411 -2379 0
-412 -2380 0
-437 -1965 0
-438 -1966 0
-439 -1967 0
-440 -1968 0
-545 -2961 0
-546 -2962 0
-547 -2963 0
-548 -2964 0
-573 -3245 0
-574 -3246 0
-575 -3247 0
-576 -3248 0
-577 -3773 0
-578 -3774 0
-579 -3775 0
-580 -3776 0
-613 -1865 0
-614 -1866 0
-615 -1867 0
-616 -1868 0
-681 -1417 0
-682 -1418 0
-683 -1419 0
-684 -1420 0
-817 -3521 0
-818 -3522 0
-819 -3523 0
-820 -3524 0
-925 -1181 0
-926 -1182 0
-927 -1183 0
-928 -1184 0
-941 -1497 0
-942 -1498 0
-943 -1499 0
-944 -1500 0
-957 -2249 0
-958 -2250 0
-959 -2251 0
-960 -2252 0
-1017 -1617 0
-1018 -1618 0
-1019 -1619 0
-1020 -1620 0
-1041 -2789 0
-1042 -2790 0
-1043 -2791 0
-1044 -2792 0
-1061 -2525 0
-1062 -2526 0
-1063 -2527 0
-1064 -2528 0
-1065 -1257 0
-1066 -1258 0
-1067 -1259 0
-1068 -1260 0
-1133 -1241 0
-1134 -1242 0
-1135 -1243 0
-1136 -1244 0
-1137 -1313 0
-1138 -1314 0
-1139 -1315 0
-1140 -1316 0
-1193 -3657 0
-1194 -3658 0
-1195 -3659 0
-1196 -3660 0
-1253 -1501 0
-1254 -1502 0
-1255 -1503 0
-1256 -1504 0
-1333 -2049 0
-1334 -2050 0
-1335 -2051 0
-1336 -2052 0
-1361 -2977 0
-1362 -2978 0
-1363 -2979 0
-1364 -2980 0
-1425 -3285 0
-1426 -3286 0
-1427 -3287 0
-1428 -3288 0
-1461 -2385 0
-1462 -2386 0
-1463 -2387 0
-1464 -2388 0
-1493 -1881 0
-1494 -1882 0
-1495 -1883 0
-1496 -1884 0
-1549 -3793 0
-1550 -3794 0
-1551 -3795 0
-1552 -3796 0
-1577 -1769 0
-1578 -1770 0
-1579 -1771 0
-1580 -1772 0
-1609 -1961 0
-1610 -1962 0
-1611 -1963 0
-1612 -1964 0
-1749 -2133 0
-1750 -2134 0
-1751 -2135 0
-1752 -2136 0
-1945 -2237 0
-1946 -2238 0
-1947 -2239 0
-1948 -2240 0
-2025 -2913 0
-2026 -2914 0
-2027 -2915 0
-2028 -2916 0
-2041 -2717 0
-2042 -2718 0
-2043 -2719 0
-2044 -2720 0
-2089 -3053 0
-2090 -3054 0
-2091 -3055 0
-2092 -3056 0
-2177 -2549 0
-2178 -2550 0
-2179 -2551 0
-2180 -2552 0
-2353 -2849 0
-2354 -2850 0
-2355 -2851 0
-2356 -2852 0
-2445 -3573 0
-2446 -3574 0
-2447 -3575 0
-2448 -3576 0
-2553 -2677 0
-2554 -2678 0
-2555 -2679 0
-2556 -2680 0
-2569 -2981 0
-2570 -2982 0
-2571 -2983 0
-2572 -2984 0
-2793 -3229 0
-2794 -3230 0
-2795 -3231 0
-2796 -3232 0
-2921 -3805 0
-2922 -3806 0
-2923 -3807 0
-2924 -3808 0
-2929 -3097 0
-2930 -3098 0
-2931 -3099 0
-2932 -3100 0
-3065 -3213 0
-3066 -3214 0
-3067 -3215 0
-3068 -3216 0
-3209 -3417 0
-3210 -3418 0
-3211 -3419 0
-3212 -3420 0
-1 -1733 0
-2 -1734 0
-3 -1735 0
-4 -1736 0
-9 -1241 0
-10 -1242 0
-11 -1243 0
-12 -1244 0
-13 -1133 0
-14 -1134 0
-15 -1135 0
-16 -1136 0
-25 -1349 0
-26 -1350 0
-27 -1351 0
-28 -1352 0
-29 -1221 0
-30 -1222 0
-31 -1223 0
-32 -1224 0
-33 -1401 0
-34 -1402 0
-35 -1403 0
-36 -1404 0
-37 -1517 0
-38 -1518 0
-39 -1519 0
-40 -1520 0
-41 -101 0
-42 -102 0
-43 -103 0
-44 -104 0
-89 -785 0
-90 -786 0
-91 -787 0
-92 -788 0
-93 -1025 0
-94 -1026 0
-95 -1027 0
-96 -1028 0
-97 -1373 0
-98 -1374 0
-99 -1375 0
-100 -1376 0
-125 -3701 0
-126 -3702 0
-127 -3703 0
-128 -3704 0
-129 -669 0
-130 -670 0
-131 -671 0
-132 -672 0
-133 -685 0
-134 -686 0
-135 -687 0
-136 -688 0
-137 -829 0
-138 -830 0
-139 -831 0
-140 -832 0
-153 -1341 0
-154 -1342 0
-155 -1343 0
-156 -1344 0
-173 -341 0
-174 -342 0
-175 -343 0
-176 -344 0
-205 -385 0
-206 -386 0
-207 -387 0
-208 -388 0
-253 -269 0
-254 -270 0
-255 -271 0
-256 -272 0
-265 -309 0
-266 -310 0
-267 -311 0
-268 -312 0
-325 -733 0
-326 -734 0
-327 -735 0
-328 -736 0
-333 -409 0
-334 -410 0
-335 -411 0
-336 -412 0
-381 -2649 0
-382 -2650 0
-383 -2651 0
-384 -2652 0
-413 -1793 0
-414 -1794 0
-415 -1795 0
-416 -1796 0
-509 -2521 0
-510 -2522 0
-511 -2523 0
-512 -2524 0
-517 -2141 0
-518 -2142 0
-519 -2143 0
-520 -2144 0
-593 -1309 0
-594 -1310 0
-595 -1311 0
-596 -1312 0
-621 -3145 0
-622 -3146 0
-623 -3147 0
-624 -3148 0
-625 -1345 0
-626 -1346 0
-627 -1347 0
-628 -1348 0
-653 -693 0
-654 -694 0
-655 -695 0
-656 -696 0
-809 -1057 0
-810 -1058 0
-811 -1059 0
-812 -1060 0
-929 -2613 0
-930 -2614 0
-931 -2615 0
-932 -2616 0
-1001 -1237 0
-1002 -1238 0
-1003 -1239 0
-1004 -1240 0
-1017 -1333 0
-1018 -1334 0
-1019 -1335 0
-1020 -1336 0
-1213 -3705 0
-1214 -3706 0
-1215 -3707 0
-1216 -3708 0
-1285 -2113 0
-1286 -2114 0
-1287 -2115 0
-1288 -2116 0
-1437 -1681 0
-1438 -1682 0
-1439 -1683 0
-1440 -1684 0
-1449 -3493 0
-1450 -3494 0
-1451 -3495 0
-1452 -3496 0
-1613 -2817 0
-1614 -2818 0
-1615 -2819 0
-1616 -2820 0
-1617 -2049 0
-1618 -2050 0
-1619 -2051 0
-1620 -2052 0
-1717 -2789 0
-1718 -2790 0
-1719 -2791 0
-1720 -2792 0
-1737 -2329 0
-1738 -2330 0
-1739 -2331 0
-1740 -2332 0
-1761 -3257 0
-1762 -3258 0
-1763 -3259 0
-1764 -3260 0
-1925 -3901 0
-1926 -3902 0
-1927 -3903 0
-1928 -3904 0
-2245 -3317 0
-2246 -3318 0
-2247 -3319 0
-2248 -3320 0
-2473 -3069 0
-2474 -3070 0
-2475 -3071 0
-2476 -3072 0
-2553 -2877 0
-2554 -2878 0
-2555 -2879 0
-2556 -2880 0
-2581 -3329 0
-2582 -3330 0
-2583 -3331 0
-2584 -3332 0
-2825 -3141 0
-2826 -3142 0
-2827 -3143 0
-2828 -3144 0
-2861 -3101 0
-2862 -3102 0
-2863 -3103 0
-2864 -3104 0
-2905 -3673 0
-2906 -3674 0
-2907 -3675 0
-2908 -3676 0
-3033 -4069 0
-3034 -4070 0
-3035 -4071 0
-3036 -4072 0
-3601 -3973 0
-3602 -3974 0
-3603 -3975 0
-3604 -3976 0
-3641 -3841 0
-3642 -3842 0
-3643 -3843 0
-3644 -3844 0
-5 -933 0
-6 -934 0
-7 -935 0
-8 -936 0
-25 -1065 0
-26 -1066 0
-27 -1067 0
-28 -1068 0
-81 -1861 0
-82 -1862 0
-83 -1863 0
-84 -1864 0
-85 -365 0
-86 -366 0
-87 -367 0
-88 -368 0
-97 -413 0
-98 -414 0
-99 -415 0
-100 -416 0
-109 -2729 0
-110 -2730 0
-111 -2731 0
-112 -2732 0
-113 -305 0
-114 -306 0
-115 -307 0
-116 -308 0
-145 -225 0
-146 -226 0
-147 -227 0
-148 -228 0
-149 -2053 0
-150 -2054 0
-151 -2055 0
-152 -2056 0
-157 -2045 0
-158 -2046 0
-159 -2047 0
-160 -2048 0
-161 -3293 0
-162 -3294 0
-163 -3295 0
-164 -3296 0
-201 -2165 0
-202 -2166 0
-203 -2167 0
-204 -2168 0
-273 -3933 0
-274 -3934 0
-275 -3935 0
-276 -3936 0
-349 -589 0
-350 -590 0
-351 -591 0
-352 -592 0
-373 -801 0
-374 -802 0
-375 -803 0
-376 -804 0
-433 -453 0
-434 -454 0
-435 -455 0
-436 -456 0
-469 -1685 0
-470 -1686 0
-471 -1687 0
-472 -1688 0
-501 -1045 0
-502 -1046 0
-503 -1047 0
-504 -1048 0
-561 -2509 0
-562 -2510 0
-563 -2511 0
-564 -2512 0
-597 -3569 0
-598 -3570 0
-599 -3571 0
-600 -3572 0
-605 -3157 0
-606 -3158 0
-607 -3159 0
-608 -3160 0
-681 -3929 0
-682 -3930 0
-683 -3931 0
-684 -3932 0
-717 -2349 0
-718 -2350 0
-719 -2351 0
-720 -2352 0
-741 -965 0
-742 -966 0
-743 -967 0
-744 -968 0
-781 -1257 0
-782 -1258 0
-783 -1259 0
-784 -1260 0
-813 -3857 0
-814 -3858 0
-815 -3859 0
-816 -3860 0
-829 -2513 0
-830 -2514 0
-831 -2515 0
-832 -2516 0
-849 -1021 0
-850 -1022 0
-851 -1023 0
-852 -1024 0
-857 -1473 0
-858 -1474 0
-859 -1475 0
-860 -1476 0
-881 -3837 0
-882 -3838 0
-883 -3839 0
-884 -3840 0
-885 -1909 0
-886 -1910 0
-887 -1911 0
-888 -1912 0
-997 -2429 0
-998 -2430 0
-999 -2431 0
-1000 -2432 0
-1037 -1361 0
-1038 -1362 0
-1039 -1363 0
-1040 -1364 0
-1085 -1269 0
-1086 -1270 0
-1087 -1271 0
-1088 -1272 0
-1097 -1205 0
-1098 -1206 0
-1099 -1207 0
-1100 -1208 0
-1105 -2149 0
-1106 -2150 0
-1107 -2151 0
-1108 -2152 0
-1129 -3385 0
-1130 -3386 0
-1131 -3387 0
-1132 -3388 0
-1153 -3201 0
-1154 -3202 0
-1155 -3203 0
-1156 -3204 0
-1161 -1597 0
-1162 -1598 0
-1163 -1599 0
-1164 -1600 0
-1173 -3509 0
-1174 -3510 0
-1175 -3511 0
-1176 -3512 0
-1373 -1793 0
-1374 -1794 0
-1375 -1795 0
-1376 -1796 0
-1413 -1589 0
-1414 -1590 0
-1415 -1591 0
-1416 -1592 0
-1417 -2645 0
-1418 -2646 0
-1419 -2647 0
-1420 -2648 0
-1421 -2825 0
-1422 -2826 0
-1423 -2827 0
-1424 -2828 0
-1493 -2785 0
-1494 -2786 0
-1495 -2787 0
-1496 -2788 0
-1513 -3541 0
-1514 -3542 0
-1515 -3543 0
-1516 -3544 0
-1573 -2305 0
-1574 -2306 0
-1575 -2307 0
-1576 -2308 0
-1813 -2057 0
-1814 -2058 0
-1815 -2059 0
-1816 -2060 0
-1877 -3993 0
-1878 -3994 0
-1879 -3995 0
-1880 -3996 0
-1893 -2009 0
-1894 -2010 0
-1895 -2011 0
-1896 -2012 0
-1925 -3241 0
-1926 -3242 0
-1927 -3243 0
-1928 -3244 0
-2069 -3761 0
-2070 -3762 0
-2071 -3763 0
-2072 -3764 0
-2121 -3133 0
-2122 -3134 0
-2123 -3135 0
-2124 -3136 0
-2181 -2373 0
-2182 -2374 0
-2183 -2375 0
-2184 -2376 0
-2229 -2449 0
-2230 -2450 0
-2231 -2451 0
-2232 -2452 0
-2545 -3429 0
-2546 -3430 0
-2547 -3431 0
-2548 -3432 0
-2965 -3253 0
-2966 -3254 0
-2967 -3255 0
-2968 -3256 0
-3061 -3905 0
-3062 -3906 0
-3063 -3907 0
-3064 -3908 0
-3101 -3493 0
-3102 -3494 0
-3103 -3495 0
-3104 -3496 0
-13 -1529 0
-14 -1530 0
-15 -1531 0
-16 -1532 0
-25 -1413 0
-26 -1414 0
-27 -1415 0
-28 -1416 0
-37 -1613 0
-38 -1614 0
-39 -1615 0
-40 -1616 0
-97 -373 0
-98 -374 0
-99 -375 0
-100 -376 0
-105 -821 0
-106 -822 0
-107 -823 0
-108 -824 0
-149 -729 0
-150 -730 0
-151 -731 0
-152 -732 0
-237 -753 0
-238 -754 0
-239 -755 0
-240 -756 0
-261 -1277 0
-262 -1278 0
-263 -1279 0
-264 -1280 0
-353 -1389 0
-354 -1390 0
-355 -1391 0
-356 -1392 0
-413 -801 0
-414 -802 0
-415 -803 0
-416 -804 0
-445 -1233 0
-446 -1234 0
-447 -1235 0
-448 -1236 0
-485 -3997 0
-486 -3998 0
-487 -3999 0
-488 -4000 0
-517 -2449 0
-518 -2450 0
-519 -2451 0
-520 -2452 0
-557 -2525 0
-558 -2526 0
-559 -2527 0
-560 -2528 0
-941 -3021 0
-942 -3022 0
-943 -3023 0
-944 -3024 0
-989 -2109 0
-990 -2110 0
-991 -2111 0
-992 -2112 0
-1065 -1589 0
-1066 -1590 0
-1067 -1591 0
-1068 -1592 0
-1153 -1937 0
-1154 -1938 0
-1155 -1939 0
-1156 -1940 0
-1157 -3373 0
-1158 -3374 0
-1159 -3375 0
-1160 -3376 0
-1165 -2593 0
-1166 -2594 0
-1167 -2595 0
-1168 -2596 0
-1213 -1621 0
-1214 -1622 0
-1215 -1623 0
-1216 -1624 0
-1377 -3889 0
-1378 -3890 0
-1379 -3891 0
-1380 -3892 0
-1441 -2501 0
-1442 -2502 0
-1443 -2503 0
-1444 -2504 0
-1481 -2229 0
-1482 -2230 0
-1483 -2231 0
-1484 -2232 0
-1517 -2817 0
-1518 -2818 0
-1519 -2819 0
-1520 -2820 0
-1665 -1845 0
-1666 -1846 0
-1667 -1847 0
-1668 -1848 0
-1777 -3353 0
-1778 -3354 0
-1779 -3355 0
-1780 -3356 0
-1853 -2185 0
-1854 -2186 0
-1855 -2187 0
-1856 -2188 0
-1885 -3277 0
-1886 -3278 0
-1887 -3279 0
-1888 -3280 0
-1913 -3741 0
-1914 -3742 0
-1915 -3743 0
-1916 -3744 0
-2177 -3433 0
-2178 -3434 0
-2179 -3435 0
-2180 -3436 0
-2237 -2905 0
-2238 -2906 0
-2239 -2907 0
-2240 -2908 0
-2553 -2757 0
-2554 -2758 0
-2555 -2759 0
-2556 -2760 0
-2601 -3773 0
-2602 -3774 0
-2603 -3775 0
-2604 -3776 0
-2781 -3821 0
-2782 -3822 0
-2783 -3823 0
-2784 -3824 0
-3029 -3549 0
-3030 -3550 0
-3031 -3551 0
-3032 -3552 0
-3041 -3441 0
-3042 -3442 0
-3043 -3443 0
-3044 -3444 0
-3313 -3793 0
-3314 -3794 0
-3315 -3795 0
-3316 -3796 0
-3557 -3865 0
-3558 -3866 0
-3559 -3867 0
-3560 -3868 0
-1 -89 0
-2 -90 0
-3 -91 0
-4 -92 0
-5 -853 0
-6 -854 0
-7 -855 0
-8 -856 0
-13 -1377 0
-14 -1378 0
-15 -1379 0
-16 -1380 0
-17 -197 0
-18 -198 0
-19 -199 0
-20 -200 0
-21 -117 0
-22 -118 0
-23 -119 0
-24 -120 0
-25 -1153 0
-26 -1154 0
-27 -1155 0
-28 -1156 0
-33 -3921 0
-34 -3922 0
-35 -3923 0
-36 -3924 0
-41 -2901 0
-42 -2902 0
-43 -2903 0
-44 -2904 0
-45 -337 0
-46 -338 0
-47 -339 0
-48 -340 0
-49 -2213 0
-50 -2214 0
-51 -2215 0
-52 -2216 0
-77 -389 0
-78 -390 0
-79 -391 0
-80 -392 0
-105 -2557 0
-106 -2558 0
-107 -2559 0
-108 -2560 0
-165 -505 0
-166 -506 0
-167 -507 0
-168 -508 0
-169 -321 0
-170 -322 0
-171 -323 0
-172 -324 0
-173 -3641 0
-174 -3642 0
-175 -3643 0
-176 -3644 0
-181 -565 0
-182 -566 0
-183 -567 0
-184 -568 0
-205 -3849 0
-206 -3850 0
-207 -3851 0
-208 -3852 0
-329 -725 0
-330 -726 0
-331 -727 0
-332 -728 0
-341 -3841 0
-342 -3842 0
-343 -3843 0
-344 -3844 0
-349 -2621 0
-350 -2622 0
-351 -2623 0
-352 -2624 0
-361 -1661 0
-362 -1662 0
-363 -1663 0
-364 -1664 0
-469 -581 0
-470 -582 0
-471 -583 0
-472 -584 0
-557 -3313 0
-558 -3314 0
-559 -3315 0
-560 -3316 0
-617 -805 0
-618 -806 0
-619 -807 0
-620 -808 0
-621 -1485 0
-622 -1486 0
-623 -1487 0
-624 -1488 0
-673 -1453 0
-674 -1454 0
-675 -1455 0
-676 -1456 0
-741 -1085 0
-742 -1086 0
-743 -1087 0
-744 -1088 0
-821 -1965 0
-822 -1966 0
-823 -1967 0
-824 -1968 0
-845 -945 0
-846 -946 0
-847 -947 0
-848 -948 0
-965 -1269 0
-966 -1270 0
-967 -1271 0
-968 -1272 0
-969 -2225 0
-970 -2226 0
-971 -2227 0
-972 -2228 0
-1009 -2477 0
-1010 -2478 0
-1011 -2479 0
-1012 -2480 0
-1049 -1853 0
-1050 -1854 0
-1051 -1855 0
-1052 -1856 0
-1061 -1549 0
-1062 -1550 0
-1063 -1551 0
-1064 -1552 0
-1065 -3201 0
-1066 -3202 0
-1067 -3203 0
-1068 -3204 0
-1149 -1245 0
-1150 -1246 0
-1151 -1247 0
-1152 -1248 0
-1189 -2833 0
-1190 -2834 0
-1191 -2835 0
-1192 -2836 0
-1253 -3837 0
-1254 -3838 0
-1255 -3839 0
-1256 -3840 0
-1381 -1885 0
-1382 -1886 0
-1383 -1887 0
-1384 -1888 0
-1389 -2981 0
-1390 -2982 0
-1391 -2983 0
-1392 -2984 0
-1413 -1937 0
-1414 -1938 0
-1415 -1939 0
-1416 -1940 0
-1433 -1821 0
-1434 -1822 0
-1435 -1823 0
-1436 -1824 0
-1477 -3949 0
-1478 -3950 0
-1479 -3951 0
-1480 -3952 0
-1501 -3669 0
-1502 -3670 0
-1503 -3671 0
-1504 -3672 0
-1529 -3889 0
-1530 -3890 0
-1531 -3891 0
-1532 -3892 0
-1545 -2253 0
-1546 -2254 0
-1547 -2255 0
-1548 -2256 0
-1621 -2273 0
-1622 -2274 0
-1623 -2275 0
-1624 -2276 0
-1633 -2209 0
-1634 -2210 0
-1635 -2211 0
-1636 -2212 0
-1689 -2013 0
-1690 -2014 0
-1691 -2015 0
-1692 -2016 0
-1709 -1761 0
-1710 -1762 0
-1711 -1763 0
-1712 -1764 0
-1737 -3529 0
-1738 -3530 0
-1739 -3531 0
-1740 -3532 0
-1781 -2657 0
-1782 -2658 0
-1783 -2659 0
-1784 -2660 0
-1929 -3785 0
-1930 -3786 0
-1931 -3787 0
-1932 -3788 0
-1961 -3221 0
-1962 -3222 0
-1963 -3223 0
-1964 -3224 0
-2033 -3173 0
-2034 -3174 0
-2035 -3175 0
-2036 -3176 0
-2085 -3381 0
-2086 -3382 0
-2087 -3383 0
-2088 -3384 0
-2145 -2569 0
-2146 -2570 0
-2147 -2571 0
-2148 -2572 0
-2153 -3041 0
-2154 -3042 0
-2155 -3043 0
-2156 -3044 0
-2189 -2321 0
-2190 -2322 0
-2191 -2323 0
-2192 -2324 0
-2257 -3501 0
-2258 -3502 0
-2259 -3503 0
-2260 -3504 0
-2525 -3793 0
-2526 -3794 0
-2527 -3795 0
-2528 -3796 0
-2669 -3493 0
-2670 -3494 0
-2671 -3495 0
-2672 -3496 0
-2809 -3165 0
-2810 -3166 0
-2811 -3167 0
-2812 -3168 0
-3021 -3349 0
-3022 -3350 0
-3023 -3351 0
-3024 -3352 0
-3649 -3845 0
-3650 -3846 0
-3651 -3847 0
-3652 -3848 0
-85 -125 0
-86 -126 0
-87 -127 0
-88 -128 0
-101 -1473 0
-102 -1474 0
-103 -1475 0
-104 -1476 0
-105 -2429 0
-106 -2430 0
-107 -2431 0
-108 -2432 0
-133 -1921 0
-134 -1922 0
-135 -1923 0
-136 -1924 0
-205 -2549 0
-206 -2550 0
-207 -2551 0
-208 -2552 0
-233 -645 0
-234 -646 0
-235 -647 0
-236 -648 0
-249 -369 0
-250 -370 0
-251 -371 0
-252 -372 0
-313 -2453 0
-314 -2454 0
-315 -2455 0
-316 -2456 0
-385 -857 0
-386 -858 0
-387 -859 0
-388 -860 0
-397 -1257 0
-398 -1258 0
-399 -1259 0
-400 -1260 0
-401 -1605 0
-402 -1606 0
-403 -1607 0
-404 -1608 0
-469 -1733 0
-470 -1734 0
-471 -1735 0
-472 -1736 0
-509 -2061 0
-510 -2062 0
-511 -2063 0
-512 -2064 0
-569 -1713 0
-570 -1714 0
-571 -1715 0
-572 -1716 0
-573 -601 0
-574 -602 0
-575 -603 0
-576 -604 0
-581 -785 0
-582 -786 0
-583 -787 0
-584 -788 0
-653 -1505 0
-654 -1506 0
-655 -1507 0
-656 -1508 0
-693 -761 0
-694 -762 0
-695 -763 0
-696 -764 0
-705 -2005 0
-706 -2006 0
-707 -2007 0
-708 -2008 0
-777 -2685 0
-778 -2686 0
-779 -2687 0
-780 -2688 0
-825 -3241 0
-826 -3242 0
-827 -3243 0
-828 -3244 0
-841 -3317 0
-842 -3318 0
-843 -3319 0
-844 -3320 0
-881 -2629 0
-882 -2630 0
-883 -2631 0
-884 -2632 0
-1001 -2437 0
-1002 -2438 0
-1003 -2439 0
-1004 -2440 0
-1005 -2765 0
-1006 -2766 0
-1007 -2767 0
-1008 -2768 0
-1477 -1933 0
-1478 -1934 0
-1479 -1935 0
-1480 -1936 0
-1481 -1497 0
-1482 -1498 0
-1483 -1499 0
-1484 -1500 0
-1549 -2225 0
-1550 -2226 0
-1551 -2227 0
-1552 -2228 0
-1665 -3001 0
-1666 -3002 0
-1667 -3003 0
-1668 -3004 0
-1737 -1961 0
-1738 -1962 0
-1739 -1963 0
-1740 -1964 0
-1849 -2029 0
-1850 -2030 0
-1851 -2031 0
-1852 -2032 0
-1869 -2245 0
-1870 -2246 0
-1871 -2247 0
-1872 -2248 0
-1885 -3557 0
-1886 -3558 0
-1887 -3559 0
-1888 -3560 0
-1949 -2313 0
-1950 -2314 0
-1951 -2315 0
-1952 -2316 0
-2025 -2393 0
-2026 -2394 0
-2027 -2395 0
-2028 -2396 0
-2057 -3933 0
-2058 -3934 0
-2059 -3935 0
-2060 -3936 0
-2105 -3161 0
-2106 -3162 0
-2107 -3163 0
-2108 -3164 0
-2353 -3261 0
-2354 -3262 0
-2355 -3263 0
-2356 -3264 0
-2365 -3025 0
-2366 -3026 0
-2367 -3027 0
-2368 -3028 0
-2389 -2601 0
-2390 -2602 0
-2391 -2603 0
-2392 -2604 0
-2553 -2773 0
-2554 -2774 0
-2555 -2775 0
-2556 -2776 0
-2621 -3273 0
-2622 -3274 0
-2623 -3275 0
-2624 -3276 0
-2657 -3037 0
-2658 -3038 0
-2659 -3039 0
-2660 -3040 0
-2821 -3613 0
-2822 -3614 0
-2823 -3615 0
-2824 -3616 0
-2993 -3657 0
-2994 -3658 0
-2995 -3659 0
-2996 -3660 0
-3057 -3093 0
-3058 -3094 0
-3059 -3095 0
-3060 -3096 0
-3233 -3569 0
-3234 -3570 0
-3235 -3571 0
-3236 -3572 0
-3277 -3865 0
-3278 -3866 0
-3279 -3867 0
-3280 -3868 0
-13 -1317 0
-14 -1318 0
-15 -1319 0
-16 -1320 0
-25 -329 0
-26 -330 0
-27 -331 0
-28 -332 0
-37 -757 0
-38 -758 0
-39 -759 0
-40 -760 0
-53 -1753 0
-54 -1754 0
-55 -1755 0
-56 -1756 0
-57 -3357 0
-58 -3358 0
-59 -3359 0
-60 -3360 0
-97 -605 0
-98 -606 0
-99 -607 0
-100 -608 0
-117 -2157 0
-118 -2158 0
-119 -2159 0
-120 -2160 0
-145 -2789 0
-146 -2790 0
-147 -2791 0
-148 -2792 0
-149 -445 0
-150 -446 0
-151 -447 0
-152 -448 0
-201 -1557 0
-202 -1558 0
-203 -1559 0
-204 -1560 0
-209 -953 0
-210 -954 0
-211 -955 0
-212 -956 0
-213 -533 0
-214 -534 0
-215 -535 0
-216 -536 0
-233 -313 0
-234 -314 0
-235 -315 0
-236 -316 0
-237 -465 0
-238 -466 0
-239 -467 0
-240 -468 0
-265 -793 0
-266 -794 0
-267 -795 0
-268 -796 0
-281 -1265 0
-282 -1266 0
-283 -1267 0
-284 -1268 0
-293 -497 0
-294 -498 0
-295 -499 0
-296 -500 0
-309 -689 0
-310 -690 0
-311 -691 0
-312 -692 0
-333 -525 0
-334 -526 0
-335 -527 0
-336 -528 0
-409 -477 0
-410 -478 0
-411 -479 0
-412 -480 0
-413 -3157 0
-414 -3158 0
-415 -3159 0
-416 -3160 0
-425 -1101 0
-426 -1102 0
-427 -1103 0
-428 -1104 0
-501 -1717 0
-502 -1718 0
-503 -1719 0
-504 -1720 0
-593 -1501 0
-594 -1502 0
-595 -1503 0
-596 -1504 0
-601 -2577 0
-602 -2578 0
-603 -2579 0
-604 -2580 0
-609 -677 0
-610 -678 0
-611 -679 0
-612 -680 0
-625 -809 0
-626 -810 0
-627 -811 0
-628 -812 0
-633 -1041 0
-634 -1042 0
-635 -1043 0
-636 -1044 0
-641 -833 0
-642 -834 0
-643 -835 0
-644 -836 0
-645 -2453 0
-646 -2454 0
-647 -2455 0
-648 -2456 0
-681 -3089 0
-682 -3090 0
-683 -3091 0
-684 -3092 0
-729 -1233 0
-730 -1234 0
-731 -1235 0
-732 -1236 0
-777 -841 0
-778 -842 0
-779 -843 0
-780 -844 0
-849 -2881 0
-850 -2882 0
-851 -2883 0
-852 -2884 0
-869 -2009 0
-870 -2010 0
-871 -2011 0
-872 -2012 0
-1141 -1893 0
-1142 -1894 0
-1143 -1895 0
-1144 -1896 0
-1305 -1321 0
-1306 -1322 0
-1307 -1323 0
-1308 -1324 0
-1417 -2917 0
-1418 -2918 0
-1419 -2919 0
-1420 -2920 0
-1425 -1581 0
-1426 -1582 0
-1427 -1583 0
-1428 -1584 0
-1521 -1745 0
-1522 -1746 0
-1523 -1747 0
-1524 -1748 0
-1625 -2277 0
-1626 -2278 0
-1627 -2279 0
-1628 -2280 0
-1649 -2169 0
-1650 -2170 0
-1651 -2171 0
-1652 -2172 0
-1689 -2701 0
-1690 -2702 0
-1691 -2703 0
-1692 -2704 0
-1737 -1781 0
-1738 -1782 0
-1739 -1783 0
-1740 -1784 0
-1765 -1869 0
-1766 -1870 0
-1767 -1871 0
-1768 -1872 0
-1809 -1861 0
-1810 -1862 0
-1811 -1863 0
-1812 -1864 0
-1945 -3065 0
-1946 -3066 0
-1947 -3067 0
-1948 -3068 0
-1981 -3725 0
-1982 -3726 0
-1983 -3727 0
-1984 -3728 0
-2041 -2073 0
-2042 -2074 0
-2043 -2075 0
-2044 -2076 0
-2153 -2769 0
-2154 -2770 0
-2155 -2771 0
-2156 -2772 0
-2237 -3213 0
-2238 -3214 0
-2239 -3215 0
-2240 -3216 0
-2257 -4029 0
-2258 -4030 0
-2259 -4031 0
-2260 -4032 0
-2285 -3457 0
-2286 -3458 0
-2287 -3459 0
-2288 -3460 0
-2341 -2817 0
-2342 -2818 0
-2343 -2819 0
-2344 -2820 0
-2353 -2969 0
-2354 -2970 0
-2355 -2971 0
-2356 -2972 0
-2605 -2737 0
-2606 -2738 0
-2607 -2739 0
-2608 -2740 0
-2653 -2725 0
-2654 -2726 0
-2655 -2727 0
-2656 -2728 0
-2685 -3317 0
-2686 -3318 0
-2687 -3319 0
-2688 -3320 0
-3289 -3425 0
-3290 -3426 0
-3291 -3427 0
-3292 -3428 0
-3385 -3857 0
-3386 -3858 0
-3387 -3859 0
-3388 -3860 0
-3397 -3593 0
-3398 -3594 0
-3399 -3595 0
-3400 -3596 0
-1 -29 0
-2 -30 0
-3 -31 0
-4 -32 0
-25 -1425 0
-26 -1426 0
-27 -1427 0
-28 -1428 0
-105 -713 0
-106 -714 0
-107 -715 0
-108 -716 0
-149 -409 0
-150 -410 0
-151 -411 0
-152 -412 0
-153 -321 0
-154 -322 0
-155 -323 0
-156 -324 0
-209 -333 0
-210 -334 0
-211 -335 0
-212 -336 0
-261 -545 0
-262 -546 0
-263 -547 0
-264 -548 0
-301 -3541 0
-302 -3542 0
-303 -3543 0
-304 -3544 0
-329 -1581 0
-330 -1582 0
-331 -1583 0
-332 -1584 0
-353 -1697 0
-354 -1698 0
-355 -1699 0
-356 -1700 0
-381 -1485 0
-382 -1486 0
-383 -1487 0
-384 -1488 0
-445 -477 0
-446 -478 0
-447 -479 0
-448 -480 0
-493 -1273 0
-494 -1274 0
-495 -1275 0
-496 -1276 0
-513 -589 0
-514 -590 0
-515 -591 0
-516 -592 0
-557 -737 0
-558 -738 0
-559 -739 0
-560 -740 0
-585 -1033 0
-586 -1034 0
-587 -1035 0
-588 -1036 0
-597 -765 0
-598 -766 0
-599 -767 0
-600 -768 0
-697 -1793 0
-698 -1794 0
-699 -1795 0
-700 -1796 0
-773 -861 0
-774 -862 0
-775 -863 0
-776 -864 0
-781 -3285 0
-782 -3286 0
-783 -3287 0
-784 -3288 0
-877 -3121 0
-878 -3122 0
-879 -3123 0
-880 -3124 0
-937 -1365 0
-938 -1366 0
-939 -1367 0
-940 -1368 0
-989 -1377 0
-990 -1378 0
-991 -1379 0
-992 -1380 0
-997 -2765 0
-998 -2766 0
-999 -2767 0
-1000 -2768 0
-1081 -2961 0
-1082 -2962 0
-1083 -2963 0
-1084 -2964 0
-1149 -3813 0
-1150 -3814 0
-1151 -3815 0
-1152 -3816 0
-1169 -2493 0
-1170 -2494 0
-1171 -2495 0
-1172 -2496 0
-1313 -1865 0
-1314 -1866 0
-1315 -1867 0
-1316 -1868 0
-1393 -2129 0
-1394 -2130 0
-1395 -2131 0
-1396 -2132 0
-1421 -2657 0
-1422 -2658 0
-1423 -2659 0
-1424 -2660 0
-1481 -3013 0
-1482 -3014 0
-1483 -3015 0
-1484 -3016 0
-1573 -2201 0
-1574 -2202 0
-1575 -2203 0
-1576 -2204 0
-1669 -1857 0
-1670 -1858 0
-1671 -1859 0
-1672 -1860 0
-1833 -2625 0
-1834 -2626 0
-1835 -2627 0
-1836 -2628 0
-1873 -2325 0
-1874 -2326 0
-1875 -2327 0
-1876 -2328 0
-2109 -3889 0
-2110 -3890 0
-2111 -3891 0
-2112 -3892 0
-2113 -2513 0
-2114 -2514 0
-2115 -2515 0
-2116 -2516 0
-2345 -2621 0
-2346 -2622 0
-2347 -2623 0
-2348 -2624 0
-2869 -3201 0
-2870 -3202 0
-2871 -3203 0
-2872 -3204 0
-2993 -3529 0
-2994 -3530 0
-2995 -3531 0
-2996 -3532 0
-3093 -3493 0
-3094 -3494 0
-3095 -3495 0
-3096 -3496 0
-3261 -3717 0
-3262 -3718 0
-3263 -3719 0
-3264 -3720 0
-3553 -4021 0
-3554 -4022 0
-3555 -4023 0
-3556 -4024 0
-3589 -3949 0
-3590 -3950 0
-3591 -3951 0
-3592 -3952 0
-1 -393 0
-2 -394 0
-3 -395 0
-4 -396 0
-5 -561 0
-6 -562 0
-7 -563 0
-8 -564 0
-17 -417 0
-18 -418 0
-19 -419 0
-20 -420 0
-25 -1873 0
-26 -1874 0
-27 -1875 0
-28 -1876 0
-29 -225 0
-30 -226 0
-31 -227 0
-32 -228 0
-33 -145 0
-34 -146 0
-35 -147 0
-36 -148 0
-57 -1817 0
-58 -1818 0
-59 -1819 0
-60 -1820 0
-69 -661 0
-70 -662 0
-71 -663 0
-72 -664 0
-73 -217 0
-74 -218 0
-75 -219 0
-76 -220 0
-77 -165 0
-78 -166 0
-79 -167 0
-80 -168 0
-133 -2169 0
-134 -2170 0
-135 -2171 0
-136 -2172 0
-137 -1649 0
-138 -1650 0
-139 -1651 0
-140 -1652 0
-293 -641 0
-294 -642 0
-295 -643 0
-296 -644 0
-349 -3249 0
-350 -3250 0
-351 -3251 0
-352 -3252 0
-389 -505 0
-390 -506 0
-391 -507 0
-392 -508 0
-401 -1701 0
-402 -1702 0
-403 -1703 0
-404 -1704 0
-425 -3077 0
-426 -3078 0
-427 -3079 0
-428 -3080 0
-485 -3205 0
-486 -3206 0
-487 -3207 0
-488 -3208 0
-489 -549 0
-490 -550 0
-491 -551 0
-492 -552 0
-497 -833 0
-498 -834 0
-499 -835 0
-500 -836 0
-541 -993 0
-542 -994 0
-543 -995 0
-544 -996 0
-557 -2421 0
-558 -2422 0
-559 -2423 0
-560 -2424 0
-717 -1073 0
-718 -1074 0
-719 -1075 0
-720 -1076 0
-737 -1569 0
-738 -1570 0
-739 -1571 0
-740 -1572 0
-765 -1273 0
-766 -1274 0
-767 -1275 0
-768 -1276 0
-885 -3073 0
-886 -3074 0
-887 -3075 0
-888 -3076 0
-933 -2509 0
-934 -2510 0
-935 -2511 0
-936 -2512 0
-1033 -1673 0
-1034 -1674 0
-1035 -1675 0
-1036 -1676 0
-1081 -2461 0
-1082 -2462 0
-1083 -2463 0
-1084 -2464 0
-1101 -2233 0
-1102 -2234 0
-1103 -2235 0
-1104 -2236 0
-1145 -2533 0
-1146 -2534 0
-1147 -2535 0
-1148 -2536 0
-1169 -3957 0
-1170 -3958 0
-1171 -3959 0
-1172 -3960 0
-1289 -1309 0
-1290 -1310 0
-1291 -1311 0
-1292 -1312 0
-1293 -1997 0
-1294 -1998 0
-1295 -1999 0
-1296 -2000 0
-1321 -2009 0
-1322 -2010 0
-1323 -2011 0
-1324 -2012 0
-1325 -3537 0
-1326 -3538 0
-1327 -3539 0
-1328 -3540 0
-1369 -3301 0
-1370 -3302 0
-1371 -3303 0
-1372 -3304 0
-1425 -2325 0
-1426 -2326 0
-1427 -2327 0
-1428 -2328 0
-1617 -3521 0
-1618 -3522 0
-1619 -3523 0
-1620 -3524 0
-2121 -3785 0
-2122 -3786 0
-2123 -3787 0
-2124 -3788 0
-2153 -2653 0
-2154 -2654 0
-2155 -2655 0
-2156 -2656 0
-2553 -2749 0
-2554 -2750 0
-2555 -2751 0
-2556 -2752 0
-2581 -3697 0
-2582 -3698 0
-2583 -3699 0
-2584 -3700 0
-2713 -2733 0
-2714 -2734 0
-2715 -2735 0
-2716 -2736 0
-2913 -3245 0
-2914 -3246 0
-2915 -3247 0
-2916 -3248 0
-3513 -3989 0
-3514 -3990 0
-3515 -3991 0
-3516 -3992 0
-3813 -3881 0
-3814 -3882 0
-3815 -3883 0
-3816 -3884 0
-13 -37 0
-14 -38 0
-15 -39 0
-16 -40 0
-25 -2873 0
-26 -2874 0
-27 -2875 0
-28 -2876 0
-29 -1805 0
-30 -1806 0
-31 -1807 0
-32 -1808 0
-33 -1881 0
-34 -1882 0
-35 -1883 0
-36 -1884 0
-85 -3369 0
-86 -3370 0
-87 -3371 0
-88 -3372 0
-93 -2273 0
-94 -2274 0
-95 -2275 0
-96 -2276 0
-97 -3845 0
-98 -3846 0
-99 -3847 0
-100 -3848 0
-105 -2853 0
-106 -2854 0
-107 -2855 0
-108 -2856 0
-137 -3381 0
-138 -3382 0
-139 -3383 0
-140 -3384 0
-149 -3785 0
-150 -3786 0
-151 -3787 0
-152 -3788 0
-169 -465 0
-170 -466 0
-171 -467 0
-172 -468 0
-181 -677 0
-182 -678 0
-183 -679 0
-184 -680 0
-189 -4077 0
-190 -4078 0
-191 -4079 0
-192 -4080 0
-261 -2121 0
-262 -2122 0
-263 -2123 0
-264 -2124 0
-277 -357 0
-278 -358 0
-279 -359 0
-280 -360 0
-293 -945 0
-294 -946 0
-295 -947 0
-296 -948 0
-297 -3449 0
-298 -3450 0
-299 -3451 0
-300 -3452 0
-333 -2901 0
-334 -2902 0
-335 -2903 0
-336 -2904 0
-433 -2737 0
-434 -2738 0
-435 -2739 0
-436 -2740 0
-453 -2577 0
-454 -2578 0
-455 -2579 0
-456 -2580 0
-509 -3501 0
-510 -3502 0
-511 -3503 0
-512 -3504 0
-517 -2825 0
-518 -2826 0
-519 -2827 0
-520 -2828 0
-577 -1937 0
-578 -1938 0
-579 -1939 0
-580 -1940 0
-621 -3253 0
-622 -3254 0
-623 -3255 0
-624 -3256 0
-633 -693 0
-634 -694 0
-635 -695 0
-636 -696 0
-721 -1593 0
-722 -1594 0
-723 -1595 0
-724 -1596 0
-745 -2049 0
-746 -2050 0
-747 -2051 0
-748 -2052 0
-1061 -1177 0
-1062 -1178 0
-1063 -1179 0
-1064 -1180 0
-1125 -3213 0
-1126 -3214 0
-1127 -3215 0
-1128 -3216 0
-1133 -1517 0
-1134 -1518 0
-1135 -1519 0
-1136 -1520 0
-1149 -1393 0
-1150 -1394 0
-1151 -1395 0
-1152 -1396 0
-1305 -1453 0
-1306 -1454 0
-1307 -1455 0
-1308 -1456 0
-1365 -3669 0
-1366 -3670 0
-1367 -3671 0
-1368 -3672 0
-1369 -1617 0
-1370 -1618 0
-1371 -1619 0
-1372 -1620 0
-1381 -2965 0
-1382 -2966 0
-1383 -2967 0
-1384 -2968 0
-1425 -2321 0
-1426 -2322 0
-1427 -2323 0
-1428 -2324 0
-1437 -2957 0
-1438 -2958 0
-1439 -2959 0
-1440 -2960 0
-1445 -2237 0
-1446 -2238 0
-1447 -2239 0
-1448 -2240 0
-1529 -1613 0
-1530 -1614 0
-1531 -1615 0
-1532 -1616 0
-1533 -2085 0
-1534 -2086 0
-1535 -2087 0
-1536 -2088 0
-1545 -2385 0
-1546 -2386 0
-1547 -2387 0
-1548 -2388 0
-1765 -3849 0
-1766 -3850 0
-1767 -3851 0
-1768 -3852 0
-1933 -2453 0
-1934 -2454 0
-1935 -2455 0
-1936 -2456 0
-2017 -3389 0
-2018 -3390 0
-2019 -3391 0
-2020 -3392 0
-2141 -3141 0
-2142 -3142 0
-2143 -3143 0
-2144 -3144 0
-2153 -2989 0
-2154 -2990 0
-2155 -2991 0
-2156 -2992 0
-2177 -2885 0
-2178 -2886 0
-2179 -2887 0
-2180 -2888 0
-2201 -3097 0
-2202 -3098 0
-2203 -3099 0
-2204 -3100 0
-2221 -3497 0
-2222 -3498 0
-2223 -3499 0
-2224 -3500 0
-2761 -4053 0
-2762 -4054 0
-2763 -4055 0
-2764 -4056 0
-2921 -3401 0
-2922 -3402 0
-2923 -3403 0
-2924 -3404 0
-3033 -3793 0
-3034 -3794 0
-3035 -3795 0
-3036 -3796 0
-3301 -3521 0
-3302 -3522 0
-3303 -3523 0
-3304 -3524 0
-3305 -3673 0
-3306 -3674 0
-3307 -3675 0
-3308 -3676 0
-3409 -3425 0
-3410 -3426 0
-3411 -3427 0
-3412 -3428 0
-3689 -3877 0
-3690 -3878 0
-3691 -3879 0
-3692 -3880 0
-37 -2841 0
-38 -2842 0
-39 -2843 0
-40 -2844 0
-41 -929 0
-42 -930 0
-43 -931 0
-44 -932 0
-49 -449 0
-50 -450 0
-51 -451 0
-52 -452 0
-53 -405 0
-54 -406 0
-55 -407 0
-56 -408 0
-61 -865 0
-62 -866 0
-63 -867 0
-64 -868 0
-65 -1301 0
-66 -1302 0
-67 -1303 0
-68 -1304 0
-81 -345 0
-82 -346 0
-83 -347 0
-84 -348 0
-85 -249 0
-86 -250 0
-87 -251 0
-88 -252 0
-101 -2613 0
-102 -2614 0
-103 -2615 0
-104 -2616 0
-117 -197 0
-118 -198 0
-119 -199 0
-120 -200 0
-125 -369 0
-126 -370 0
-127 -371 0
-128 -372 0
-181 -2809 0
-182 -2810 0
-183 -2811 0
-184 -2812 0
-205 -2757 0
-206 -2758 0
-207 -2759 0
-208 -2760 0
-237 -3297 0
-238 -3298 0
-239 -3299 0
-240 -3300 0
-257 -1641 0
-258 -1642 0
-259 -1643 0
-260 -1644 0
-265 -629 0
-266 -630 0
-267 -631 0
-268 -632 0
-349 -541 0
-350 -542 0
-351 -543 0
-352 -544 0
-361 -3569 0
-362 -3570 0
-363 -3571 0
-364 -3572 0
-429 -1585 0
-430 -1586 0
-431 -1587 0
-432 -1588 0
-509 -577 0
-510 -578 0
-511 -579 0
-512 -580 0
-557 -597 0
-558 -598 0
-559 -599 0
-560 -600 0
-565 -3165 0
-566 -3166 0
-567 -3167 0
-568 -3168 0
-737 -765 0
-738 -766 0
-739 -767 0
-740 -768 0
-889 -3581 0
-890 -3582 0
-891 -3583 0
-892 -3584 0
-1105 -1889 0
-1106 -1890 0
-1107 -1891 0
-1108 -1892 0
-1157 -1397 0
-1158 -1398 0
-1159 -1399 0
-1160 -1400 0
-1169 -1837 0
-1170 -1838 0
-1171 -1839 0
-1172 -1840 0
-1541 -3233 0
-1542 -3234 0
-1543 -3235 0
-1544 -3236 0
-1601 -2269 0
-1602 -2270 0
-1603 -2271 0
-1604 -2272 0
-1725 -3837 0
-1726 -3838 0
-1727 -3839 0
-1728 -3840 0
-1741 -3149 0
-1742 -3150 0
-1743 -3151 0
-1744 -3152 0
-1909 -3857 0
-1910 -3858 0
-1911 -3859 0
-1912 -3860 0
-2025 -2569 0
-2026 -2570 0
-2027 -2571 0
-2028 -2572 0
-2073 -3089 0
-2074 -3090 0
-2075 -3091 0
-2076 -3092 0
-2085 -3453 0
-2086 -3454 0
-2087 -3455 0
-2088 -3456 0
-2369 -3757 0
-2370 -3758 0
-2371 -3759 0
-2372 -3760 0
-2529 -3493 0
-2530 -3494 0
-2531 -3495 0
-2532 -3496 0
-2697 -2889 0
-2698 -2890 0
-2699 -2891 0
-2700 -2892 0
-2705 -3913 0
-2706 -3914 0
-2707 -3915 0
-2708 -3916 0
-2913 -2981 0
-2914 -2982 0
-2915 -2983 0
-2916 -2984 0
-3001 -3241 0
-3002 -3242 0
-3003 -3243 0
-3004 -3244 0
-3193 -4045 0
-3194 -4046 0
-3195 -4047 0
-3196 -4048 0
-13 -517 0
-14 -518 0
-15 -519 0
-16 -520 0
-25 -105 0
-26 -106 0
-27 -107 0
-28 -108 0
-37 -2825 0
-38 -2826 0
-39 -2827 0
-40 -2828 0
-93 -1365 0
-94 -1366 0
-95 -1367 0
-96 -1368 0
-97 -3237 0
-98 -3238 0
-99 -3239 0
-100 -3240 0
-137 -3645 0
-138 -3646 0
-139 -3647 0
-140 -3648 0
-277 -453 0
-278 -454 0
-279 -455 0
-280 -456 0
-309 -981 0
-310 -982 0
-311 -983 0
-312 -984 0
-349 -1781 0
-350 -1782 0
-351 -1783 0
-352 -1784 0
-357 -2577 0
-358 -2578 0
-359 -2579 0
-360 -2580 0
-609 -2197 0
-610 -2198 0
-611 -2199 0
-612 -2200 0
-637 -2005 0
-638 -2006 0
-639 -2007 0
-640 -2008 0
-693 -2169 0
-694 -2170 0
-695 -2171 0
-696 -2172 0
-893 -1921 0
-894 -1922 0
-895 -1923 0
-896 -1924 0
-925 -1053 0
-926 -1054 0
-927 -1055 0
-928 -1056 0
-1025 -1273 0
-1026 -1274 0
-1027 -1275 0
-1028 -1276 0
-1129 -1605 0
-1130 -1606 0
-1131 -1607 0
-1132 -1608 0
-1133 -2141 0
-1134 -2142 0
-1135 -2143 0
-1136 -2144 0
-1137 -1249 0
-1138 -1250 0
-1139 -1251 0
-1140 -1252 0
-1153 -2557 0
-1154 -2558 0
-1155 -2559 0
-1156 -2560 0
-1157 -1541 0
-1158 -1542 0
-1159 -1543 0
-1160 -1544 0
-1213 -1657 0
-1214 -1658 0
-1215 -1659 0
-1216 -1660 0
-1345 -1701 0
-1346 -1702 0
-1347 -1703 0
-1348 -1704 0
-1373 -1569 0
-1374 -1570 0
-1375 -1571 0
-1376 -1572 0
-1397 -3233 0
-1398 -3234 0
-1399 -3235 0
-1400 -3236 0
-1517 -3141 0
-1518 -3142 0
-1519 -3143 0
-1520 -3144 0
-1529 -2449 0
-1530 -2450 0
-1531 -2451 0
-1532 -2452 0
-1545 -2977 0
-1546 -2978 0
-1547 -2979 0
-1548 -2980 0
-1937 -1965 0
-1938 -1966 0
-1939 -1967 0
-1940 -1968 0
-1941 -2205 0
-1942 -2206 0
-1943 -2207 0
-1944 -2208 0
-1993 -2053 0
-1994 -2054 0
-1995 -2055 0
-1996 -2056 0
-2253 -2377 0
-2254 -2378 0
-2255 -2379 0
-2256 -2380 0
-2257 -3653 0
-2258 -3654 0
-2259 -3655 0
-2260 -3656 0
-2273 -3669 0
-2274 -3670 0
-2275 -3671 0
-2276 -3672 0
-2309 -3697 0
-2310 -3698 0
-2311 -3699 0
-2312 -3700 0
-2337 -3677 0
-2338 -3678 0
-2339 -3679 0
-2340 -3680 0
-2381 -3033 0
-2382 -3034 0
-2383 -3035 0
-2384 -3036 0
-2465 -2821 0
-2466 -2822 0
-2467 -2823 0
-2468 -2824 0
-2545 -3337 0
-2546 -3338 0
-2547 -3339 0
-2548 -3340 0
-2621 -2657 0
-2622 -2658 0
-2623 -2659 0
-2624 -2660 0
-2861 -3229 0
-2862 -3230 0
-2863 -3231 0
-2864 -3232 0
-2945 -3021 0
-2946 -3022 0
-2947 -3023 0
-2948 -3024 0
-3377 -3505 0
-3378 -3506 0
-3379 -3507 0
-3380 -3508 0
-3533 -3729 0
-3534 -3730 0
-3535 -3731 0
-3536 -3732 0
-5 -69 0
-6 -70 0
-7 -71 0
-8 -72 0
-57 -1853 0
-58 -1854 0
-59 -1855 0
-60 -1856 0
-113 -4013 0
-114 -4014 0
-115 -4015 0
-116 -4016 0
-141 -3037 0
-142 -3038 0
-143 -3039 0
-144 -3040 0
-161 -805 0
-162 -806 0
-163 -807 0
-164 -808 0
-293 -789 0
-294 -790 0
-295 -791 0
-296 -792 0
-501 -2101 0
-502 -2102 0
-503 -2103 0
-504 -2104 0
-561 -661 0
-562 -662 0
-563 -663 0
-564 -664 0
-769 -3953 0
-770 -3954 0
-771 -3955 0
-772 -3956 0
-793 -2157 0
-794 -2158 0
-795 -2159 0
-796 -2160 0
-1185 -1269 0
-1186 -1270 0
-1187 -1271 0
-1188 -1272 0
-1189 -3197 0
-1190 -3198 0
-1191 -3199 0
-1192 -3200 0
-1405 -2277 0
-1406 -2278 0
-1407 -2279 0
-1408 -2280 0
-1457 -1625 0
-1458 -1626 0
-1459 -1627 0
-1460 -1628 0
-1521 -2997 0
-1522 -2998 0
-1523 -2999 0
-1524 -3000 0
-1561 -1661 0
-1562 -1662 0
-1563 -1663 0
-1564 -1664 0
-1629 -2321 0
-1630 -2322 0
-1631 -2323 0
-1632 -2324 0
-1745 -2161 0
-1746 -2162 0
-1747 -2163 0
-1748 -2164 0
-2021 -2589 0
-2022 -2590 0
-2023 -2591 0
-2024 -2592 0
-2145 -2413 0
-2146 -2414 0
-2147 -2415 0
-2148 -2416 0
-2397 -2753 0
-2398 -2754 0
-2399 -2755 0
-2400 -2756 0
-2401 -3345 0
-2402 -3346 0
-2403 -3347 0
-2404 -3348 0
-57 -2077 0
-58 -2078 0
-59 -2079 0
-60 -2080 0
-61 -801 0
-62 -802 0
-63 -803 0
-64 -804 0
-65 -373 0
-66 -374 0
-67 -375 0
-68 -376 0
-73 -489 0
-74 -490 0
-75 -491 0
-76 -492 0
-109 -141 0
-110 -142 0
-111 -143 0
-112 -144 0
-113 -529 0
-114 -530 0
-115 -531 0
-116 -532 0
-165 -2441 0
-166 -2442 0
-167 -2443 0
-168 -2444 0
-193 -413 0
-194 -414 0
-195 -415 0
-196 -416 0
-217 -549 0
-218 -550 0
-219 -551 0
-220 -552 0
-377 -753 0
-378 -754 0
-379 -755 0
-380 -756 0
-585 -2893 0
-586 -2894 0
-587 -2895 0
-588 -2896 0
-1349 -3985 0
-1350 -3986 0
-1351 -3987 0
-1352 -3988 0
-1705 -3597 0
-1706 -3598 0
-1707 -3599 0
-1708 -3600 0
-1785 -2417 0
-1786 -2418 0
-1787 -2419 0
-1788 -2420 0
-2433 -3861 0
-2434 -3862 0
-2435 -3863 0
-2436 -3864 0
-2921 -3625 0
-2922 -3626 0
-2923 -3627 0
-2924 -3628 0
-3209 -3293 0
-3210 -3294 0
-3211 -3295 0
-3212 -3296 0
-37 -3973 0
-38 -3974 0
-39 -3975 0
-40 -3976 0
-45 -3181 0
-46 -3182 0
-47 -3183 0
-48 -3184 0
-81 -157 0
-82 -158 0
-83 -159 0
-84 -160 0
-349 -1145 0
-350 -1146 0
-351 -1147 0
-352 -1148 0
-621 -3733 0
-622 -3734 0
-623 -3735 0
-624 -3736 0
-849 -1417 0
-850 -1418 0
-851 -1419 0
-852 -1420 0
-1021 -2645 0
-1022 -2646 0
-1023 -2647 0
-1024 -2648 0
-1069 -2469 0
-1070 -2470 0
-1071 -2471 0
-1072 -2472 0
-1093 -2845 0
-1094 -2846 0
-1095 -2847 0
-1096 -2848 0
-1381 -3805 0
-1382 -3806 0
-1383 -3807 0
-1384 -3808 0
-1457 -3925 0
-1458 -3926 0
-1459 -3927 0
-1460 -3928 0
-1485 -3345 0
-1486 -3346 0
-1487 -3347 0
-1488 -3348 0
-1573 -2069 0
-1574 -2070 0
-1575 -2071 0
-1576 -2072 0
-1645 -2401 0
-1646 -2402 0
-1647 -2403 0
-1648 -2404 0
-1665 -3473 0
-1666 -3474 0
-1667 -3475 0
-1668 -3476 0
-1773 -3517 0
-1774 -3518 0
-1775 -3519 0
-1776 -3520 0
-1861 -2045 0
-1862 -2046 0
-1863 -2047 0
-1864 -2048 0
-1877 -2973 0
-1878 -2974 0
-1879 -2975 0
-1880 -2976 0
-1901 -3601 0
-1902 -3602 0
-1903 -3603 0
-1904 -3604 0
-2041 -3009 0
-2042 -3010 0
-2043 -3011 0
-2044 -3012 0
-2073 -2909 0
-2074 -2910 0
-2075 -2911 0
-2076 -2912 0
-2301 -3757 0
-2302 -3758 0
-2303 -3759 0
-2304 -3760 0
-2305 -3761 0
-2306 -3762 0
-2307 -3763 0
-2308 -3764 0
-2397 -2797 0
-2398 -2798 0
-2399 -2799 0
-2400 -2800 0
-2485 -2561 0
-2486 -2562 0
-2487 -2563 0
-2488 -2564 0
-2573 -2981 0
-2574 -2982 0
-2575 -2983 0
-2576 -2984 0
-2633 -3981 0
-2634 -3982 0
-2635 -3983 0
-2636 -3984 0
-2881 -2917 0
-2882 -2918 0
-2883 -2919 0
-2884 -2920 0
-2925 -4001 0
-2926 -4002 0
-2927 -4003 0
-2928 -4004 0
-3129 -3489 0
-3130 -3490 0
-3131 -3491 0
-3132 -3492 0
-3169 -3401 0
-3170 -3402 0
-3171 -3403 0
-3172 -3404 0
-3525 -3709 0
-3526 -3710 0
-3527 -3711 0
-3528 -3712 0
-21 -1905 0
-22 -1906 0
-23 -1907 0
-24 -1908 0
-53 -3485 0
-54 -3486 0
-55 -3487 0
-56 -3488 0
-73 -317 0
-74 -318 0
-75 -319 0
-76 -320 0
-109 -269 0
-110 -270 0
-111 -271 0
-112 -272 0
-113 -993 0
-114 -994 0
-115 -995 0
-116 -996 0
-117 -1593 0
-118 -1594 0
-119 -1595 0
-120 -1596 0
-121 -213 0
-122 -214 0
-123 -215 0
-124 -216 0
-165 -417 0
-166 -418 0
-167 -419 0
-168 -420 0
-185 -773 0
-186 -774 0
-187 -775 0
-188 -776 0
-209 -281 0
-210 -282 0
-211 -283 0
-212 -284 0
-245 -2817 0
-246 -2818 0
-247 -2819 0
-248 -2820 0
-257 -3985 0
-258 -3986 0
-259 -3987 0
-260 -3988 0
-361 -965 0
-362 -966 0
-363 -967 0
-364 -968 0
-425 -449 0
-426 -450 0
-427 -451 0
-428 -452 0
-545 -1585 0
-546 -1586 0
-547 -1587 0
-548 -1588 0
-557 -741 0
-558 -742 0
-559 -743 0
-560 -744 0
-585 -3217 0
-586 -3218 0
-587 -3219 0
-588 -3220 0
-901 -3953 0
-902 -3954 0
-903 -3955 0
-904 -3956 0
-953 -1265 0
-954 -1266 0
-955 -1267 0
-956 -1268 0
-1089 -2341 0
-1090 -2342 0
-1091 -2343 0
-1092 -2344 0
-1917 -2481 0
-1918 -2482 0
-1919 -2483 0
-1920 -2484 0
-2041 -3989 0
-2042 -3990 0
-2043 -3991 0
-2044 -3992 0
-2181 -3745 0
-2182 -3746 0
-2183 -3747 0
-2184 -3748 0
-3477 -3709 0
-3478 -3710 0
-3479 -3711 0
-3480 -3712 0
-1 -221 0
-2 -222 0
-3 -223 0
-4 -224 0
-57 -113 0
-58 -114 0
-59 -115 0
-60 -116 0
-89 -177 0
-90 -178 0
-91 -179 0
-92 -180 0
-213 -661 0
-214 -662 0
-215 -663 0
-216 -664 0
-281 -561 0
-282 -562 0
-283 -563 0
-284 -564 0
-377 -2533 0
-378 -2534 0
-379 -2535 0
-380 -2536 0
-457 -1557 0
-458 -1558 0
-459 -1559 0
-460 -1560 0
-649 -1801 0
-650 -1802 0
-651 -1803 0
-652 -1804 0
-1397 -3945 0
-1398 -3946 0
-1399 -3947 0
-1400 -3948 0
-1457 -2397 0
-1458 -2398 0
-1459 -2399 0
-1460 -2400 0
-1489 -2073 0
-1490 -2074 0
-1491 -2075 0
-1492 -2076 0
-1625 -2753 0
-1626 -2754 0
-1627 -2755 0
-1628 -2756 0
-1653 -3633 0
-1654 -3634 0
-1655 -3635 0
-1656 -3636 0
-1757 -1917 0
-1758 -1918 0
-1759 -1919 0
-1760 -1920 0
-1773 -3753 0
-1774 -3754 0
-1775 -3755 0
-1776 -3756 0
-1853 -4013 0
-1854 -4014 0
-1855 -4015 0
-1856 -4016 0
-1901 -2093 0
-1902 -2094 0
-1903 -2095 0
-1904 -2096 0
-2193 -3597 0
-2194 -3598 0
-2195 -3599 0
-2196 -3600 0
-2469 -3701 0
-2470 -3702 0
-2471 -3703 0
-2472 -3704 0
-49 -2665 0
-50 -2666 0
-51 -2667 0
-52 -2668 0
-53 -73 0
-54 -74 0
-55 -75 0
-56 -76 0
-61 -1185 0
-62 -1186 0
-63 -1187 0
-64 -1188 0
-113 -3089 0
-114 -3090 0
-115 -3091 0
-116 -3092 0
-185 -3917 0
-186 -3918 0
-187 -3919 0
-188 -3920 0
-229 -3757 0
-230 -3758 0
-231 -3759 0
-232 -3760 0
-349 -3189 0
-350 -3190 0
-351 -3191 0
-352 -3192 0
-1297 -3617 0
-1298 -3618 0
-1299 -3619 0
-1300 -3620 0
-1513 -1877 0
-1514 -1878 0
-1515 -1879 0
-1516 -1880 0
-1609 -3185 0
-1610 -3186 0
-1611 -3187 0
-1612 -3188 0
-1625 -4005 0
-1626 -4006 0
-1627 -4007 0
-1628 -4008 0
-1705 -1789 0
-1706 -1790 0
-1707 -1791 0
-1708 -1792 0
-1737 -2365 0
-1738 -2366 0
-1739 -2367 0
-1740 -2368 0
-1801 -2917 0
-1802 -2918 0
-1803 -2919 0
-1804 -2920 0
-1961 -3025 0
-1962 -3026 0
-1963 -3027 0
-1964 -3028 0
-2013 -2833 0
-2014 -2834 0
-2015 -2835 0
-2016 -2836 0
-2397 -2673 0
-2398 -2674 0
-2399 -2675 0
-2400 -2676 0
-2977 -3181 0
-2978 -3182 0
-2979 -3183 0
-2980 -3184 0
-3541 -3993 0
-3542 -3994 0
-3543 -3995 0
-3544 -3996 0
-3809 -4001 0
-3810 -4002 0
-3811 -4003 0
-3812 -4004 0
-17 -865 0
-18 -866 0
-19 -867 0
-20 -868 0
-21 -61 0
-22 -62 0
-23 -63 0
-24 -64 0
-45 -2009 0
-46 -2010 0
-47 -2011 0
-48 -2012 0
-49 -869 0
-50 -870 0
-51 -871 0
-52 -872 0
-53 -2013 0
-54 -2014 0
-55 -2015 0
-56 -2016 0
-73 -2833 0
-74 -2834 0
-75 -2835 0
-76 -2836 0
-77 -2401 0
-78 -2402 0
-79 -2403 0
-80 -2404 0
-81 -2209 0
-82 -2210 0
-83 -2211 0
-84 -2212 0
-157 -1965 0
-158 -1966 0
-159 -1967 0
-160 -1968 0
-161 -437 0
-162 -438 0
-163 -439 0
-164 -440 0
-169 -305 0
-170 -306 0
-171 -307 0
-172 -308 0
-185 -1297 0
-186 -1298 0
-187 -1299 0
-188 -1300 0
-257 -409 0
-258 -410 0
-259 -411 0
-260 -412 0
-361 -2729 0
-362 -2730 0
-363 -2731 0
-364 -2732 0
-585 -2517 0
-586 -2518 0
-587 -2519 0
-588 -2520 0
-717 -1785 0
-718 -1786 0
-719 -1787 0
-720 -1788 0
-969 -4081 0
-970 -4082 0
-971 -4083 0
-972 -4084 0
-1653 -2333 0
-1654 -2334 0
-1655 -2335 0
-1656 -2336 0
-1753 -1857 0
-1754 -1858 0
-1755 -1859 0
-1756 -1860 0
-1773 -2637 0
-1774 -2638 0
-1775 -2639 0
-1776 -2640 0
-2181 -2561 0
-2182 -2562 0
-2183 -2563 0
-2184 -2564 0
-2369 -2733 0
-2370 -2734 0
-2371 -2735 0
-2372 -2736 0
-2445 -3537 0
-2446 -3538 0
-2447 -3539 0
-2448 -3540 0
-3185 -3929 0
-3186 -3930 0
-3187 -3931 0
-3188 -3932 0
-3465 -4025 0
-3466 -4026 0
-3467 -4027 0
-3468 -4028 0
-3705 -3953 0
-3706 -3954 0
-3707 -3955 0
-3708 -3956 0
-5 -45 0
-6 -46 0
-7 -47 0
-8 -48 0
-17 -965 0
-18 -966 0
-19 -967 0
-20 -968 0
-65 -1073 0
-66 -1074 0
-67 -1075 0
-68 -1076 0
-77 -361 0
-78 -362 0
-79 -363 0
-80 -364 0
-161 -2369 0
-162 -2370 0
-163 -2371 0
-164 -2372 0
-197 -1269 0
-198 -1270 0
-199 -1271 0
-200 -1272 0
-201 -1241 0
-202 -1242 0
-203 -1243 0
-204 -1244 0
-293 -1353 0
-294 -1354 0
-295 -1355 0
-296 -1356 0
-345 -533 0
-346 -534 0
-347 -535 0
-348 -536 0
-389 -1661 0
-390 -1662 0
-391 -1663 0
-392 -1664 0
-405 -3197 0
-406 -3198 0
-407 -3199 0
-408 -3200 0
-425 -3873 0
-426 -3874 0
-427 -3875 0
-428 -3876 0
-437 -2733 0
-438 -2734 0
-439 -2735 0
-440 -2736 0
-545 -4009 0
-546 -4010 0
-547 -4011 0
-548 -4012 0
-553 -3637 0
-554 -3638 0
-555 -3639 0
-556 -3640 0
-629 -1185 0
-630 -1186 0
-631 -1187 0
-632 -1188 0
-957 -2073 0
-958 -2074 0
-959 -2075 0
-960 -2076 0
-1129 -2469 0
-1130 -2470 0
-1131 -2471 0
-1132 -2472 0
-1357 -1753 0
-1358 -1754 0
-1359 -1755 0
-1360 -1756 0
-1417 -1729 0
-1418 -1730 0
-1419 -1731 0
-1420 -1732 0
-1521 -2705 0
-1522 -2706 0
-1523 -2707 0
-1524 -2708 0
-1693 -2745 0
-1694 -2746 0
-1695 -2747 0
-1696 -2748 0
-1917 -2421 0
-1918 -2422 0
-1919 -2423 0
-1920 -2424 0
-2145 -2801 0
-2146 -2802 0
-2147 -2803 0
-2148 -2804 0
-2193 -2349 0
-2194 -2350 0
-2195 -2351 0
-2196 -2352 0
-2401 -2729 0
-2402 -2730 0
-2403 -2731 0
-2404 -2732 0
-2569 -2713 0
-2570 -2714 0
-2571 -2715 0
-2572 -2716 0
-57 -2573 0
-58 -2574 0
-59 -2575 0
-60 -2576 0
-61 -2417 0
-62 -2418 0
-63 -2419 0
-64 -2420 0
-65 -2813 0
-66 -2814 0
-67 -2815 0
-68 -2816 0
-161 -2457 0
-162 -2458 0
-163 -2459 0
-164 -2460 0
-185 -2893 0
-186 -2894 0
-187 -2895 0
-188 -2896 0
-217 -337 0
-218 -338 0
-219 -339 0
-220 -340 0
-377 -949 0
-378 -950 0
-379 -951 0
-380 -952 0
-493 -2917 0
-494 -2918 0
-495 -2919 0
-496 -2920 0
-681 -853 0
-682 -854 0
-683 -855 0
-684 -856 0
-917 -1417 0
-918 -1418 0
-919 -1419 0
-920 -1420 0
-1189 -1321 0
-1190 -1322 0
-1191 -1323 0
-1192 -1324 0
-1285 -3601 0
-1286 -3602 0
-1287 -3603 0
-1288 -3604 0
-1297 -1565 0
-1298 -1566 0
-1299 -1567 0
-1300 -1568 0
-1361 -3597 0
-1362 -3598 0
-1363 -3599 0
-1364 -3600 0
-1437 -2077 0
-1438 -2078 0
-1439 -2079 0
-1440 -2080 0
-1817 -2209 0
-1818 -2210 0
-1819 -2211 0
-1820 -2212 0
-1917 -2249 0
-1918 -2250 0
-1919 -2251 0
-1920 -2252 0
-2113 -3973 0
-2114 -3974 0
-2115 -3975 0
-2116 -3976 0
-2265 -2497 0
-2266 -2498 0
-2267 -2499 0
-2268 -2500 0
-2373 -3981 0
-2374 -3982 0
-2375 -3983 0
-2376 -3984 0
-2445 -2949 0
-2446 -2950 0
-2447 -2951 0
-2448 -2952 0
-2869 -4005 0
-2870 -4006 0
-2871 -4007 0
-2872 -4008 0
-5 -293 0
-6 -294 0
-7 -295 0
-8 -296 0
-17 -3385 0
-18 -3386 0
-19 -3387 0
-20 -3388 0
-21 -3509 0
-22 -3510 0
-23 -3511 0
-24 -3512 0
-45 -1353 0
-46 -1354 0
-47 -1355 0
-48 -1356 0
-65 -1089 0
-66 -1090 0
-67 -1091 0
-68 -1092 0
-69 -789 0
-70 -790 0
-71 -791 0
-72 -792 0
-81 -117 0
-82 -118 0
-83 -119 0
-84 -120 0
-113 -409 0
-114 -410 0
-115 -411 0
-116 -412 0
-181 -257 0
-182 -258 0
-183 -259 0
-184 -260 0
-185 -2373 0
-186 -2374 0
-187 -2375 0
-188 -2376 0
-229 -2513 0
-230 -2514 0
-231 -2515 0
-232 -2516 0
-349 -429 0
-350 -430 0
-351 -431 0
-352 -432 0
-533 -1269 0
-534 -1270 0
-535 -1271 0
-536 -1272 0
-541 -1585 0
-542 -1586 0
-543 -1587 0
-544 -1588 0
-561 -641 0
-562 -642 0
-563 -643 0
-564 -644 0
-741 -2469 0
-742 -2470 0
-743 -2471 0
-744 -2472 0
-849 -2213 0
-850 -2214 0
-851 -2215 0
-852 -2216 0
-953 -1561 0
-954 -1562 0
-955 -1563 0
-956 -1564 0
-1253 -3293 0
-1254 -3294 0
-1255 -3295 0
-1256 -3296 0
-1501 -2045 0
-1502 -2046 0
-1503 -2047 0
-1504 -2048 0
-1753 -4009 0
-1754 -4010 0
-1755 -4011 0
-1756 -4012 0
-1801 -2377 0
-1802 -2378 0
-1803 -2379 0
-1804 -2380 0
-1917 -3009 0
-1918 -3010 0
-1919 -3011 0
-1920 -3012 0
-2101 -3221 0
-2102 -3222 0
-2103 -3223 0
-2104 -3224 0
-2229 -2797 0
-2230 -2798 0
-2231 -2799 0
-2232 -2800 0
-2265 -2561 0
-2266 -2562 0
-2267 -2563 0
-2268 -2564 0
-2893 -3981 0
-2894 -3982 0
-2895 -3983 0
-2896 -3984 0
-3217 -3637 0
-3218 -3638 0
-3219 -3639 0
-3220 -3640 0
-3913 -3929 0
-3914 -3930 0
-3915 -3931 0
-3916 -3932 0
-85 -289 0
-86 -290 0
-87 -291 0
-88 -292 0
-97 -285 0
-98 -286 0
-99 -287 0
-100 -288 0
-165 -3761 0
-166 -3762 0
-167 -3763 0
-168 -3764 0
-257 -3817 0
-258 -3818 0
-259 -3819 0
-260 -3820 0
-265 -3997 0
-266 -3998 0
-267 -3999 0
-268 -4000 0
-409 -2165 0
-410 -2166 0
-411 -2167 0
-412 -2168 0
-421 -933 0
-422 -934 0
-423 -935 0
-424 -936 0
-437 -865 0
-438 -866 0
-439 -867 0
-440 -868 0
-505 -2645 0
-506 -2646 0
-507 -2647 0
-508 -2648 0
-841 -1557 0
-842 -1558 0
-843 -1559 0
-844 -1560 0
-901 -3197 0
-902 -3198 0
-903 -3199 0
-904 -3200 0
-1013 -1189 0
-1014 -1190 0
-1015 -1191 0
-1016 -1192 0
-1169 -1637 0
-1170 -1638 0
-1171 -1639 0
-1172 -1640 0
-1429 -3025 0
-1430 -3026 0
-1431 -3027 0
-1432 -3028 0
-1725 -1861 0
-1726 -1862 0
-1727 -1863 0
-1728 -1864 0
-1773 -3621 0
-1774 -3622 0
-1775 -3623 0
-1776 -3624 0
-1917 -2069 0
-1918 -2070 0
-1919 -2071 0
-1920 -2072 0
-2025 -2193 0
-2026 -2194 0
-2027 -2195 0
-2028 -2196 0
-2909 -3181 0
-2910 -3182 0
-2911 -3183 0
-2912 -3184 0
-17 -3709 0
-18 -3710 0
-19 -3711 0
-20 -3712 0
-53 -3633 0
-54 -3634 0
-55 -3635 0
-56 -3636 0
-57 -65 0
-58 -66 0
-59 -67 0
-60 -68 0
-73 -2241 0
-74 -2242 0
-75 -2243 0
-76 -2244 0
-77 -3477 0
-78 -3478 0
-79 -3479 0
-80 -3480 0
-121 -2717 0
-122 -2718 0
-123 -2719 0
-124 -2720 0
-229 -2533 0
-230 -2534 0
-231 -2535 0
-232 -2536 0
-621 -3085 0
-622 -3086 0
-623 -3087 0
-624 -3088 0
-681 -913 0
-682 -914 0
-683 -915 0
-684 -916 0
-1013 -3897 0
-1014 -3898 0
-1015 -3899 0
-1016 -3900 0
-1189 -1433 0
-1190 -1434 0
-1191 -1435 0
-1192 -1436 0
-1485 -2753 0
-1486 -2754 0
-1487 -2755 0
-1488 -2756 0
-1645 -2397 0
-1646 -2398 0
-1647 -2399 0
-1648 -2400 0
-1721 -2381 0
-1722 -2382 0
-1723 -2383 0
-1724 -2384 0
-1877 -2249 0
-1878 -2250 0
-1879 -2251 0
-1880 -2252 0
-2369 -3073 0
-2370 -3074 0
-2371 -3075 0
-2372 -3076 0
-2401 -2797 0
-2402 -2798 0
-2403 -2799 0
-2404 -2800 0
-2573 -2813 0
-2574 -2814 0
-2575 -2815 0
-2576 -2816 0
-2581 -3489 0
-2582 -3490 0
-2583 -3491 0
-2584 -3492 0
-3185 -3421 0
-3186 -3422 0
-3187 -3423 0
-3188 -3424 0
-49 -2017 0
-50 -2018 0
-51 -2019 0
-52 -2020 0
-53 -1749 0
-54 -1750 0
-55 -1751 0
-56 -1752 0
-57 -1397 0
-58 -1398 0
-59 -1399 0
-60 -1400 0
-81 -3189 0
-82 -3190 0
-83 -3191 0
-84 -3192 0
-109 -1789 0
-110 -1790 0
-111 -1791 0
-112 -1792 0
-113 -3945 0
-114 -3946 0
-115 -3947 0
-116 -3948 0
-141 -497 0
-142 -498 0
-143 -499 0
-144 -500 0
-157 -813 0
-158 -814 0
-159 -815 0
-160 -816 0
-161 -2889 0
-162 -2890 0
-163 -2891 0
-164 -2892 0
-185 -1637 0
-186 -1638 0
-187 -1639 0
-188 -1640 0
-209 -1325 0
-210 -1326 0
-211 -1327 0
-212 -1328 0
-213 -317 0
-214 -318 0
-215 -319 0
-216 -320 0
-281 -1117 0
-282 -1118 0
-283 -1119 0
-284 -1120 0
-1077 -2697 0
-1078 -2698 0
-1079 -2699 0
-1080 -2700 0
-1961 -3817 0
-1962 -3818 0
-1963 -3819 0
-1964 -3820 0
-1981 -3185 0
-1982 -3186 0
-1983 -3187 0
-1984 -3188 0
-2045 -3857 0
-2046 -3858 0
-2047 -3859 0
-2048 -3860 0
-2497 -2985 0
-2498 -2986 0
-2499 -2987 0
-2500 -2988 0
-2997 -3341 0
-2998 -3342 0
-2999 -3343 0
-3000 -3344 0
-17 -449 0
-18 -450 0
-19 -451 0
-20 -452 0
-21 -49 0
-22 -50 0
-23 -51 0
-24 -52 0
-61 -869 0
-62 -870 0
-63 -871 0
-64 -872 0
-65 -1141 0
-66 -1142 0
-67 -1143 0
-68 -1144 0
-77 -425 0
-78 -426 0
-79 -427 0
-80 -428 0
-81 -849 0
-82 -850 0
-83 -851 0
-84 -852 0
-117 -2213 0
-118 -2214 0
-119 -2215 0
-120 -2216 0
-157 -1417 0
-158 -1418 0
-159 -1419 0
-160 -1420 0
-161 -681 0
-162 -682 0
-163 -683 0
-164 -684 0
-165 -3077 0
-166 -3078 0
-167 -3079 0
-168 -3080 0
-169 -3713 0
-170 -3714 0
-171 -3715 0
-172 -3716 0
-241 -577 0
-242 -578 0
-243 -579 0
-244 -580 0
-245 -1821 0
-246 -1822 0
-247 -1823 0
-248 -1824 0
-257 -2741 0
-258 -2742 0
-259 -2743 0
-260 -2744 0
-361 -3873 0
-362 -3874 0
-363 -3875 0
-364 -3876 0
-377 -537 0
-378 -538 0
-379 -539 0
-380 -540 0
-793 -2673 0
-794 -2674 0
-795 -2675 0
-796 -2676 0
-885 -2241 0
-886 -2242 0
-887 -2243 0
-888 -2244 0
-1077 -2041 0
-1078 -2042 0
-1079 -2043 0
-1080 -2044 0
-1205 -3617 0
-1206 -3618 0
-1207 -3619 0
-1208 -3620 0
-1253 -3913 0
-1254 -3914 0
-1255 -3915 0
-1256 -3916 0
-1629 -3413 0
-1630 -3414 0
-1631 -3415 0
-1632 -3416 0
-1637 -3585 0
-1638 -3586 0
-1639 -3587 0
-1640 -3588 0
-1773 -2485 0
-1774 -2486 0
-1775 -2487 0
-1776 -2488 0
-2045 -2645 0
-2046 -2646 0
-2047 -2647 0
-2048 -2648 0
-2189 -3485 0
-2190 -3486 0
-2191 -3487 0
-2192 -3488 0
-2713 -2833 0
-2714 -2834 0
-2715 -2835 0
-2716 -2836 0
-3293 -3929 0
-3294 -3930 0
-3295 -3931 0
-3296 -3932 0
-3401 -3405 0
-3402 -3406 0
-3403 -3407 0
-3404 -3408 0
-3489 -3661 0
-3490 -3662 0
-3491 -3663 0
-3492 -3664 0
-3625 -4041 0
-3626 -4042 0
-3627 -4043 0
-3628 -4044 0
-17 -2745 0
-18 -2746 0
-19 -2747 0
-20 -2748 0
-137 -3473 0
-138 -3474 0
-139 -3475 0
-140 -3476 0
-197 -1185 0
-198 -1186 0
-199 -1187 0
-200 -1188 0
-201 -1433 0
-202 -1434 0
-203 -1435 0
-204 -1436 0
-345 -1265 0
-346 -1266 0
-347 -1267 0
-348 -1268 0
-389 -1561 0
-390 -1562 0
-391 -1563 0
-392 -1564 0
-405 -1189 0
-406 -1190 0
-407 -1191 0
-408 -1192 0
-565 -2073 0
-566 -2074 0
-567 -2075 0
-568 -2076 0
-681 -3537 0
-682 -3538 0
-683 -3539 0
-684 -3540 0
-709 -1633 0
-710 -1634 0
-711 -1635 0
-712 -1636 0
-777 -3897 0
-778 -3898 0
-779 -3899 0
-780 -3900 0
-789 -1353 0
-790 -1354 0
-791 -1355 0
-792 -1356 0
-805 -2369 0
-806 -2370 0
-807 -2371 0
-808 -2372 0
-829 -2845 0
-830 -2846 0
-831 -2847 0
-832 -2848 0
-853 -2673 0
-854 -2674 0
-855 -2675 0
-856 -2676 0
-1417 -1953 0
-1418 -1954 0
-1419 -1955 0
-1420 -1956 0
-1825 -3085 0
-1826 -3086 0
-1827 -3087 0
-1828 -3088 0
-2413 -2801 0
-2414 -2802 0
-2415 -2803 0
-2416 -2804 0
-2565 -2949 0
-2566 -2950 0
-2567 -2951 0
-2568 -2952 0
-2581 -3825 0
-2582 -3826 0
-2583 -3827 0
-2584 -3828 0
-2773 -3917 0
-2774 -3918 0
-2775 -3919 0
-2776 -3920 0
-3489 -3653 0
-3490 -3654 0
-3491 -3655 0
-3492 -3656 0
-5 -2985 0
-6 -2986 0
-7 -2987 0
-8 -2988 0
-17 -457 0
-18 -458 0
-19 -459 0
-20 -460 0
-21 -717 0
-22 -718 0
-23 -719 0
-24 -720 0
-61 -1785 0
-62 -1786 0
-63 -1787 0
-64 -1788 0
-113 -2037 0
-114 -2038 0
-115 -2039 0
-116 -2040 0
-161 -2897 0
-162 -2898 0
-163 -2899 0
-164 -2900 0
-169 -1753 0
-170 -1754 0
-171 -1755 0
-172 -1756 0
-185 -585 0
-186 -586 0
-187 -587 0
-188 -588 0
-229 -569 0
-230 -570 0
-231 -571 0
-232 -572 0
-305 -1857 0
-306 -1858 0
-307 -1859 0
-308 -1860 0
-373 -2813 0
-374 -2814 0
-375 -2815 0
-376 -2816 0
-501 -2497 0
-502 -2498 0
-503 -2499 0
-504 -2500 0
-561 -1893 0
-562 -1894 0
-563 -1895 0
-564 -1896 0
-593 -649 0
-594 -650 0
-595 -651 0
-596 -652 0
-641 -1821 0
-642 -1822 0
-643 -1823 0
-644 -1824 0
-753 -949 0
-754 -950 0
-755 -951 0
-756 -952 0
-761 -1085 0
-762 -1086 0
-763 -1087 0
-764 -1088 0
-773 -3217 0
-774 -3218 0
-775 -3219 0
-776 -3220 0
-801 -2417 0
-802 -2418 0
-803 -2419 0
-804 -2420 0
-933 -1321 0
-934 -1322 0
-935 -1323 0
-936 -1324 0
-1045 -1565 0
-1046 -1566 0
-1047 -1567 0
-1048 -1568 0
-1253 -3357 0
-1254 -3358 0
-1255 -3359 0
-1256 -3360 0
-1297 -2517 0
-1298 -2518 0
-1299 -2519 0
-1300 -2520 0
-1361 -1705 0
-1362 -1706 0
-1363 -1707 0
-1364 -1708 0
-1429 -3313 0
-1430 -3314 0
-1431 -3315 0
-1432 -3316 0
-1841 -1957 0
-1842 -1958 0
-1843 -1959 0
-1844 -1960 0
-1861 -2277 0
-1862 -2278 0
-1863 -2279 0
-1864 -2280 0
-2077 -2573 0
-2078 -2574 0
-2079 -2575 0
-2080 -2576 0
-3537 -3589 0
-3538 -3590 0
-3539 -3591 0
-3540 -3592 0
-1 -485 0
-2 -486 0
-3 -487 0
-4 -488 0
-105 -193 0
-106 -194 0
-107 -195 0
-108 -196 0
-189 -1913 0
-190 -1914 0
-191 -1915 0
-192 -1916 0
-345 -2721 0
-346 -2722 0
-347 -2723 0
-348 -2724 0
-393 -3205 0
-394 -3206 0
-395 -3207 0
-396 -3208 0
-593 -1809 0
-594 -1810 0
-595 -1811 0
-596 -1812 0
-649 -1625 0
-650 -1626 0
-651 -1627 0
-652 -1628 0
-741 -1069 0
-742 -1070 0
-743 -1071 0
-744 -1072 0
-837 -901 0
-838 -902 0
-839 -903 0
-840 -904 0
-905 -3481 0
-906 -3482 0
-907 -3483 0
-908 -3484 0
-1029 -2641 0
-1030 -2642 0
-1031 -2643 0
-1032 -2644 0
-1097 -1489 0
-1098 -1490 0
-1099 -1491 0
-1100 -1492 0
-1301 -3413 0
-1302 -3414 0
-1303 -3415 0
-1304 -3416 0
-1389 -2193 0
-1390 -2194 0
-1391 -2195 0
-1392 -2196 0
-1417 -2213 0
-1418 -2214 0
-1419 -2215 0
-1420 -2216 0
-1501 -1861 0
-1502 -1862 0
-1503 -1863 0
-1504 -1864 0
-1717 -2093 0
-1718 -2094 0
-1719 -2095 0
-1720 -2096 0
-1801 -2753 0
-1802 -2754 0
-1803 -2755 0
-1804 -2756 0
-1841 -1981 0
-1842 -1982 0
-1843 -1983 0
-1844 -1984 0
-1917 -2041 0
-1918 -2042 0
-1919 -2043 0
-1920 -2044 0
-2021 -3909 0
-2022 -3910 0
-2023 -3911 0
-2024 -3912 0
-2229 -2397 0
-2230 -2398 0
-2231 -2399 0
-2232 -2400 0
-2265 -2485 0
-2266 -2486 0
-2267 -2487 0
-2268 -2488 0
-2481 -3989 0
-2482 -3990 0
-2483 -3991 0
-2484 -3992 0
-2809 -3341 0
-2810 -3342 0
-2811 -3343 0
-2812 -3344 0
-3357 -4025 0
-3358 -4026 0
-3359 -4027 0
-3360 -4028 0
-81 -2893 0
-82 -2894 0
-83 -2895 0
-84 -2896 0
-117 -3981 0
-118 -3982 0
-119 -3983 0
-120 -3984 0
-217 -3873 0
-218 -3874 0
-219 -3875 0
-220 -3876 0
-229 -3733 0
-230 -3734 0
-231 -3735 0
-232 -3736 0
-417 -3761 0
-418 -3762 0
-419 -3763 0
-420 -3764 0
-437 -2401 0
-438 -2402 0
-439 -2403 0
-440 -2404 0
-653 -2709 0
-654 -2710 0
-655 -2711 0
-656 -2712 0
-669 -3181 0
-670 -3182 0
-671 -3183 0
-672 -3184 0
-693 -2365 0
-694 -2366 0
-695 -2367 0
-696 -2368 0
-761 -3025 0
-762 -3026 0
-763 -3027 0
-764 -3028 0
-769 -1189 0
-770 -1190 0
-771 -1191 0
-772 -1192 0
-881 -1877 0
-882 -1878 0
-883 -1879 0
-884 -1880 0
-921 -3517 0
-922 -3518 0
-923 -3519 0
-924 -3520 0
-1145 -3153 0
-1146 -3154 0
-1147 -3155 0
-1148 -3156 0
-1629 -2193 0
-1630 -2194 0
-1631 -2195 0
-1632 -2196 0
-2077 -3905 0
-2078 -3906 0
-2079 -3907 0
-2080 -3908 0
-2533 -2977 0
-2534 -2978 0
-2535 -2979 0
-2536 -2980 0
-2845 -2937 0
-2846 -2938 0
-2847 -2939 0
-2848 -2940 0
-3837 -3993 0
-3838 -3994 0
-3839 -3995 0
-3840 -3996 0
-45 -1313 0
-46 -1314 0
-47 -1315 0
-48 -1316 0
-53 -1653 0
-54 -1654 0
-55 -1655 0
-56 -1656 0
-57 -1677 0
-58 -1678 0
-59 -1679 0
-60 -1680 0
-141 -2905 0
-142 -2906 0
-143 -2907 0
-144 -2908 0
-161 -2545 0
-162 -2546 0
-163 -2547 0
-164 -2548 0
-229 -377 0
-230 -378 0
-231 -379 0
-232 -380 0
-257 -1173 0
-258 -1174 0
-259 -1175 0
-260 -1176 0
-405 -553 0
-406 -554 0
-407 -555 0
-408 -556 0
-409 -1089 0
-410 -1090 0
-411 -1091 0
-412 -1092 0
-621 -3621 0
-622 -3622 0
-623 -3623 0
-624 -3624 0
-933 -3997 0
-934 -3998 0
-935 -3999 0
-936 -4000 0
-941 -3177 0
-942 -3178 0
-943 -3179 0
-944 -3180 0
-1253 -3869 0
-1254 -3870 0
-1255 -3871 0
-1256 -3872 0
-1357 -3721 0
-1358 -3722 0
-1359 -3723 0
-1360 -3724 0
-1485 -1625 0
-1486 -1626 0
-1487 -1627 0
-1488 -1628 0
-2013 -2333 0
-2014 -2334 0
-2015 -2335 0
-2016 -2336 0
-2401 -3925 0
-2402 -3926 0
-2403 -3927 0
-2404 -3928 0
-3197 -3637 0
-3198 -3638 0
-3199 -3639 0
-3200 -3640 0
-3293 -3429 0
-3294 -3430 0
-3295 -3431 0
-3296 -3432 0
-3325 -3765 0
-3326 -3766 0
-3327 -3767 0
-3328 -3768 0
-3341 -3513 0
-3342 -3514 0
-3343 -3515 0
-3344 -3516 0
-3541 -4017 0
-3542 -4018 0
-3543 -4019 0
-3544 -4020 0
-69 -797 0
-70 -798 0
-71 -799 0
-72 -800 0
-73 -1749 0
-74 -1750 0
-75 -1751 0
-76 -1752 0
-77 -3853 0
-78 -3854 0
-79 -3855 0
-80 -3856 0
-81 -349 0
-82 -350 0
-83 -351 0
-84 -352 0
-109 -1705 0
-110 -1706 0
-111 -1707 0
-112 -1708 0
-117 -429 0
-118 -430 0
-119 -431 0
-120 -432 0
-141 -3597 0
-142 -3598 0
-143 -3599 0
-144 -3600 0
-157 -1145 0
-158 -1146 0
-159 -1147 0
-160 -1148 0
-165 -1361 0
-166 -1362 0
-167 -1363 0
-168 -1364 0
-177 -745 0
-178 -746 0
-179 -747 0
-180 -748 0
-197 -1585 0
-198 -1586 0
-199 -1587 0
-200 -1588 0
-213 -3485 0
-214 -3486 0
-215 -3487 0
-216 -3488 0
-217 -1133 0
-218 -1134 0
-219 -1135 0
-220 -1136 0
-345 -541 0
-346 -542 0
-347 -543 0
-348 -544 0
-389 -545 0
-390 -546 0
-391 -547 0
-392 -548 0
-761 -3985 0
-762 -3986 0
-763 -3987 0
-764 -3988 0
-1029 -1225 0
-1030 -1226 0
-1031 -1227 0
-1032 -1228 0
-1205 -2801 0
-1206 -2802 0
-1207 -2803 0
-1208 -2804 0
-1229 -1349 0
-1230 -1350 0
-1231 -1351 0
-1232 -1352 0
-1297 -1689 0
-1298 -1690 0
-1299 -1691 0
-1300 -1692 0
-1661 -4009 0
-1662 -4010 0
-1663 -4011 0
-1664 -4012 0
-1833 -3861 0
-1834 -3862 0
-1835 -3863 0
-1836 -3864 0
-1957 -3805 0
-1958 -3806 0
-1959 -3807 0
-1960 -3808 0
-2021 -2921 0
-2022 -2922 0
-2023 -2923 0
-2024 -2924 0
-2717 -3633 0
-2718 -3634 0
-2719 -3635 0
-2720 -3636 0
-3025 -3817 0
-3026 -3818 0
-3027 -3819 0
-3028 -3820 0
-3089 -3945 0
-3090 -3946 0
-3091 -3947 0
-3092 -3948 0
-3325 -3713 0
-3326 -3714 0
-3327 -3715 0
-3328 -3716 0
-245 -2241 0
-246 -2242 0
-247 -2243 0
-248 -2244 0
-305 -3713 0
-306 -3714 0
-307 -3715 0
-308 -3716 0
-377 -3745 0
-378 -3746 0
-379 -3747 0
-380 -3748 0
-409 -2741 0
-410 -2742 0
-411 -2743 0
-412 -2744 0
-437 -681 0
-438 -682 0
-439 -683 0
-440 -684 0
-573 -2041 0
-574 -2042 0
-575 -2043 0
-576 -2044 0
-793 -2949 0
-794 -2950 0
-795 -2951 0
-796 -2952 0
-821 -2069 0
-822 -2070 0
-823 -2071 0
-824 -2072 0
-1185 -2665 0
-1186 -2666 0
-1187 -2667 0
-1188 -2668 0
-1189 -3585 0
-1190 -3586 0
-1191 -3587 0
-1192 -3588 0
-1205 -3917 0
-1206 -3918 0
-1207 -3919 0
-1208 -3920 0
-1629 -3513 0
-1630 -3514 0
-1631 -3515 0
-1632 -3516 0
-2045 -3025 0
-2046 -3026 0
-2047 -3027 0
-2048 -3028 0
-2365 -3261 0
-2366 -3262 0
-2367 -3263 0
-2368 -3264 0
-2457 -2565 0
-2458 -2566 0
-2459 -2567 0
-2460 -2568 0
-2573 -2861 0
-2574 -2862 0
-2575 -2863 0
-2576 -2864 0
-2729 -3873 0
-2730 -3874 0
-2731 -3875 0
-2732 -3876 0
-17 -1693 0
-18 -1694 0
-19 -1695 0
-20 -1696 0
-21 -2953 0
-22 -2954 0
-23 -2955 0
-24 -2956 0
-73 -1325 0
-74 -1326 0
-75 -1327 0
-76 -1328 0
-109 -2693 0
-110 -2694 0
-111 -2695 0
-112 -2696 0
-117 -265 0
-118 -266 0
-119 -267 0
-120 -268 0
-121 -209 0
-122 -210 0
-123 -211 0
-124 -212 0
-197 -629 0
-198 -630 0
-199 -631 0
-200 -632 0
-213 -281 0
-214 -282 0
-215 -283 0
-216 -284 0
-217 -3537 0
-218 -3538 0
-219 -3539 0
-220 -3540 0
-229 -1209 0
-230 -1210 0
-231 -1211 0
-232 -1212 0
-317 -1117 0
-318 -1118 0
-319 -1119 0
-320 -1120 0
-321 -421 0
-322 -422 0
-323 -423 0
-324 -424 0
-337 -2673 0
-338 -2674 0
-339 -2675 0
-340 -2676 0
-533 -1265 0
-534 -1266 0
-535 -1267 0
-536 -1268 0
-565 -957 0
-566 -958 0
-567 -959 0
-568 -960 0
-901 -1013 0
-902 -1014 0
-903 -1015 0
-904 -1016 0
-965 -2745 0
-966 -2746 0
-967 -2747 0
-968 -2748 0
-1069 -1137 0
-1070 -1138 0
-1071 -1139 0
-1072 -1140 0
-1241 -1433 0
-1242 -1434 0
-1243 -1435 0
-1244 -1436 0
-1429 -3045 0
-1430 -3046 0
-1431 -3047 0
-1432 -3048 0
-1485 -1645 0
-1486 -1646 0
-1487 -1647 0
-1488 -1648 0
-1729 -1953 0
-1730 -1954 0
-1731 -1955 0
-1732 -1956 0
-1801 -2229 0
-1802 -2230 0
-1803 -2231 0
-1804 -2232 0
-2377 -2797 0
-2378 -2798 0
-2379 -2799 0
-2380 -2800 0
-3417 -3505 0
-3418 -3506 0
-3419 -3507 0
-3420 -3508 0
-3737 -3869 0
-3738 -3870 0
-3739 -3871 0
-3740 -3872 0
-93 -3405 0
-94 -3406 0
-95 -3407 0
-96 -3408 0
-321 -901 0
-322 -902 0
-323 -903 0
-324 -904 0
-421 -1013 0
-422 -1014 0
-423 -1015 0
-424 -1016 0
-481 -3401 0
-482 -3402 0
-483 -3403 0
-484 -3404 0
-497 -1789 0
-498 -1790 0
-499 -1791 0
-500 -1792 0
-501 -2265 0
-502 -2266 0
-503 -2267 0
-504 -2268 0
-761 -1229 0
-762 -1230 0
-763 -1231 0
-764 -1232 0
-909 -1489 0
-910 -1490 0
-911 -1491 0
-912 -1492 0
-933 -1189 0
-934 -1190 0
-935 -1191 0
-936 -1192 0
-985 -1029 0
-986 -1030 0
-987 -1031 0
-988 -1032 0
-1045 -1297 0
-1046 -1298 0
-1047 -1299 0
-1048 -1300 0
-1565 -2517 0
-1566 -2518 0
-1567 -2519 0
-1568 -2520 0
-2045 -3417 0
-2046 -3418 0
-2047 -3419 0
-2048 -3420 0
-2457 -2897 0
-2458 -2898 0
-2459 -2899 0
-2460 -2900 0
-2625 -3481 0
-2626 -3482 0
-2627 -3483 0
-2628 -3484 0
-2673 -3589 0
-2674 -3590 0
-2675 -3591 0
-2676 -3592 0
-3433 -4089 0
-3434 -4090 0
-3435 -4091 0
-3436 -4092 0
-77 -3861 0
-78 -3862 0
-79 -3863 0
-80 -3864 0
-141 -2093 0
-142 -2094 0
-143 -2095 0
-144 -2096 0
-165 -2705 0
-166 -2706 0
-167 -2707 0
-168 -2708 0
-197 -2721 0
-198 -2722 0
-199 -2723 0
-200 -2724 0
-681 -3397 0
-682 -3398 0
-683 -3399 0
-684 -3400 0
-733 -3989 0
-734 -3990 0
-735 -3991 0
-736 -3992 0
-813 -3189 0
-814 -3190 0
-815 -3191 0
-816 -3192 0
-821 -1633 0
-822 -1634 0
-823 -1635 0
-824 -1636 0
-1029 -2777 0
-1030 -2778 0
-1031 -2779 0
-1032 -2780 0
-1129 -3513 0
-1130 -3514 0
-1131 -3515 0
-1132 -3516 0
-1605 -2365 0
-1606 -2366 0
-1607 -2367 0
-1608 -2368 0
-1641 -3341 0
-1642 -3342 0
-1643 -3343 0
-1644 -3344 0
-1965 -2209 0
-1966 -2210 0
-1967 -2211 0
-1968 -2212 0
-2205 -2709 0
-2206 -2710 0
-2207 -2711 0
-2208 -2712 0
-2377 -2753 0
-2378 -2754 0
-2379 -2755 0
-2380 -2756 0
-2533 -3249 0
-2534 -3250 0
-2535 -3251 0
-2536 -3252 0
-2713 -4025 0
-2714 -4026 0
-2715 -4027 0
-2716 -4028 0
-2977 -3085 0
-2978 -3086 0
-2979 -3087 0
-2980 -3088 0
-3089 -3593 0
-3090 -3594 0
-3091 -3595 0
-3092 -3596 0
-17 -77 0
-18 -78 0
-19 -79 0
-20 -80 0
-45 -1125 0
-46 -1126 0
-47 -1127 0
-48 -1128 0
-49 -1445 0
-50 -1446 0
-51 -1447 0
-52 -1448 0
-197 -389 0
-198 -390 0
-199 -391 0
-200 -392 0
-229 -3809 0
-230 -3810 0
-231 -3811 0
-232 -3812 0
-345 -1877 0
-346 -1878 0
-347 -1879 0
-348 -1880 0
-377 -3517 0
-378 -3518 0
-379 -3519 0
-380 -3520 0
-537 -2561 0
-538 -2562 0
-539 -2563 0
-540 -2564 0
-541 -1357 0
-542 -1358 0
-543 -1359 0
-544 -1360 0
-669 -2909 0
-670 -2910 0
-671 -2911 0
-672 -2912 0
-709 -1513 0
-710 -1514 0
-711 -1515 0
-712 -1516 0
-733 -3009 0
-734 -3010 0
-735 -3011 0
-736 -3012 0
-761 -1429 0
-762 -1430 0
-763 -1431 0
-764 -1432 0
-769 -1013 0
-770 -1014 0
-771 -1015 0
-772 -1016 0
-865 -2401 0
-866 -2402 0
-867 -2403 0
-868 -2404 0
-949 -2913 0
-950 -2914 0
-951 -2915 0
-952 -2916 0
-1085 -3313 0
-1086 -3314 0
-1087 -3315 0
-1088 -3316 0
-1117 -1325 0
-1118 -1326 0
-1119 -1327 0
-1120 -1328 0
-1185 -1561 0
-1186 -1562 0
-1187 -1563 0
-1188 -1564 0
-1269 -1661 0
-1270 -1662 0
-1271 -1663 0
-1272 -1664 0
-1433 -3689 0
-1434 -3690 0
-1435 -3691 0
-1436 -3692 0
-1509 -3177 0
-1510 -3178 0
-1511 -3179 0
-1512 -3180 0
-1629 -2025 0
-1630 -2026 0
-1631 -2027 0
-1632 -2028 0
-1817 -2425 0
-1818 -2426 0
-1819 -2427 0
-1820 -2428 0
-2301 -2925 0
-2302 -2926 0
-2303 -2927 0
-2304 -2928 0
-3249 -3753 0
-3250 -3754 0
-3251 -3755 0
-3252 -3756 0
-3757 -4001 0
-3758 -4002 0
-3759 -4003 0
-3760 -4004 0
-65 -1677 0
-66 -1678 0
-67 -1679 0
-68 -1680 0
-69 -637 0
-70 -638 0
-71 -639 0
-72 -640 0
-81 -2989 0
-82 -2990 0
-83 -2991 0
-84 -2992 0
-141 -3601 0
-142 -3602 0
-143 -3603 0
-144 -3604 0
-165 -1285 0
-166 -1286 0
-167 -1287 0
-168 -1288 0
-201 -553 0
-202 -554 0
-203 -555 0
-204 -556 0
-217 -2869 0
-218 -2870 0
-219 -2871 0
-220 -2872 0
-289 -673 0
-290 -674 0
-291 -675 0
-292 -676 0
-337 -4005 0
-338 -4006 0
-339 -4007 0
-340 -4008 0
-477 -2713 0
-478 -2714 0
-479 -2715 0
-480 -2716 0
-529 -2077 0
-530 -2078 0
-531 -2079 0
-532 -2080 0
-833 -1185 0
-834 -1186 0
-835 -1187 0
-836 -1188 0
-841 -2897 0
-842 -2898 0
-843 -2899 0
-844 -2900 0
-1241 -3637 0
-1242 -3638 0
-1243 -3639 0
-1244 -3640 0
-2233 -3617 0
-2234 -3618 0
-2235 -3619 0
-2236 -3620 0
-2797 -3925 0
-2798 -3926 0
-2799 -3927 0
-2800 -3928 0
-2805 -3861 0
-2806 -3862 0
-2807 -3863 0
-2808 -3864 0
-3085 -3621 0
-3086 -3622 0
-3087 -3623 0
-3088 -3624 0
-45 -3085 0
-46 -3086 0
-47 -3087 0
-48 -3088 0
-69 -1825 0
-70 -1826 0
-71 -1827 0
-72 -1828 0
-81 -3129 0
-82 -3130 0
-83 -3131 0
-84 -3132 0
-157 -3489 0
-158 -3490 0
-159 -3491 0
-160 -3492 0
-317 -3485 0
-318 -3486 0
-319 -3487 0
-320 -3488 0
-337 -2753 0
-338 -2754 0
-339 -2755 0
-340 -2756 0
-345 -709 0
-346 -710 0
-347 -711 0
-348 -712 0
-497 -3597 0
-498 -3598 0
-499 -3599 0
-500 -3600 0
-597 -3805 0
-598 -3806 0
-599 -3807 0
-600 -3808 0
-629 -3741 0
-630 -3742 0
-631 -3743 0
-632 -3744 0
-669 -2533 0
-670 -2534 0
-671 -2535 0
-672 -2536 0
-701 -1913 0
-702 -1914 0
-703 -1915 0
-704 -1916 0
-813 -1145 0
-814 -1146 0
-815 -1147 0
-816 -1148 0
-989 -2485 0
-990 -2486 0
-991 -2487 0
-992 -2488 0
-1189 -1689 0
-1190 -1690 0
-1191 -1691 0
-1192 -1692 0
-1205 -3825 0
-1206 -3826 0
-1207 -3827 0
-1208 -3828 0
-1265 -1633 0
-1266 -1634 0
-1267 -1635 0
-1268 -1636 0
-1417 -3661 0
-1418 -3662 0
-1419 -3663 0
-1420 -3664 0
-1489 -1773 0
-1490 -1774 0
-1491 -1775 0
-1492 -1776 0
-1837 -2921 0
-1838 -2922 0
-1839 -2923 0
-1840 -2924 0
-2073 -3753 0
-2074 -3754 0
-2075 -3755 0
-2076 -3756 0
-2241 -3633 0
-2242 -3634 0
-2243 -3635 0
-2244 -3636 0
-2713 -3749 0
-2714 -3750 0
-2715 -3751 0
-2716 -3752 0
-3569 -3733 0
-3570 -3734 0
-3571 -3735 0
-3572 -3736 0
-3601 -4017 0
-3602 -4018 0
-3603 -4019 0
-3604 -4020 0
-17 -3445 0
-18 -3446 0
-19 -3447 0
-20 -3448 0
-109 -557 0
-110 -558 0
-111 -559 0
-112 -560 0
-113 -181 0
-114 -182 0
-115 -183 0
-116 -184 0
-117 -1121 0
-118 -1122 0
-119 -1123 0
-120 -1124 0
-197 -893 0
-198 -894 0
-199 -895 0
-200 -896 0
-229 -617 0
-230 -618 0
-231 -619 0
-232 -620 0
-245 -885 0
-246 -886 0
-247 -887 0
-248 -888 0
-269 -741 0
-270 -742 0
-271 -743 0
-272 -744 0
-417 -2361 0
-418 -2362 0
-419 -2363 0
-420 -2364 0
-505 -1429 0
-506 -1430 0
-507 -1431 0
-508 -1432 0
-537 -3745 0
-538 -3746 0
-539 -3747 0
-540 -3748 0
-573 -1077 0
-574 -1078 0
-575 -1079 0
-576 -1080 0
-641 -3421 0
-642 -3422 0
-643 -3423 0
-644 -3424 0
-853 -2565 0
-854 -2566 0
-855 -2567 0
-856 -2568 0
-1013 -1169 0
-1014 -1170 0
-1015 -1171 0
-1016 -1172 0
-1089 -1173 0
-1090 -1174 0
-1091 -1175 0
-1092 -1176 0
-1189 -1637 0
-1190 -1638 0
-1191 -1639 0
-1192 -1640 0
-1565 -2893 0
-1566 -2894 0
-1567 -2895 0
-1568 -2896 0
-1625 -2285 0
-1626 -2286 0
-1627 -2287 0
-1628 -2288 0
-1645 -3861 0
-1646 -3862 0
-1647 -3863 0
-1648 -3864 0
-1817 -2777 0
-1818 -2778 0
-1819 -2779 0
-1820 -2780 0
-1821 -2241 0
-1822 -2242 0
-1823 -2243 0
-1824 -2244 0
-1953 -3573 0
-1954 -3574 0
-1955 -3575 0
-1956 -3576 0
-2165 -3817 0
-2166 -3818 0
-2167 -3819 0
-2168 -3820 0
-2277 -3457 0
-2278 -3458 0
-2279 -3459 0
-2280 -3460 0
-2645 -3025 0
-2646 -3026 0
-2647 -3027 0
-2648 -3028 0
-2673 -2949 0
-2674 -2950 0
-2675 -2951 0
-2676 -2952 0
-2797 -3477 0
-2798 -3478 0
-2799 -3479 0
-2800 -3480 0
-2925 -4073 0
-2926 -4074 0
-2927 -4075 0
-2928 -4076 0
-3413 -3513 0
-3414 -3514 0
-3415 -3515 0
-3416 -3516 0
-3617 -3917 0
-3618 -3918 0
-3619 -3919 0
-3620 -3920 0
-61 -3741 0
-62 -3742 0
-63 -3743 0
-64 -3744 0
-73 -1721 0
-74 -1722 0
-75 -1723 0
-76 -1724 0
-101 -241 0
-102 -242 0
-103 -243 0
-104 -244 0
-105 -189 0
-106 -190 0
-107 -191 0
-108 -192 0
-169 -3625 0
-170 -3626 0
-171 -3627 0
-172 -3628 0
-193 -1913 0
-194 -1914 0
-195 -1915 0
-196 -1916 0
-217 -681 0
-218 -682 0
-219 -683 0
-220 -684 0
-269 -1301 0
-270 -1302 0
-271 -1303 0
-272 -1304 0
-337 -853 0
-338 -854 0
-339 -855 0
-340 -856 0
-465 -481 0
-466 -482 0
-467 -483 0
-468 -484 0
-717 -3721 0
-718 -3722 0
-719 -3723 0
-720 -3724 0
-901 -1337 0
-902 -1338 0
-903 -1339 0
-904 -1340 0
-1069 -3513 0
-1070 -3514 0
-1071 -3515 0
-1072 -3516 0
-1861 -2077 0
-1862 -2078 0
-1863 -2079 0
-1864 -2080 0
-1929 -4089 0
-1930 -4090 0
-1931 -4091 0
-1932 -4092 0
-2157 -2457 0
-2158 -2458 0
-2159 -2459 0
-2160 -2460 0
-2241 -2381 0
-2242 -2382 0
-2243 -2383 0
-2244 -2384 0
-2277 -2573 0
-2278 -2574 0
-2279 -2575 0
-2280 -2576 0
-2577 -4085 0
-2578 -4086 0
-2579 -4087 0
-2580 -4088 0
-2649 -3405 0
-2650 -3406 0
-2651 -3407 0
-2652 -3408 0
-2853 -4077 0
-2854 -4078 0
-2855 -4079 0
-2856 -4080 0
-2893 -3061 0
-2894 -3062 0
-2895 -3063 0
-2896 -3064 0
-2933 -3341 0
-2934 -3342 0
-2935 -3343 0
-2936 -3344 0
-3713 -4041 0
-3714 -4042 0
-3715 -4043 0
-3716 -4044 0
-81 -2777 0
-82 -2778 0
-83 -2779 0
-84 -2780 0
-117 -2641 0
-118 -2642 0
-119 -2643 0
-120 -2644 0
-141 -165 0
-142 -166 0
-143 -167 0
-144 -168 0
-157 -1029 0
-158 -1030 0
-159 -1031 0
-160 -1032 0
-245 -2845 0
-246 -2846 0
-247 -2847 0
-248 -2848 0
-489 -3185 0
-490 -3186 0
-491 -3187 0
-492 -3188 0
-1085 -1229 0
-1086 -1230 0
-1087 -1231 0
-1088 -1232 0
-1145 -1225 0
-1146 -1226 0
-1147 -1227 0
-1148 -1228 0
-1357 -2921 0
-1358 -2922 0
-1359 -2923 0
-1360 -2924 0
-1617 -2365 0
-1618 -2366 0
-1619 -2367 0
-1620 -2368 0
-1877 -2021 0
-1878 -2022 0
-1879 -2023 0
-1880 -2024 0
-2073 -3957 0
-2074 -3958 0
-2075 -3959 0
-2076 -3960 0
-2093 -2705 0
-2094 -2706 0
-2095 -2707 0
-2096 -2708 0
-2157 -2369 0
-2158 -2370 0
-2159 -2371 0
-2160 -2372 0
-2673 -3537 0
-2674 -3538 0
-2675 -3539 0
-2676 -3540 0
-2713 -3209 0
-2714 -3210 0
-2715 -3211 0
-2716 -3212 0
-2913 -3517 0
-2914 -3518 0
-2915 -3519 0
-2916 -3520 0
-49 -1573 0
-50 -1574 0
-51 -1575 0
-52 -1576 0
-53 -1381 0
-54 -1382 0
-55 -1383 0
-56 -1384 0
-61 -1633 0
-62 -1634 0
-63 -1635 0
-64 -1636 0
-141 -1717 0
-142 -1718 0
-143 -1719 0
-144 -1720 0
-157 -1769 0
-158 -1770 0
-159 -1771 0
-160 -1772 0
-161 -1577 0
-162 -1578 0
-163 -1579 0
-164 -1580 0
-197 -345 0
-198 -346 0
-199 -347 0
-200 -348 0
-321 -2161 0
-322 -2162 0
-323 -2163 0
-324 -2164 0
-337 -2881 0
-338 -2882 0
-339 -2883 0
-340 -2884 0
-389 -1877 0
-390 -1878 0
-391 -1879 0
-392 -1880 0
-421 -1745 0
-422 -1746 0
-423 -1747 0
-424 -1748 0
-545 -1357 0
-546 -1358 0
-547 -1359 0
-548 -1360 0
-733 -2481 0
-734 -2482 0
-735 -2483 0
-736 -2484 0
-1185 -1265 0
-1186 -1266 0
-1187 -1267 0
-1188 -1268 0
-1629 -2033 0
-1630 -2034 0
-1631 -2035 0
-1632 -2036 0
-1641 -2809 0
-1642 -2810 0
-1643 -2811 0
-1644 -2812 0
-1821 -1893 0
-1822 -1894 0
-1823 -1895 0
-1824 -1896 0
-2641 -2777 0
-2642 -2778 0
-2643 -2779 0
-2644 -2780 0
-2713 -3357 0
-2714 -3358 0
-2715 -3359 0
-2716 -3360 0
-3429 -3869 0
-3430 -3870 0
-3431 -3871 0
-3432 -3872 0
-5 -957 0
-6 -958 0
-7 -959 0
-8 -960 0
-17 -161 0
-18 -162 0
-19 -163 0
-20 -164 0
-21 -1077 0
-22 -1078 0
-23 -1079 0
-24 -1080 0
-45 -2073 0
-46 -2074 0
-47 -2075 0
-48 -2076 0
-49 -2041 0
-50 -2042 0
-51 -2043 0
-52 -2044 0
-61 -573 0
-62 -574 0
-63 -575 0
-64 -576 0
-69 -565 0
-70 -566 0
-71 -567 0
-72 -568 0
-81 -3461 0
-82 -3462 0
-83 -3463 0
-84 -3464 0
-201 -777 0
-202 -778 0
-203 -779 0
-204 -780 0
-221 -433 0
-222 -434 0
-223 -435 0
-224 -436 0
-345 -881 0
-346 -882 0
-347 -883 0
-348 -884 0
-377 -921 0
-378 -922 0
-379 -923 0
-380 -924 0
-405 -1337 0
-406 -1338 0
-407 -1339 0
-408 -1340 0
-449 -681 0
-450 -682 0
-451 -683 0
-452 -684 0
-457 -2897 0
-458 -2898 0
-459 -2899 0
-460 -2900 0
-485 -1945 0
-486 -1946 0
-487 -1947 0
-488 -1948 0
-773 -2777 0
-774 -2778 0
-775 -2779 0
-776 -2780 0
-965 -2369 0
-966 -2370 0
-967 -2371 0
-968 -2372 0
-1297 -2425 0
-1298 -2426 0
-1299 -2427 0
-1300 -2428 0
-1433 -3897 0
-1434 -3898 0
-1435 -3899 0
-1436 -3900 0
-2305 -2705 0
-2306 -2706 0
-2307 -2707 0
-2308 -2708 0
-3085 -3753 0
-3086 -3754 0
-3087 -3755 0
-3088 -3756 0
-3569 -4001 0
-3570 -4002 0
-3571 -4003 0
-3572 -4004 0
-3733 -3809 0
-3734 -3810 0
-3735 -3811 0
-3736 -3812 0
-141 -3993 0
-142 -3994 0
-143 -3995 0
-144 -3996 0
-201 -405 0
-202 -406 0
-203 -407 0
-204 -408 0
-245 -2713 0
-246 -2714 0
-247 -2715 0
-248 -2716 0
-373 -2077 0
-374 -2078 0
-375 -2079 0
-376 -2080 0
-385 -3401 0
-386 -3402 0
-387 -3403 0
-388 -3404 0
-509 -1913 0
-510 -1914 0
-511 -1915 0
-512 -1916 0
-561 -3913 0
-562 -3914 0
-563 -3915 0
-564 -3916 0
-641 -3929 0
-642 -3930 0
-643 -3931 0
-644 -3932 0
-669 -3757 0
-670 -3758 0
-671 -3759 0
-672 -3760 0
-777 -1337 0
-778 -1338 0
-779 -1339 0
-780 -1340 0
-1037 -2921 0
-1038 -2922 0
-1039 -2923 0
-1040 -2924 0
-1145 -2413 0
-1146 -2414 0
-1147 -2415 0
-1148 -2416 0
-1241 -3197 0
-1242 -3198 0
-1243 -3199 0
-1244 -3200 0
-1821 -2833 0
-1822 -2834 0
-1823 -2835 0
-1824 -2836 0
-1917 -2021 0
-1918 -2022 0
-1919 -2023 0
-1920 -2024 0
-1953 -3617 0
-1954 -3618 0
-1955 -3619 0
-1956 -3620 0
-2041 -3909 0
-2042 -3910 0
-2043 -3911 0
-2044 -3912 0
-2073 -2925 0
-2074 -2926 0
-2075 -2927 0
-2076 -2928 0
-2365 -2541 0
-2366 -2542 0
-2367 -2543 0
-2368 -2544 0
-2377 -3345 0
-2378 -3346 0
-2379 -3347 0
-2380 -3348 0
-2845 -3209 0
-2846 -3210 0
-2847 -3211 0
-2848 -3212 0
-2905 -3601 0
-2906 -3602 0
-2907 -3603 0
-2908 -3604 0
-2909 -4001 0
-2910 -4002 0
-2911 -4003 0
-2912 -4004 0
-2977 -3733 0
-2978 -3734 0
-2979 -3735 0
-2980 -3736 0
-3181 -3569 0
-3182 -3570 0
-3183 -3571 0
-3184 -3572 0
-3573 -3917 0
-3574 -3918 0
-3575 -3919 0
-3576 -3920 0
-3653 -3825 0
-3654 -3826 0
-3655 -3827 0
-3656 -3828 0
-3673 -3973 0
-3674 -3974 0
-3675 -3975 0
-3676 -3976 0
-5 -501 0
-6 -502 0
-7 -503 0
-8 -504 0
-17 -593 0
-18 -594 0
-19 -595 0
-20 -596 0
-69 -2101 0
-70 -2102 0
-71 -2103 0
-72 -2104 0
-73 -121 0
-74 -122 0
-75 -123 0
-76 -124 0
-201 -3661 0
-202 -3662 0
-203 -3663 0
-204 -3664 0
-229 -3697 0
-230 -3698 0
-231 -3699 0
-232 -3700 0
-245 -3245 0
-246 -3246 0
-247 -3247 0
-248 -3248 0
-349 -3129 0
-350 -3130 0
-351 -3131 0
-352 -3132 0
-457 -649 0
-458 -650 0
-459 -651 0
-460 -652 0
-541 -709 0
-542 -710 0
-543 -711 0
-544 -712 0
-597 -1957 0
-598 -1958 0
-599 -1959 0
-600 -1960 0
-769 -1817 0
-770 -1818 0
-771 -1819 0
-772 -1820 0
-789 -3221 0
-790 -3222 0
-791 -3223 0
-792 -3224 0
-797 -1825 0
-798 -1826 0
-799 -1827 0
-800 -1828 0
-933 -1045 0
-934 -1046 0
-935 -1047 0
-936 -1048 0
-1013 -2425 0
-1014 -2426 0
-1015 -2427 0
-1016 -2428 0
-1145 -3489 0
-1146 -3490 0
-1147 -3491 0
-1148 -3492 0
-1157 -1773 0
-1158 -1774 0
-1159 -1775 0
-1160 -1776 0
-1189 -1297 0
-1190 -1298 0
-1191 -1299 0
-1192 -1300 0
-1321 -1565 0
-1322 -1566 0
-1323 -1567 0
-1324 -1568 0
-1357 -1513 0
-1358 -1514 0
-1359 -1515 0
-1360 -1516 0
-1557 -1801 0
-1558 -1802 0
-1559 -1803 0
-1560 -1804 0
-1837 -2021 0
-1838 -2022 0
-1839 -2023 0
-1840 -2024 0
-2193 -4017 0
-2194 -4018 0
-2195 -4019 0
-2196 -4020 0
-2241 -2717 0
-2242 -2718 0
-2243 -2719 0
-2244 -2720 0
-2413 -2581 0
-2414 -2582 0
-2415 -2583 0
-2416 -2584 0
-2665 -3765 0
-2666 -3766 0
-2667 -3767 0
-2668 -3768 0
-2801 -3825 0
-2802 -3826 0
-2803 -3827 0
-2804 -3828 0
-2925 -4061 0
-2926 -4062 0
-2927 -4063 0
-2928 -4064 0
-93 -481 0
-94 -482 0
-95 -483 0
-96 -484 0
-201 -1145 0
-202 -1146 0
-203 -1147 0
-204 -1148 0
-213 -3737 0
-214 -3738 0
-215 -3739 0
-216 -3740 0
-217 -2369 0
-218 -2370 0
-219 -2371 0
-220 -2372 0
-281 -3869 0
-282 -3870 0
-283 -3871 0
-284 -3872 0
-337 -2157 0
-338 -2158 0
-339 -2159 0
-340 -2160 0
-405 -2413 0
-406 -2414 0
-407 -2415 0
-408 -2416 0
-853 -2457 0
-854 -2458 0
-855 -2459 0
-856 -2460 0
-917 -1029 0
-918 -1030 0
-919 -1031 0
-920 -1032 0
-989 -1489 0
-990 -1490 0
-991 -1491 0
-992 -1492 0
-1021 -1861 0
-1022 -1862 0
-1023 -1863 0
-1024 -1864 0
-1189 -2801 0
-1190 -2802 0
-1191 -2803 0
-1192 -2804 0
-1297 -3825 0
-1298 -3826 0
-1299 -3827 0
-1300 -3828 0
-1305 -2193 0
-1306 -2194 0
-1307 -2195 0
-1308 -2196 0
-1353 -1909 0
-1354 -1910 0
-1355 -1911 0
-1356 -1912 0
-2013 -3749 0
-2014 -3750 0
-2015 -3751 0
-2016 -3752 0
-2561 -3517 0
-2562 -3518 0
-2563 -3519 0
-2564 -3520 0
-3017 -3721 0
-3018 -3722 0
-3019 -3723 0
-3020 -3724 0
-3325 -3725 0
-3326 -3726 0
-3327 -3727 0
-3328 -3728 0
-3349 -4085 0
-3350 -4086 0
-3351 -4087 0
-3352 -4088 0
-45 -69 0
-46 -70 0
-47 -71 0
-48 -72 0
-793 -2457 0
-794 -2458 0
-795 -2459 0
-796 -2460 0
-953 -1877 0
-954 -1878 0
-955 -1879 0
-956 -1880 0
-1013 -1337 0
-1014 -1338 0
-1015 -1339 0
-1016 -1340 0
-1137 -3513 0
-1138 -3514 0
-1139 -3515 0
-1140 -3516 0
-1249 -2365 0
-1250 -2366 0
-1251 -2367 0
-1252 -2368 0
-1325 -1721 0
-1326 -1722 0
-1327 -1723 0
-1328 -1724 0
-1405 -2573 0
-1406 -2574 0
-1407 -2575 0
-1408 -2576 0
-2705 -2997 0
-2706 -2998 0
-2707 -2999 0
-2708 -3000 0
-2729 -3345 0
-2730 -3346 0
-2731 -3347 0
-2732 -3348 0
-3089 -3165 0
-3090 -3166 0
-3091 -3167 0
-3092 -3168 0
-53 -1609 0
-54 -1610 0
-55 -1611 0
-56 -1612 0
-57 -1437 0
-58 -1438 0
-59 -1439 0
-60 -1440 0
-73 -3185 0
-74 -3186 0
-75 -3187 0
-76 -3188 0
-109 -165 0
-110 -166 0
-111 -167 0
-112 -168 0
-121 -1981 0
-122 -1982 0
-123 -1983 0
-124 -1984 0
-141 -2441 0
-142 -2442 0
-143 -2443 0
-144 -2444 0
-157 -985 0
-158 -986 0
-159 -987 0
-160 -988 0
-269 -417 0
-270 -418 0
-271 -419 0
-272 -420 0
-337 -549 0
-338 -550 0
-339 -551 0
-340 -552 0
-657 -4081 0
-658 -4082 0
-659 -4083 0
-660 -4084 0
-741 -2361 0
-742 -2362 0
-743 -2363 0
-744 -2364 0
-1357 -3625 0
-1358 -3626 0
-1359 -3627 0
-1360 -3628 0
-1393 -3869 0
-1394 -3870 0
-1395 -3871 0
-1396 -3872 0
-1625 -1809 0
-1626 -1810 0
-1627 -1811 0
-1628 -1812 0
-1885 -2997 0
-1886 -2998 0
-1887 -2999 0
-1888 -3000 0
-2009 -2509 0
-2010 -2510 0
-2011 -2511 0
-2012 -2512 0
-2133 -3817 0
-2134 -3818 0
-2135 -3819 0
-2136 -3820 0
-2241 -3421 0
-2242 -3422 0
-2243 -3423 0
-2244 -3424 0
-2289 -3177 0
-2290 -3178 0
-2291 -3179 0
-2292 -3180 0
-2713 -3293 0
-2714 -3294 0
-2715 -3295 0
-2716 -3296 0
-2833 -3929 0
-2834 -3930 0
-2835 -3931 0
-2836 -3932 0
-49 -2069 0
-50 -2070 0
-51 -2071 0
-52 -2072 0
-53 -3805 0
-54 -3806 0
-55 -3807 0
-56 -3808 0
-61 -821 0
-62 -822 0
-63 -823 0
-64 -824 0
-65 -2593 0
-66 -2594 0
-67 -2595 0
-68 -2596 0
-73 -597 0
-74 -598 0
-75 -599 0
-76 -600 0
-81 -1769 0
-82 -1770 0
-83 -1771 0
-84 -1772 0
-117 -157 0
-118 -158 0
-119 -159 0
-120 -160 0
-121 -1957 0
-122 -1958 0
-123 -1959 0
-124 -1960 0
-217 -493 0
-218 -494 0
-219 -495 0
-220 -496 0
-337 -2917 0
-338 -2918 0
-339 -2919 0
-340 -2920 0
-389 -2973 0
-390 -2974 0
-391 -2975 0
-392 -2976 0
-429 -1145 0
-430 -1146 0
-431 -1147 0
-432 -1148 0
-1329 -3477 0
-1330 -3478 0
-1331 -3479 0
-1332 -3480 0
-1353 -3181 0
-1354 -3182 0
-1355 -3183 0
-1356 -3184 0
-2633 -2893 0
-2634 -2894 0
-2635 -2895 0
-2636 -2896 0
-49 -3989 0
-50 -3990 0
-51 -3991 0
-52 -3992 0
-77 -161 0
-78 -162 0
-79 -163 0
-80 -164 0
-185 -2777 0
-186 -2778 0
-187 -2779 0
-188 -2780 0
-353 -3401 0
-354 -3402 0
-355 -3403 0
-356 -3404 0
-361 -2369 0
-362 -2370 0
-363 -2371 0
-364 -2372 0
-425 -681 0
-426 -682 0
-427 -683 0
-428 -684 0
-1101 -3089 0
-1102 -3090 0
-1103 -3091 0
-1104 -3092 0
-1125 -2073 0
-1126 -2074 0
-1127 -2075 0
-1128 -2076 0
-1297 -1817 0
-1298 -1818 0
-1299 -1819 0
-1300 -1820 0
-1305 -3413 0
-1306 -3414 0
-1307 -3415 0
-1308 -3416 0
-1445 -2041 0
-1446 -2042 0
-1447 -2043 0
-1448 -2044 0
-1449 -2721 0
-1450 -2722 0
-1451 -2723 0
-1452 -2724 0
-1565 -2209 0
-1566 -2210 0
-1567 -2211 0
-1568 -2212 0
-2069 -2481 0
-2070 -2482 0
-2071 -2483 0
-2072 -2484 0
-2373 -2641 0
-2374 -2642 0
-2375 -2643 0
-2376 -2644 0
-2573 -3173 0
-2574 -3174 0
-2575 -3175 0
-2576 -3176 0
-2729 -2733 0
-2730 -2734 0
-2731 -2735 0
-2732 -2736 0
-3085 -3249 0
-3086 -3250 0
-3087 -3251 0
-3088 -3252 0
-3197 -3953 0
-3198 -3954 0
-3199 -3955 0
-3200 -3956 0
-3569 -3757 0
-3570 -3758 0
-3571 -3759 0
-3572 -3760 0
-3689 -3897 0
-3690 -3898 0
-3691 -3899 0
-3692 -3900 0
-3817 -3985 0
-3818 -3986 0
-3819 -3987 0
-3820 -3988 0
-21 -169 0
-22 -170 0
-23 -171 0
-24 -172 0
-49 -3713 0
-50 -3714 0
-51 -3715 0
-52 -3716 0
-61 -305 0
-62 -306 0
-63 -307 0
-64 -308 0
-65 -113 0
-66 -114 0
-67 -115 0
-68 -116 0
-81 -2161 0
-82 -2162 0
-83 -2163 0
-84 -2164 0
-109 -1053 0
-110 -1054 0
-111 -1055 0
-112 -1056 0
-117 -321 0
-118 -322 0
-119 -323 0
-120 -324 0
-121 -2001 0
-122 -2002 0
-123 -2003 0
-124 -2004 0
-185 -3081 0
-186 -3082 0
-187 -3083 0
-188 -3084 0
-245 -477 0
-246 -478 0
-247 -479 0
-248 -480 0
-265 -421 0
-266 -422 0
-267 -423 0
-268 -424 0
-281 -3913 0
-282 -3914 0
-283 -3915 0
-284 -3916 0
-373 -529 0
-374 -530 0
-375 -531 0
-376 -532 0
-717 -1753 0
-718 -1754 0
-719 -1755 0
-720 -1756 0
-1069 -2933 0
-1070 -2934 0
-1071 -2935 0
-1072 -2936 0
-1129 -1641 0
-1130 -1642 0
-1131 -1643 0
-1132 -1644 0
-1385 -4045 0
-1386 -4046 0
-1387 -4047 0
-1388 -4048 0
-1393 -3357 0
-1394 -3358 0
-1395 -3359 0
-1396 -3360 0
-1457 -1645 0
-1458 -1646 0
-1459 -1647 0
-1460 -1648 0
-1489 -2925 0
-1490 -2926 0
-1491 -2927 0
-1492 -2928 0
-1757 -2021 0
-1758 -2022 0
-1759 -2023 0
-1760 -2024 0
-1785 -1857 0
-1786 -1858 0
-1787 -1859 0
-1788 -1860 0
-1953 -2233 0
-1954 -2234 0
-1955 -2235 0
-1956 -2236 0
-2181 -3193 0
-2182 -3194 0
-2183 -3195 0
-2184 -3196 0
-3517 -3809 0
-3518 -3810 0
-3519 -3811 0
-3520 -3812 0
-3601 -3993 0
-3602 -3994 0
-3603 -3995 0
-3604 -3996 0
-49 -3765 0
-50 -3766 0
-51 -3767 0
-52 -3768 0
-53 -121 0
-54 -122 0
-55 -123 0
-56 -124 0
-169 -3725 0
-170 -3726 0
-171 -3727 0
-172 -3728 0
-201 -1417 0
-202 -1418 0
-203 -1419 0
-204 -1420 0
-257 -1429 0
-258 -1430 0
-259 -1431 0
-260 -1432 0
-409 -505 0
-410 -506 0
-411 -507 0
-412 -508 0
-589 -1861 0
-590 -1862 0
-591 -1863 0
-592 -1864 0
-1037 -1917 0
-1038 -1918 0
-1039 -1919 0
-1040 -1920 0
-1157 -1489 0
-1158 -1490 0
-1159 -1491 0
-1160 -1492 0
-1189 -3617 0
-1190 -3618 0
-1191 -3619 0
-1192 -3620 0
-1241 -1729 0
-1242 -1730 0
-1243 -1731 0
-1244 -1732 0
-1357 -1877 0
-1358 -1878 0
-1359 -1879 0
-1360 -1880 0
-1433 -1953 0
-1434 -1954 0
-1435 -1955 0
-1436 -1956 0
-1557 -2917 0
-1558 -2918 0
-1559 -2919 0
-1560 -2920 0
-1609 -1981 0
-1610 -1982 0
-1611 -1983 0
-1612 -1984 0
-1637 -3917 0
-1638 -3918 0
-1639 -3919 0
-1640 -3920 0
-1825 -2101 0
-1826 -2102 0
-1827 -2103 0
-1828 -2104 0
-2017 -2665 0
-2018 -2666 0
-2019 -2667 0
-2020 -2668 0
-2165 -2645 0
-2166 -2646 0
-2167 -2647 0
-2168 -2648 0
-2189 -3737 0
-2190 -3738 0
-2191 -3739 0
-2192 -3740 0
-2193 -3601 0
-2194 -3602 0
-2195 -3603 0
-2196 -3604 0
-3801 -4077 0
-3802 -4078 0
-3803 -4079 0
-3804 -4080 0
-49 -61 0
-50 -62 0
-51 -63 0
-52 -64 0
-53 -3749 0
-54 -3750 0
-55 -3751 0
-56 -3752 0
-73 -2713 0
-74 -2714 0
-75 -2715 0
-76 -2716 0
-185 -3825 0
-186 -3826 0
-187 -3827 0
-188 -3828 0
-217 -2733 0
-218 -2734 0
-219 -2735 0
-220 -2736 0
-425 -2401 0
-426 -2402 0
-427 -2403 0
-428 -2404 0
-449 -865 0
-450 -866 0
-451 -867 0
-452 -868 0
-849 -2209 0
-850 -2210 0
-851 -2211 0
-852 -2212 0
-1417 -1965 0
-1418 -1966 0
-1419 -1967 0
-1420 -1968 0
-1573 -1633 0
-1574 -1634 0
-1575 -1635 0
-1576 -1636 0
-1637 -2801 0
-1638 -2802 0
-1639 -2803 0
-1640 -2804 0
-1721 -2569 0
-1722 -2570 0
-1723 -2571 0
-1724 -2572 0
-2181 -3517 0
-2182 -3518 0
-2183 -3519 0
-2184 -3520 0
-2485 -2637 0
-2486 -2638 0
-2487 -2639 0
-2488 -2640 0
-2717 -3245 0
-2718 -3246 0
-2719 -3247 0
-2720 -3248 0
-3177 -3473 0
-3178 -3474 0
-3179 -3475 0
-3180 -3476 0
-3185 -3293 0
-3186 -3294 0
-3187 -3295 0
-3188 -3296 0
-3193 -3809 0
-3194 -3810 0
-3195 -3811 0
-3196 -3812 0
33 0
94 0
139 0
