p cnf 228 594
1 2 3 0
4 5 6 0
7 8 9 0
10 11 12 0
13 14 15 0
16 17 18 0
19 20 21 0
22 23 24 0
25 26 27 0
28 29 30 0
31 32 33 0
34 35 36 0
37 38 39 0
40 41 42 0
43 44 45 0
46 47 48 0
49 50 51 0
52 53 54 0
55 56 57 0
58 59 60 0
61 62 63 0
64 65 66 0
67 68 69 0
70 71 72 0
73 74 75 0
76 77 78 0
79 80 81 0
82 83 84 0
85 86 87 0
88 89 90 0
91 92 93 0
94 95 96 0
97 98 99 0
100 101 102 0
103 104 105 0
106 107 108 0
109 110 111 0
112 113 114 0
115 116 117 0
118 119 120 0
121 122 123 0
124 125 126 0
127 128 129 0
130 131 132 0
133 134 135 0
136 137 138 0
139 140 141 0
142 143 144 0
145 146 147 0
148 149 150 0
151 152 153 0
154 155 156 0
157 158 159 0
160 161 162 0
163 164 165 0
166 167 168 0
169 170 171 0
172 173 174 0
175 176 177 0
178 179 180 0
181 182 183 0
184 185 186 0
187 188 189 0
190 191 192 0
193 194 195 0
196 197 198 0
199 200 201 0
202 203 204 0
205 206 207 0
208 209 210 0
211 212 213 0
214 215 216 0
217 218 219 0
220 221 222 0
223 224 225 0
226 227 228 0
-1 -4 0
-2 -5 0
-3 -6 0
-1 -13 0
-2 -14 0
-3 -15 0
-1 -58 0
-2 -59 0
-3 -60 0
-4 -25 0
-5 -26 0
-6 -27 0
-4 -73 0
-5 -74 0
-6 -75 0
-4 -97 0
-5 -98 0
-6 -99 0
-4 -136 0
-5 -137 0
-6 -138 0
-4 -142 0
-5 -143 0
-6 -144 0
-4 -175 0
-5 -176 0
-6 -177 0
-7 -25 0
-8 -26 0
-9 -27 0
-7 -112 0
-8 -113 0
-9 -114 0
-7 -193 0
-8 -194 0
-9 -195 0
-7 -211 0
-8 -212 0
-9 -213 0
-10 -25 0
-11 -26 0
-12 -27 0
-10 -28 0
-11 -29 0
-12 -30 0
-10 -67 0
-11 -68 0
-12 -69 0
-10 -91 0
-11 -92 0
-12 -93 0
-13 -16 0
-14 -17 0
-15 -18 0
-13 -22 0
-14 -23 0
-15 -24 0
-13 -25 0
-14 -26 0
-15 -27 0
-13 -34 0
-14 -35 0
-15 -36 0
-13 -103 0
-14 -104 0
-15 -105 0
-13 -181 0
-14 -182 0
-15 -183 0
-13 -217 0
-14 -218 0
-15 -219 0
-16 -31 0
-17 -32 0
-18 -33 0
-16 -73 0
-17 -74 0
-18 -75 0
-16 -142 0
-17 -143 0
-18 -144 0
-19 -25 0
-20 -26 0
-21 -27 0
-19 -43 0
-20 -44 0
-21 -45 0
-19 -133 0
-20 -134 0
-21 -135 0
-19 -199 0
-20 -200 0
-21 -201 0
-22 -40 0
-23 -41 0
-24 -42 0
-22 -88 0
-23 -89 0
-24 -90 0
-22 -148 0
-23 -149 0
-24 -150 0
-25 -31 0
-26 -32 0
-27 -33 0
-25 -37 0
-26 -38 0
-27 -39 0
-25 -40 0
-26 -41 0
-27 -42 0
-25 -46 0
-26 -47 0
-27 -48 0
-25 -49 0
-26 -50 0
-27 -51 0
-25 -70 0
-26 -71 0
-27 -72 0
-25 -79 0
-26 -80 0
-27 -81 0
-25 -82 0
-26 -83 0
-27 -84 0
-25 -85 0
-26 -86 0
-27 -87 0
-25 -100 0
-26 -101 0
-27 -102 0
-25 -124 0
-26 -125 0
-27 -126 0
-25 -145 0
-26 -146 0
-27 -147 0
-25 -151 0
-26 -152 0
-27 -153 0
-25 -166 0
-26 -167 0
-27 -168 0
-25 -169 0
-26 -170 0
-27 -171 0
-25 -172 0
-26 -173 0
-27 -174 0
-25 -202 0
-26 -203 0
-27 -204 0
-25 -208 0
-26 -209 0
-27 -210 0
-25 -220 0
-26 -221 0
-27 -222 0
-25 -223 0
-26 -224 0
-27 -225 0
-25 -226 0
-26 -227 0
-27 -228 0
-28 -46 0
-29 -47 0
-30 -48 0
-28 -55 0
-29 -56 0
-30 -57 0
-28 -112 0
-29 -113 0
-30 -114 0
-28 -193 0
-29 -194 0
-30 -195 0
-31 -121 0
-32 -122 0
-33 -123 0
-34 -46 0
-35 -47 0
-36 -48 0
-34 -52 0
-35 -53 0
-36 -54 0
-34 -64 0
-35 -65 0
-36 -66 0
-34 -109 0
-35 -110 0
-36 -111 0
-34 -115 0
-35 -116 0
-36 -117 0
-37 -130 0
-38 -131 0
-39 -132 0
-37 -187 0
-38 -188 0
-39 -189 0
-40 -160 0
-41 -161 0
-42 -162 0
-40 -214 0
-41 -215 0
-42 -216 0
-43 -49 0
-44 -50 0
-45 -51 0
-43 -130 0
-44 -131 0
-45 -132 0
-43 -187 0
-44 -188 0
-45 -189 0
-46 -61 0
-47 -62 0
-48 -63 0
-46 -139 0
-47 -140 0
-48 -141 0
-46 -184 0
-47 -185 0
-48 -186 0
-49 -127 0
-50 -128 0
-51 -129 0
-49 -163 0
-50 -164 0
-51 -165 0
-49 -190 0
-50 -191 0
-51 -192 0
-52 -61 0
-53 -62 0
-54 -63 0
-52 -70 0
-53 -71 0
-54 -72 0
-52 -85 0
-53 -86 0
-54 -87 0
-55 -61 0
-56 -62 0
-57 -63 0
-55 -91 0
-56 -92 0
-57 -93 0
-55 -106 0
-56 -107 0
-57 -108 0
-58 -70 0
-59 -71 0
-60 -72 0
-58 -97 0
-59 -98 0
-60 -99 0
-58 -145 0
-59 -146 0
-60 -147 0
-61 -100 0
-62 -101 0
-63 -102 0
-61 -118 0
-62 -119 0
-63 -120 0
-64 -79 0
-65 -80 0
-66 -81 0
-64 -103 0
-65 -104 0
-66 -105 0
-64 -145 0
-65 -146 0
-66 -147 0
-67 -70 0
-68 -71 0
-69 -72 0
-67 -106 0
-68 -107 0
-69 -108 0
-70 -73 0
-71 -74 0
-72 -75 0
-70 -76 0
-71 -77 0
-72 -78 0
-70 -109 0
-71 -110 0
-72 -111 0
-70 -112 0
-71 -113 0
-72 -114 0
-70 -118 0
-71 -119 0
-72 -120 0
-73 -121 0
-74 -122 0
-75 -123 0
-76 -154 0
-77 -155 0
-78 -156 0
-76 -157 0
-77 -158 0
-78 -159 0
-79 -154 0
-80 -155 0
-81 -156 0
-82 -148 0
-83 -149 0
-84 -150 0
-82 -157 0
-83 -158 0
-84 -159 0
-85 -88 0
-86 -89 0
-87 -90 0
-85 -94 0
-86 -95 0
-87 -96 0
-85 -178 0
-86 -179 0
-87 -180 0
-88 -154 0
-89 -155 0
-90 -156 0
-91 -100 0
-92 -101 0
-93 -102 0
-91 -109 0
-92 -110 0
-93 -111 0
-91 -199 0
-92 -200 0
-93 -201 0
-94 -103 0
-95 -104 0
-96 -105 0
-94 -157 0
-95 -158 0
-96 -159 0
-97 -118 0
-98 -119 0
-99 -120 0
-100 -130 0
-101 -131 0
-102 -132 0
-103 -211 0
-104 -212 0
-105 -213 0
-106 -118 0
-107 -119 0
-108 -120 0
-106 -178 0
-107 -179 0
-108 -180 0
-106 -217 0
-107 -218 0
-108 -219 0
-109 -130 0
-110 -131 0
-111 -132 0
-109 -181 0
-110 -182 0
-111 -183 0
-109 -220 0
-110 -221 0
-111 -222 0
-112 -139 0
-113 -140 0
-114 -141 0
-112 -181 0
-113 -182 0
-114 -183 0
-115 -145 0
-116 -146 0
-117 -147 0
-115 -148 0
-116 -149 0
-117 -150 0
-115 -151 0
-116 -152 0
-117 -153 0
-115 -184 0
-116 -185 0
-117 -186 0
-115 -196 0
-116 -197 0
-117 -198 0
-118 -121 0
-119 -122 0
-120 -123 0
-118 -190 0
-119 -191 0
-120 -192 0
-121 -133 0
-122 -134 0
-123 -135 0
-121 -202 0
-122 -203 0
-123 -204 0
-124 -136 0
-125 -137 0
-126 -138 0
-124 -193 0
-125 -194 0
-126 -195 0
-127 -145 0
-128 -146 0
-129 -147 0
-127 -217 0
-128 -218 0
-129 -219 0
-130 -163 0
-131 -164 0
-132 -165 0
-133 -166 0
-134 -167 0
-135 -168 0
-133 -214 0
-134 -215 0
-135 -216 0
-136 -139 0
-137 -140 0
-138 -141 0
-136 -205 0
-137 -206 0
-138 -207 0
-139 -175 0
-140 -176 0
-141 -177 0
-139 -208 0
-140 -209 0
-141 -210 0
-142 -217 0
-143 -218 0
-144 -219 0
-145 -211 0
-146 -212 0
-147 -213 0
-148 -214 0
-149 -215 0
-150 -216 0
-148 -220 0
-149 -221 0
-150 -222 0
-151 -160 0
-152 -161 0
-153 -162 0
-154 -223 0
-155 -224 0
-156 -225 0
-157 -223 0
-158 -224 0
-159 -225 0
-160 -163 0
-161 -164 0
-162 -165 0
-163 -169 0
-164 -170 0
-165 -171 0
-163 -193 0
-164 -194 0
-165 -195 0
-166 -196 0
-167 -197 0
-168 -198 0
-169 -205 0
-170 -206 0
-171 -207 0
-172 -175 0
-173 -176 0
-174 -177 0
-172 -187 0
-173 -188 0
-174 -189 0
-175 -199 0
-176 -200 0
-177 -201 0
-178 -226 0
-179 -227 0
-180 -228 0
-181 -223 0
-182 -224 0
-183 -225 0
-184 -214 0
-185 -215 0
-186 -216 0
-187 -196 0
-188 -197 0
-189 -198 0
-187 -199 0
-188 -200 0
-189 -201 0
-190 -202 0
-191 -203 0
-192 -204 0
-193 -205 0
-194 -206 0
-195 -207 0
-196 -208 0
-197 -209 0
-198 -210 0
-199 -220 0
-200 -221 0
-201 -222 0
-202 -214 0
-203 -215 0
-204 -216 0
-205 -208 0
-206 -209 0
-207 -210 0
-217 -226 0
-218 -227 0
-219 -228 0
1 0
5 0
