p cnf 1407 4101
1 2 3 0
4 5 6 0
7 8 9 0
10 11 12 0
13 14 15 0
16 17 18 0
19 20 21 0
22 23 24 0
25 26 27 0
28 29 30 0
31 32 33 0
34 35 36 0
37 38 39 0
40 41 42 0
43 44 45 0
46 47 48 0
49 50 51 0
52 53 54 0
55 56 57 0
58 59 60 0
61 62 63 0
64 65 66 0
67 68 69 0
70 71 72 0
73 74 75 0
76 77 78 0
79 80 81 0
82 83 84 0
85 86 87 0
88 89 90 0
91 92 93 0
94 95 96 0
97 98 99 0
100 101 102 0
103 104 105 0
106 107 108 0
109 110 111 0
112 113 114 0
115 116 117 0
118 119 120 0
121 122 123 0
124 125 126 0
127 128 129 0
130 131 132 0
133 134 135 0
136 137 138 0
139 140 141 0
142 143 144 0
145 146 147 0
148 149 150 0
151 152 153 0
154 155 156 0
157 158 159 0
160 161 162 0
163 164 165 0
166 167 168 0
169 170 171 0
172 173 174 0
175 176 177 0
178 179 180 0
181 182 183 0
184 185 186 0
187 188 189 0
190 191 192 0
193 194 195 0
196 197 198 0
199 200 201 0
202 203 204 0
205 206 207 0
208 209 210 0
211 212 213 0
214 215 216 0
217 218 219 0
220 221 222 0
223 224 225 0
226 227 228 0
229 230 231 0
232 233 234 0
235 236 237 0
238 239 240 0
241 242 243 0
244 245 246 0
247 248 249 0
250 251 252 0
253 254 255 0
256 257 258 0
259 260 261 0
262 263 264 0
265 266 267 0
268 269 270 0
271 272 273 0
274 275 276 0
277 278 279 0
280 281 282 0
283 284 285 0
286 287 288 0
289 290 291 0
292 293 294 0
295 296 297 0
298 299 300 0
301 302 303 0
304 305 306 0
307 308 309 0
310 311 312 0
313 314 315 0
316 317 318 0
319 320 321 0
322 323 324 0
325 326 327 0
328 329 330 0
331 332 333 0
334 335 336 0
337 338 339 0
340 341 342 0
343 344 345 0
346 347 348 0
349 350 351 0
352 353 354 0
355 356 357 0
358 359 360 0
361 362 363 0
364 365 366 0
367 368 369 0
370 371 372 0
373 374 375 0
376 377 378 0
379 380 381 0
382 383 384 0
385 386 387 0
388 389 390 0
391 392 393 0
394 395 396 0
397 398 399 0
400 401 402 0
403 404 405 0
406 407 408 0
409 410 411 0
412 413 414 0
415 416 417 0
418 419 420 0
421 422 423 0
424 425 426 0
427 428 429 0
430 431 432 0
433 434 435 0
436 437 438 0
439 440 441 0
442 443 444 0
445 446 447 0
448 449 450 0
451 452 453 0
454 455 456 0
457 458 459 0
460 461 462 0
463 464 465 0
466 467 468 0
469 470 471 0
472 473 474 0
475 476 477 0
478 479 480 0
481 482 483 0
484 485 486 0
487 488 489 0
490 491 492 0
493 494 495 0
496 497 498 0
499 500 501 0
502 503 504 0
505 506 507 0
508 509 510 0
511 512 513 0
514 515 516 0
517 518 519 0
520 521 522 0
523 524 525 0
526 527 528 0
529 530 531 0
532 533 534 0
535 536 537 0
538 539 540 0
541 542 543 0
544 545 546 0
547 548 549 0
550 551 552 0
553 554 555 0
556 557 558 0
559 560 561 0
562 563 564 0
565 566 567 0
568 569 570 0
571 572 573 0
574 575 576 0
577 578 579 0
580 581 582 0
583 584 585 0
586 587 588 0
589 590 591 0
592 593 594 0
595 596 597 0
598 599 600 0
601 602 603 0
604 605 606 0
607 608 609 0
610 611 612 0
613 614 615 0
616 617 618 0
619 620 621 0
622 623 624 0
625 626 627 0
628 629 630 0
631 632 633 0
634 635 636 0
637 638 639 0
640 641 642 0
643 644 645 0
646 647 648 0
649 650 651 0
652 653 654 0
655 656 657 0
658 659 660 0
661 662 663 0
664 665 666 0
667 668 669 0
670 671 672 0
673 674 675 0
676 677 678 0
679 680 681 0
682 683 684 0
685 686 687 0
688 689 690 0
691 692 693 0
694 695 696 0
697 698 699 0
700 701 702 0
703 704 705 0
706 707 708 0
709 710 711 0
712 713 714 0
715 716 717 0
718 719 720 0
721 722 723 0
724 725 726 0
727 728 729 0
730 731 732 0
733 734 735 0
736 737 738 0
739 740 741 0
742 743 744 0
745 746 747 0
748 749 750 0
751 752 753 0
754 755 756 0
757 758 759 0
760 761 762 0
763 764 765 0
766 767 768 0
769 770 771 0
772 773 774 0
775 776 777 0
778 779 780 0
781 782 783 0
784 785 786 0
787 788 789 0
790 791 792 0
793 794 795 0
796 797 798 0
799 800 801 0
802 803 804 0
805 806 807 0
808 809 810 0
811 812 813 0
814 815 816 0
817 818 819 0
820 821 822 0
823 824 825 0
826 827 828 0
829 830 831 0
832 833 834 0
835 836 837 0
838 839 840 0
841 842 843 0
844 845 846 0
847 848 849 0
850 851 852 0
853 854 855 0
856 857 858 0
859 860 861 0
862 863 864 0
865 866 867 0
868 869 870 0
871 872 873 0
874 875 876 0
877 878 879 0
880 881 882 0
883 884 885 0
886 887 888 0
889 890 891 0
892 893 894 0
895 896 897 0
898 899 900 0
901 902 903 0
904 905 906 0
907 908 909 0
910 911 912 0
913 914 915 0
916 917 918 0
919 920 921 0
922 923 924 0
925 926 927 0
928 929 930 0
931 932 933 0
934 935 936 0
937 938 939 0
940 941 942 0
943 944 945 0
946 947 948 0
949 950 951 0
952 953 954 0
955 956 957 0
958 959 960 0
961 962 963 0
964 965 966 0
967 968 969 0
970 971 972 0
973 974 975 0
976 977 978 0
979 980 981 0
982 983 984 0
985 986 987 0
988 989 990 0
991 992 993 0
994 995 996 0
997 998 999 0
1000 1001 1002 0
1003 1004 1005 0
1006 1007 1008 0
1009 1010 1011 0
1012 1013 1014 0
1015 1016 1017 0
1018 1019 1020 0
1021 1022 1023 0
1024 1025 1026 0
1027 1028 1029 0
1030 1031 1032 0
1033 1034 1035 0
1036 1037 1038 0
1039 1040 1041 0
1042 1043 1044 0
1045 1046 1047 0
1048 1049 1050 0
1051 1052 1053 0
1054 1055 1056 0
1057 1058 1059 0
1060 1061 1062 0
1063 1064 1065 0
1066 1067 1068 0
1069 1070 1071 0
1072 1073 1074 0
1075 1076 1077 0
1078 1079 1080 0
1081 1082 1083 0
1084 1085 1086 0
1087 1088 1089 0
1090 1091 1092 0
1093 1094 1095 0
1096 1097 1098 0
1099 1100 1101 0
1102 1103 1104 0
1105 1106 1107 0
1108 1109 1110 0
1111 1112 1113 0
1114 1115 1116 0
1117 1118 1119 0
1120 1121 1122 0
1123 1124 1125 0
1126 1127 1128 0
1129 1130 1131 0
1132 1133 1134 0
1135 1136 1137 0
1138 1139 1140 0
1141 1142 1143 0
1144 1145 1146 0
1147 1148 1149 0
1150 1151 1152 0
1153 1154 1155 0
1156 1157 1158 0
1159 1160 1161 0
1162 1163 1164 0
1165 1166 1167 0
1168 1169 1170 0
1171 1172 1173 0
1174 1175 1176 0
1177 1178 1179 0
1180 1181 1182 0
1183 1184 1185 0
1186 1187 1188 0
1189 1190 1191 0
1192 1193 1194 0
1195 1196 1197 0
1198 1199 1200 0
1201 1202 1203 0
1204 1205 1206 0
1207 1208 1209 0
1210 1211 1212 0
1213 1214 1215 0
1216 1217 1218 0
1219 1220 1221 0
1222 1223 1224 0
1225 1226 1227 0
1228 1229 1230 0
1231 1232 1233 0
1234 1235 1236 0
1237 1238 1239 0
1240 1241 1242 0
1243 1244 1245 0
1246 1247 1248 0
1249 1250 1251 0
1252 1253 1254 0
1255 1256 1257 0
1258 1259 1260 0
1261 1262 1263 0
1264 1265 1266 0
1267 1268 1269 0
1270 1271 1272 0
1273 1274 1275 0
1276 1277 1278 0
1279 1280 1281 0
1282 1283 1284 0
1285 1286 1287 0
1288 1289 1290 0
1291 1292 1293 0
1294 1295 1296 0
1297 1298 1299 0
1300 1301 1302 0
1303 1304 1305 0
1306 1307 1308 0
1309 1310 1311 0
1312 1313 1314 0
1315 1316 1317 0
1318 1319 1320 0
1321 1322 1323 0
1324 1325 1326 0
1327 1328 1329 0
1330 1331 1332 0
1333 1334 1335 0
1336 1337 1338 0
1339 1340 1341 0
1342 1343 1344 0
1345 1346 1347 0
1348 1349 1350 0
1351 1352 1353 0
1354 1355 1356 0
1357 1358 1359 0
1360 1361 1362 0
1363 1364 1365 0
1366 1367 1368 0
1369 1370 1371 0
1372 1373 1374 0
1375 1376 1377 0
1378 1379 1380 0
1381 1382 1383 0
1384 1385 1386 0
1387 1388 1389 0
1390 1391 1392 0
1393 1394 1395 0
1396 1397 1398 0
1399 1400 1401 0
1402 1403 1404 0
1405 1406 1407 0
-1 -1183 0
-2 -1184 0
-3 -1185 0
-1 -73 0
-2 -74 0
-3 -75 0
-1 -76 0
-2 -77 0
-3 -78 0
-1 -1327 0
-2 -1328 0
-3 -1329 0
-4 -1258 0
-5 -1259 0
-6 -1260 0
-4 -103 0
-5 -104 0
-6 -105 0
-4 -100 0
-5 -101 0
-6 -102 0
-7 -1261 0
-8 -1262 0
-9 -1263 0
-7 -250 0
-8 -251 0
-9 -252 0
-7 -1393 0
-8 -1394 0
-9 -1395 0
-10 -1138 0
-11 -1139 0
-12 -1140 0
-10 -73 0
-11 -74 0
-12 -75 0
-10 -1282 0
-11 -1283 0
-12 -1284 0
-10 -1084 0
-11 -1085 0
-12 -1086 0
-10 -1144 0
-11 -1145 0
-12 -1146 0
-10 -1189 0
-11 -1190 0
-12 -1191 0
-10 -136 0
-11 -137 0
-12 -138 0
-10 -1072 0
-11 -1073 0
-12 -1074 0
-13 -1390 0
-14 -1391 0
-15 -1392 0
-13 -133 0
-14 -134 0
-15 -135 0
-13 -178 0
-14 -179 0
-15 -180 0
-13 -100 0
-14 -101 0
-15 -102 0
-16 -1261 0
-17 -1262 0
-18 -1263 0
-16 -136 0
-17 -137 0
-18 -138 0
-16 -1405 0
-17 -1406 0
-18 -1407 0
-19 -73 0
-20 -74 0
-21 -75 0
-19 -232 0
-20 -233 0
-21 -234 0
-19 -982 0
-20 -983 0
-21 -984 0
-19 -967 0
-20 -968 0
-21 -969 0
-22 -1354 0
-23 -1355 0
-24 -1356 0
-22 -976 0
-23 -977 0
-24 -978 0
-22 -76 0
-23 -77 0
-24 -78 0
-22 -232 0
-23 -233 0
-24 -234 0
-22 -217 0
-23 -218 0
-24 -219 0
-22 -118 0
-23 -119 0
-24 -120 0
-25 -223 0
-26 -224 0
-27 -225 0
-25 -73 0
-26 -74 0
-27 -75 0
-25 -1330 0
-26 -1331 0
-27 -1332 0
-25 -250 0
-26 -251 0
-27 -252 0
-25 -124 0
-26 -125 0
-27 -126 0
-28 -226 0
-29 -227 0
-30 -228 0
-28 -1081 0
-29 -1082 0
-30 -1083 0
-28 -76 0
-29 -77 0
-30 -78 0
-28 -244 0
-29 -245 0
-30 -246 0
-28 -121 0
-29 -122 0
-30 -123 0
-31 -37 0
-32 -38 0
-33 -39 0
-31 -1174 0
-32 -1175 0
-33 -1176 0
-31 -133 0
-32 -134 0
-33 -135 0
-31 -136 0
-32 -137 0
-33 -138 0
-31 -40 0
-32 -41 0
-33 -42 0
-31 -1150 0
-32 -1151 0
-33 -1152 0
-31 -34 0
-32 -35 0
-33 -36 0
-34 -1339 0
-35 -1340 0
-36 -1341 0
-34 -1141 0
-35 -1142 0
-36 -1143 0
-34 -445 0
-35 -446 0
-36 -447 0
-34 -1120 0
-35 -1121 0
-36 -1122 0
-34 -49 0
-35 -50 0
-36 -51 0
-34 -1153 0
-35 -1154 0
-36 -1155 0
-34 -217 0
-35 -218 0
-36 -219 0
-37 -1141 0
-38 -1142 0
-39 -1143 0
-37 -1084 0
-38 -1085 0
-39 -1086 0
-37 -1123 0
-38 -1124 0
-39 -1125 0
-37 -52 0
-38 -53 0
-39 -54 0
-37 -448 0
-38 -449 0
-39 -450 0
-37 -1267 0
-38 -1268 0
-39 -1269 0
-37 -214 0
-38 -215 0
-39 -216 0
-40 -226 0
-41 -227 0
-42 -228 0
-40 -451 0
-41 -452 0
-42 -453 0
-40 -52 0
-41 -53 0
-42 -54 0
-40 -1159 0
-41 -1160 0
-42 -1161 0
-43 -979 0
-44 -980 0
-45 -981 0
-43 -112 0
-44 -113 0
-45 -114 0
-43 -1342 0
-44 -1343 0
-45 -1344 0
-43 -289 0
-44 -290 0
-45 -291 0
-43 -1333 0
-44 -1334 0
-45 -1335 0
-46 -49 0
-47 -50 0
-48 -51 0
-46 -514 0
-47 -515 0
-48 -516 0
-46 -1324 0
-47 -1325 0
-48 -1326 0
-49 -196 0
-50 -197 0
-51 -198 0
-49 -205 0
-50 -206 0
-51 -207 0
-49 -553 0
-50 -554 0
-51 -555 0
-52 -271 0
-53 -272 0
-54 -273 0
-52 -442 0
-53 -443 0
-54 -444 0
-52 -199 0
-53 -200 0
-54 -201 0
-52 -202 0
-53 -203 0
-54 -204 0
-52 -553 0
-53 -554 0
-54 -555 0
-55 -1396 0
-56 -1397 0
-57 -1398 0
-55 -73 0
-56 -74 0
-57 -75 0
-55 -445 0
-56 -446 0
-57 -447 0
-55 -334 0
-56 -335 0
-57 -336 0
-58 -970 0
-59 -971 0
-60 -972 0
-58 -1378 0
-59 -1379 0
-60 -1380 0
-58 -76 0
-59 -77 0
-60 -78 0
-58 -451 0
-59 -452 0
-60 -453 0
-58 -1198 0
-59 -1199 0
-60 -1200 0
-58 -988 0
-59 -989 0
-60 -990 0
-61 -232 0
-62 -233 0
-63 -234 0
-61 -250 0
-62 -251 0
-63 -252 0
-61 -1096 0
-62 -1097 0
-63 -1098 0
-61 -1357 0
-62 -1358 0
-63 -1359 0
-64 -160 0
-65 -161 0
-66 -162 0
-64 -1222 0
-65 -1223 0
-66 -1224 0
-64 -337 0
-65 -338 0
-66 -339 0
-64 -1129 0
-65 -1130 0
-66 -1131 0
-67 -1294 0
-68 -1295 0
-69 -1296 0
-67 -163 0
-68 -164 0
-69 -165 0
-67 -349 0
-68 -350 0
-69 -351 0
-70 -973 0
-71 -974 0
-72 -975 0
-70 -76 0
-71 -77 0
-72 -78 0
-70 -475 0
-71 -476 0
-72 -477 0
-73 -436 0
-74 -437 0
-75 -438 0
-73 -547 0
-74 -548 0
-75 -549 0
-73 -553 0
-74 -554 0
-75 -555 0
-73 -475 0
-74 -476 0
-75 -477 0
-73 -481 0
-74 -482 0
-75 -483 0
-76 -220 0
-77 -221 0
-78 -222 0
-76 -274 0
-77 -275 0
-78 -276 0
-76 -433 0
-77 -434 0
-78 -435 0
-76 -79 0
-77 -80 0
-78 -81 0
-76 -553 0
-77 -554 0
-78 -555 0
-76 -478 0
-77 -479 0
-78 -480 0
-76 -484 0
-77 -485 0
-78 -486 0
-76 -556 0
-77 -557 0
-78 -558 0
-79 -1075 0
-80 -1076 0
-81 -1077 0
-79 -481 0
-80 -482 0
-81 -483 0
-82 -85 0
-83 -86 0
-84 -87 0
-82 -511 0
-83 -512 0
-84 -513 0
-82 -1348 0
-83 -1349 0
-84 -1350 0
-85 -247 0
-86 -248 0
-87 -249 0
-85 -124 0
-86 -125 0
-87 -126 0
-85 -94 0
-86 -95 0
-87 -96 0
-85 -631 0
-86 -632 0
-87 -633 0
-85 -553 0
-86 -554 0
-87 -555 0
-85 -334 0
-86 -335 0
-87 -336 0
-88 -115 0
-89 -116 0
-90 -117 0
-88 -121 0
-89 -122 0
-90 -123 0
-88 -628 0
-89 -629 0
-90 -630 0
-88 -109 0
-89 -110 0
-90 -111 0
-88 -553 0
-89 -554 0
-90 -555 0
-88 -340 0
-89 -341 0
-90 -342 0
-91 -103 0
-92 -104 0
-93 -105 0
-91 -556 0
-92 -557 0
-93 -558 0
-91 -544 0
-92 -545 0
-93 -546 0
-91 -1090 0
-92 -1091 0
-93 -1092 0
-91 -631 0
-92 -632 0
-93 -633 0
-91 -1069 0
-92 -1070 0
-93 -1071 0
-94 -547 0
-95 -548 0
-96 -549 0
-94 -1345 0
-95 -1346 0
-96 -1347 0
-94 -634 0
-95 -635 0
-96 -636 0
-94 -967 0
-95 -968 0
-96 -969 0
-97 -232 0
-98 -233 0
-99 -234 0
-97 -1309 0
-98 -1310 0
-99 -1311 0
-97 -349 0
-98 -350 0
-99 -351 0
-97 -1336 0
-98 -1337 0
-99 -1338 0
-97 -1234 0
-98 -1235 0
-99 -1236 0
-100 -238 0
-101 -239 0
-102 -240 0
-100 -637 0
-101 -638 0
-102 -639 0
-100 -553 0
-101 -554 0
-102 -555 0
-103 -235 0
-104 -236 0
-105 -237 0
-103 -118 0
-104 -119 0
-105 -120 0
-103 -127 0
-104 -128 0
-105 -129 0
-103 -634 0
-104 -635 0
-105 -636 0
-103 -553 0
-104 -554 0
-105 -555 0
-103 -343 0
-104 -344 0
-105 -345 0
-103 -355 0
-104 -356 0
-105 -357 0
-106 -1258 0
-107 -1259 0
-108 -1260 0
-106 -1216 0
-107 -1217 0
-108 -1218 0
-106 -1255 0
-107 -1256 0
-108 -1257 0
-106 -241 0
-107 -242 0
-108 -243 0
-106 -1336 0
-107 -1337 0
-108 -1338 0
-106 -352 0
-107 -353 0
-108 -354 0
-109 -970 0
-110 -971 0
-111 -972 0
-109 -637 0
-110 -638 0
-111 -639 0
-109 -556 0
-110 -557 0
-111 -558 0
-109 -1003 0
-110 -1004 0
-111 -1005 0
-109 -565 0
-110 -566 0
-111 -567 0
-109 -988 0
-110 -989 0
-111 -990 0
-112 -553 0
-113 -554 0
-114 -555 0
-112 -265 0
-113 -266 0
-114 -267 0
-115 -973 0
-116 -974 0
-117 -975 0
-115 -1249 0
-116 -1250 0
-117 -1251 0
-115 -1264 0
-116 -1265 0
-117 -1266 0
-115 -655 0
-116 -656 0
-117 -657 0
-118 -664 0
-119 -665 0
-120 -666 0
-118 -652 0
-119 -653 0
-120 -654 0
-118 -433 0
-119 -434 0
-120 -435 0
-121 -658 0
-122 -659 0
-123 -660 0
-121 -433 0
-122 -434 0
-123 -435 0
-121 -667 0
-122 -668 0
-123 -669 0
-124 -1078 0
-125 -1079 0
-126 -1080 0
-124 -436 0
-125 -437 0
-126 -438 0
-124 -661 0
-125 -662 0
-126 -663 0
-127 -1075 0
-128 -1076 0
-129 -1077 0
-127 -1252 0
-128 -1253 0
-129 -1254 0
-127 -661 0
-128 -662 0
-129 -663 0
-130 -133 0
-131 -134 0
-132 -135 0
-130 -1048 0
-131 -1049 0
-132 -1050 0
-130 -544 0
-131 -545 0
-132 -546 0
-130 -1069 0
-131 -1070 0
-132 -1071 0
-133 -214 0
-134 -215 0
-135 -216 0
-133 -223 0
-134 -224 0
-135 -225 0
-133 -679 0
-134 -680 0
-135 -681 0
-133 -553 0
-134 -554 0
-135 -555 0
-136 -217 0
-137 -218 0
-138 -219 0
-136 -226 0
-137 -227 0
-138 -228 0
-136 -682 0
-137 -683 0
-138 -684 0
-136 -811 0
-137 -812 0
-138 -813 0
-136 -553 0
-137 -554 0
-138 -555 0
-139 -295 0
-140 -296 0
-141 -297 0
-139 -385 0
-140 -386 0
-141 -387 0
-139 -148 0
-140 -149 0
-141 -150 0
-139 -289 0
-140 -290 0
-141 -291 0
-139 -379 0
-140 -380 0
-141 -381 0
-139 -370 0
-140 -371 0
-141 -372 0
-142 -166 0
-143 -167 0
-144 -168 0
-142 -373 0
-143 -374 0
-144 -375 0
-142 -1207 0
-143 -1208 0
-144 -1209 0
-142 -298 0
-143 -299 0
-144 -300 0
-142 -388 0
-143 -389 0
-144 -390 0
-142 -145 0
-143 -146 0
-144 -147 0
-142 -1087 0
-143 -1088 0
-144 -1089 0
-142 -1054 0
-143 -1055 0
-144 -1056 0
-142 -1222 0
-143 -1223 0
-144 -1224 0
-142 -292 0
-143 -293 0
-144 -294 0
-145 -280 0
-146 -281 0
-147 -282 0
-145 -1186 0
-146 -1187 0
-147 -1188 0
-145 -307 0
-146 -308 0
-147 -309 0
-145 -1000 0
-146 -1001 0
-147 -1002 0
-145 -1147 0
-146 -1148 0
-147 -1149 0
-145 -391 0
-146 -392 0
-147 -393 0
-145 -301 0
-146 -302 0
-147 -303 0
-145 -364 0
-146 -365 0
-147 -366 0
-145 -184 0
-146 -185 0
-147 -186 0
-148 -994 0
-149 -995 0
-150 -996 0
-148 -277 0
-149 -278 0
-150 -279 0
-148 -1294 0
-149 -1295 0
-150 -1296 0
-148 -1210 0
-149 -1211 0
-150 -1212 0
-148 -310 0
-149 -311 0
-150 -312 0
-148 -304 0
-149 -305 0
-150 -306 0
-148 -382 0
-149 -383 0
-150 -384 0
-148 -367 0
-149 -368 0
-150 -369 0
-151 -1297 0
-152 -1298 0
-153 -1299 0
-151 -1303 0
-152 -1304 0
-153 -1305 0
-151 -163 0
-152 -164 0
-153 -165 0
-151 -511 0
-152 -512 0
-153 -513 0
-151 -1093 0
-152 -1094 0
-153 -1095 0
-151 -1288 0
-152 -1289 0
-153 -1290 0
-151 -1324 0
-152 -1325 0
-153 -1326 0
-154 -1303 0
-155 -1304 0
-156 -1305 0
-154 -160 0
-155 -161 0
-156 -162 0
-154 -1381 0
-155 -1382 0
-156 -1383 0
-154 -1306 0
-155 -1307 0
-156 -1308 0
-154 -514 0
-155 -515 0
-156 -516 0
-154 -1228 0
-155 -1229 0
-156 -1230 0
-154 -1132 0
-155 -1133 0
-156 -1134 0
-154 -1324 0
-155 -1325 0
-156 -1326 0
-157 -160 0
-158 -161 0
-159 -162 0
-157 -535 0
-158 -536 0
-159 -537 0
-157 -1372 0
-158 -1373 0
-159 -1374 0
-157 -1201 0
-158 -1202 0
-159 -1203 0
-160 -187 0
-161 -188 0
-162 -189 0
-160 -316 0
-161 -317 0
-162 -318 0
-160 -328 0
-161 -329 0
-162 -330 0
-160 -193 0
-161 -194 0
-162 -195 0
-160 -553 0
-161 -554 0
-162 -555 0
-160 -412 0
-161 -413 0
-162 -414 0
-163 -313 0
-164 -314 0
-165 -315 0
-163 -190 0
-164 -191 0
-165 -192 0
-163 -331 0
-164 -332 0
-165 -333 0
-163 -553 0
-164 -554 0
-165 -555 0
-166 -397 0
-167 -398 0
-168 -399 0
-166 -1147 0
-167 -1148 0
-168 -1149 0
-166 -418 0
-167 -419 0
-168 -420 0
-166 -1090 0
-167 -1091 0
-168 -1092 0
-166 -337 0
-167 -338 0
-168 -339 0
-169 -631 0
-170 -632 0
-171 -633 0
-169 -445 0
-170 -446 0
-171 -447 0
-169 -679 0
-170 -680 0
-171 -681 0
-169 -250 0
-170 -251 0
-171 -252 0
-169 -1069 0
-170 -1070 0
-171 -1071 0
-172 -1276 0
-173 -1277 0
-174 -1278 0
-172 -628 0
-173 -629 0
-174 -630 0
-172 -244 0
-173 -245 0
-174 -246 0
-172 -682 0
-173 -683 0
-174 -684 0
-172 -448 0
-173 -449 0
-174 -450 0
-175 -1255 0
-176 -1256 0
-177 -1257 0
-175 -1345 0
-176 -1346 0
-177 -1347 0
-175 -337 0
-176 -338 0
-177 -339 0
-175 -406 0
-176 -407 0
-177 -408 0
-178 -970 0
-179 -971 0
-180 -972 0
-178 -1099 0
-179 -1100 0
-180 -1101 0
-178 -637 0
-179 -638 0
-180 -639 0
-178 -451 0
-179 -452 0
-180 -453 0
-178 -679 0
-179 -680 0
-180 -681 0
-178 -241 0
-179 -242 0
-180 -243 0
-181 -1099 0
-182 -1100 0
-183 -1101 0
-181 -232 0
-182 -233 0
-183 -234 0
-181 -682 0
-182 -683 0
-183 -684 0
-181 -454 0
-182 -455 0
-183 -456 0
-181 -634 0
-182 -635 0
-183 -636 0
-181 -967 0
-182 -968 0
-183 -969 0
-184 -1087 0
-185 -1088 0
-186 -1089 0
-184 -424 0
-185 -425 0
-186 -426 0
-184 -406 0
-185 -407 0
-186 -408 0
-184 -352 0
-185 -353 0
-186 -354 0
-187 -619 0
-188 -620 0
-189 -621 0
-187 -1366 0
-188 -1367 0
-189 -1368 0
-187 -976 0
-188 -977 0
-189 -978 0
-187 -208 0
-188 -209 0
-189 -210 0
-187 -364 0
-188 -365 0
-189 -366 0
-190 -1081 0
-191 -1082 0
-192 -1083 0
-190 -211 0
-191 -212 0
-192 -213 0
-190 -370 0
-191 -371 0
-192 -372 0
-193 -373 0
-194 -374 0
-195 -375 0
-193 -1330 0
-194 -1331 0
-195 -1332 0
-193 -208 0
-194 -209 0
-195 -210 0
-193 -625 0
-194 -626 0
-195 -627 0
-196 -817 0
-197 -818 0
-198 -819 0
-196 -1279 0
-197 -1280 0
-198 -1281 0
-196 -1144 0
-197 -1145 0
-198 -1146 0
-196 -1231 0
-197 -1232 0
-198 -1233 0
-196 -1138 0
-197 -1139 0
-198 -1140 0
-199 -1204 0
-200 -1205 0
-201 -1206 0
-199 -823 0
-200 -824 0
-201 -825 0
-199 -1162 0
-200 -1163 0
-201 -1164 0
-202 -826 0
-203 -827 0
-204 -828 0
-202 -1204 0
-203 -1205 0
-204 -1206 0
-202 -1084 0
-203 -1085 0
-204 -1086 0
-202 -1072 0
-203 -1073 0
-204 -1074 0
-205 -1339 0
-206 -1340 0
-207 -1341 0
-205 -829 0
-206 -830 0
-207 -831 0
-205 -1231 0
-206 -1232 0
-207 -1233 0
-208 -850 0
-209 -851 0
-210 -852 0
-208 -397 0
-209 -398 0
-210 -399 0
-208 -643 0
-209 -644 0
-210 -645 0
-208 -406 0
-209 -407 0
-210 -408 0
-211 -394 0
-212 -395 0
-213 -396 0
-211 -853 0
-212 -854 0
-213 -855 0
-211 -409 0
-212 -410 0
-213 -411 0
-214 -973 0
-215 -974 0
-216 -975 0
-214 -838 0
-215 -839 0
-216 -840 0
-214 -475 0
-215 -476 0
-216 -477 0
-214 -655 0
-215 -656 0
-216 -657 0
-214 -985 0
-215 -986 0
-216 -987 0
-217 -757 0
-218 -758 0
-219 -759 0
-217 -652 0
-218 -653 0
-219 -654 0
-217 -1009 0
-218 -1010 0
-219 -1011 0
-217 -1363 0
-218 -1364 0
-219 -1365 0
-217 -982 0
-218 -983 0
-219 -984 0
-217 -841 0
-218 -842 0
-219 -843 0
-217 -478 0
-218 -479 0
-219 -480 0
-217 -1138 0
-218 -1139 0
-219 -1140 0
-220 -763 0
-221 -764 0
-222 -765 0
-220 -1375 0
-221 -1376 0
-222 -1377 0
-220 -1177 0
-221 -1178 0
-222 -1179 0
-220 -1378 0
-221 -1379 0
-222 -1380 0
-223 -1075 0
-224 -1076 0
-225 -1077 0
-223 -481 0
-224 -482 0
-225 -483 0
-223 -844 0
-224 -845 0
-225 -846 0
-223 -772 0
-224 -773 0
-225 -774 0
-223 -1048 0
-224 -1049 0
-225 -1050 0
-223 -661 0
-224 -662 0
-225 -663 0
-226 -484 0
-227 -485 0
-228 -486 0
-226 -847 0
-227 -848 0
-228 -849 0
-226 -658 0
-227 -659 0
-228 -660 0
-226 -1045 0
-227 -1046 0
-228 -1047 0
-226 -271 0
-227 -272 0
-228 -273 0
-226 -1072 0
-227 -1073 0
-228 -1074 0
-229 -1270 0
-230 -1271 0
-231 -1272 0
-229 -1009 0
-230 -1010 0
-231 -1011 0
-229 -232 0
-230 -233 0
-231 -234 0
-229 -544 0
-230 -545 0
-231 -546 0
-232 -757 0
-233 -758 0
-234 -759 0
-232 -664 0
-233 -665 0
-234 -666 0
-232 -553 0
-233 -554 0
-234 -555 0
-235 -760 0
-236 -761 0
-237 -762 0
-235 -1090 0
-236 -1091 0
-237 -1092 0
-235 -1309 0
-236 -1310 0
-237 -1311 0
-238 -763 0
-239 -764 0
-240 -765 0
-238 -1390 0
-239 -1391 0
-240 -1392 0
-238 -1216 0
-239 -1217 0
-240 -1218 0
-238 -1267 0
-239 -1268 0
-240 -1269 0
-241 -283 0
-242 -284 0
-243 -285 0
-241 -286 0
-242 -287 0
-243 -288 0
-241 -766 0
-242 -767 0
-243 -768 0
-241 -553 0
-242 -554 0
-243 -555 0
-244 -583 0
-245 -584 0
-246 -585 0
-244 -256 0
-245 -257 0
-246 -258 0
-244 -553 0
-245 -554 0
-246 -555 0
-244 -667 0
-245 -668 0
-246 -669 0
-247 -769 0
-248 -770 0
-249 -771 0
-247 -1102 0
-248 -1103 0
-249 -1104 0
-250 -499 0
-251 -500 0
-252 -501 0
-250 -592 0
-251 -593 0
-252 -594 0
-250 -808 0
-251 -809 0
-252 -810 0
-250 -253 0
-251 -254 0
-252 -255 0
-250 -772 0
-251 -773 0
-252 -774 0
-250 -553 0
-251 -554 0
-252 -555 0
-250 -670 0
-251 -671 0
-252 -672 0
-253 -1075 0
-254 -1076 0
-255 -1077 0
-253 -1057 0
-254 -1058 0
-255 -1059 0
-256 -1276 0
-257 -1277 0
-258 -1278 0
-256 -1270 0
-257 -1271 0
-258 -1272 0
-256 -1219 0
-257 -1220 0
-258 -1221 0
-256 -565 0
-257 -566 0
-258 -567 0
-259 -706 0
-260 -707 0
-261 -708 0
-259 -1348 0
-260 -1349 0
-261 -1350 0
-259 -1357 0
-260 -1358 0
-261 -1359 0
-262 -1261 0
-263 -1262 0
-264 -1263 0
-262 -1402 0
-263 -1403 0
-264 -1404 0
-262 -724 0
-263 -725 0
-264 -726 0
-262 -1393 0
-263 -1394 0
-264 -1395 0
-265 -742 0
-266 -743 0
-267 -744 0
-265 -1051 0
-266 -1052 0
-267 -1053 0
-265 -1360 0
-266 -1361 0
-267 -1362 0
-265 -1333 0
-266 -1334 0
-267 -1335 0
-268 -1282 0
-269 -1283 0
-270 -1284 0
-268 -886 0
-269 -887 0
-270 -888 0
-268 -1393 0
-269 -1394 0
-270 -1395 0
-271 -889 0
-272 -890 0
-273 -891 0
-271 -1162 0
-272 -1163 0
-273 -1164 0
-274 -817 0
-275 -818 0
-276 -819 0
-274 -976 0
-275 -977 0
-276 -978 0
-277 -349 0
-278 -350 0
-279 -351 0
-277 -457 0
-278 -458 0
-279 -459 0
-277 -490 0
-278 -491 0
-279 -492 0
-280 -352 0
-281 -353 0
-282 -354 0
-280 -487 0
-281 -488 0
-282 -489 0
-280 -460 0
-281 -461 0
-282 -462 0
-283 -658 0
-284 -659 0
-285 -660 0
-283 -1045 0
-284 -1046 0
-285 -1047 0
-283 -1384 0
-284 -1385 0
-285 -1386 0
-286 -1078 0
-287 -1079 0
-288 -1080 0
-286 -661 0
-287 -662 0
-288 -663 0
-289 -520 0
-290 -521 0
-291 -522 0
-289 -463 0
-290 -464 0
-291 -465 0
-289 -304 0
-290 -305 0
-291 -306 0
-289 -319 0
-290 -320 0
-291 -321 0
-289 -553 0
-290 -554 0
-291 -555 0
-292 -508 0
-293 -509 0
-294 -510 0
-292 -523 0
-293 -524 0
-294 -525 0
-292 -301 0
-293 -302 0
-294 -303 0
-292 -322 0
-293 -323 0
-294 -324 0
-292 -553 0
-293 -554 0
-294 -555 0
-295 -532 0
-296 -533 0
-297 -534 0
-295 -310 0
-296 -311 0
-297 -312 0
-295 -997 0
-296 -998 0
-297 -999 0
-295 -1156 0
-296 -1157 0
-297 -1158 0
-295 -1132 0
-296 -1133 0
-297 -1134 0
-295 -568 0
-296 -569 0
-297 -570 0
-298 -571 0
-299 -572 0
-300 -573 0
-298 -307 0
-299 -308 0
-300 -309 0
-298 -535 0
-299 -536 0
-300 -537 0
-298 -1093 0
-299 -1094 0
-300 -1095 0
-301 -574 0
-302 -575 0
-303 -576 0
-301 -1288 0
-302 -1289 0
-303 -1290 0
-301 -1291 0
-302 -1292 0
-303 -1293 0
-304 -1285 0
-305 -1286 0
-306 -1287 0
-304 -1306 0
-305 -1307 0
-306 -1308 0
-304 -577 0
-305 -578 0
-306 -579 0
-304 -1351 0
-305 -1352 0
-306 -1353 0
-307 -502 0
-308 -503 0
-309 -504 0
-307 -586 0
-308 -587 0
-309 -588 0
-307 -460 0
-308 -461 0
-309 -462 0
-307 -553 0
-308 -554 0
-309 -555 0
-310 -505 0
-311 -506 0
-312 -507 0
-310 -589 0
-311 -590 0
-312 -591 0
-310 -457 0
-311 -458 0
-312 -459 0
-310 -325 0
-311 -326 0
-312 -327 0
-310 -553 0
-311 -554 0
-312 -555 0
-313 -703 0
-314 -704 0
-315 -705 0
-313 -370 0
-314 -371 0
-315 -372 0
-313 -466 0
-314 -467 0
-315 -468 0
-313 -1288 0
-314 -1289 0
-315 -1290 0
-313 -1291 0
-314 -1292 0
-315 -1293 0
-316 -706 0
-317 -707 0
-318 -708 0
-316 -373 0
-317 -374 0
-318 -375 0
-316 -1306 0
-317 -1307 0
-318 -1308 0
-316 -1222 0
-317 -1223 0
-318 -1224 0
-316 -469 0
-317 -470 0
-318 -471 0
-316 -1351 0
-317 -1352 0
-318 -1353 0
-319 -595 0
-320 -596 0
-321 -597 0
-319 -1315 0
-320 -1316 0
-321 -1317 0
-319 -1351 0
-320 -1352 0
-321 -1353 0
-322 -1318 0
-323 -1319 0
-324 -1320 0
-322 -1291 0
-323 -1292 0
-324 -1293 0
-325 -1246 0
-326 -1247 0
-327 -1248 0
-325 -595 0
-326 -596 0
-327 -597 0
-325 -1156 0
-326 -1157 0
-327 -1158 0
-328 -469 0
-329 -470 0
-330 -471 0
-328 -1156 0
-329 -1157 0
-330 -1158 0
-328 -1132 0
-329 -1133 0
-330 -1134 0
-328 -721 0
-329 -722 0
-330 -723 0
-328 -364 0
-329 -365 0
-330 -366 0
-331 -1294 0
-332 -1295 0
-333 -1296 0
-331 -466 0
-332 -467 0
-333 -468 0
-331 -724 0
-332 -725 0
-333 -726 0
-331 -1093 0
-332 -1094 0
-333 -1095 0
-331 -367 0
-332 -368 0
-333 -369 0
-334 -817 0
-335 -818 0
-336 -819 0
-334 -1387 0
-335 -1388 0
-336 -1389 0
-334 -436 0
-335 -437 0
-336 -438 0
-334 -1102 0
-335 -1103 0
-336 -1104 0
-334 -841 0
-335 -842 0
-336 -843 0
-334 -1138 0
-335 -1139 0
-336 -1140 0
-337 -820 0
-338 -821 0
-339 -822 0
-337 -598 0
-338 -599 0
-339 -600 0
-337 -601 0
-338 -602 0
-339 -603 0
-337 -472 0
-338 -473 0
-339 -474 0
-337 -553 0
-338 -554 0
-339 -555 0
-337 -346 0
-338 -347 0
-339 -348 0
-340 -433 0
-341 -434 0
-342 -435 0
-340 -823 0
-341 -824 0
-342 -825 0
-340 -838 0
-341 -839 0
-342 -840 0
-343 -817 0
-344 -818 0
-345 -819 0
-343 -1387 0
-344 -1388 0
-345 -1389 0
-343 -1066 0
-344 -1067 0
-345 -1068 0
-343 -1195 0
-344 -1196 0
-345 -1197 0
-346 -1147 0
-347 -1148 0
-348 -1149 0
-346 -574 0
-347 -575 0
-348 -576 0
-346 -1129 0
-347 -1130 0
-348 -1131 0
-349 -439 0
-350 -440 0
-351 -441 0
-349 -610 0
-350 -611 0
-351 -612 0
-349 -550 0
-350 -551 0
-351 -552 0
-349 -553 0
-350 -554 0
-351 -555 0
-352 -376 0
-353 -377 0
-354 -378 0
-352 -607 0
-353 -608 0
-354 -609 0
-352 -613 0
-353 -614 0
-354 -615 0
-352 -553 0
-353 -554 0
-354 -555 0
-355 -1258 0
-356 -1259 0
-357 -1260 0
-355 -844 0
-356 -845 0
-357 -846 0
-355 -433 0
-356 -434 0
-357 -435 0
-355 -829 0
-356 -830 0
-357 -831 0
-358 -1126 0
-359 -1127 0
-360 -1128 0
-358 -1294 0
-359 -1295 0
-360 -1296 0
-358 -493 0
-359 -494 0
-360 -495 0
-358 -382 0
-359 -383 0
-360 -384 0
-358 -991 0
-359 -992 0
-360 -993 0
-361 -385 0
-362 -386 0
-363 -387 0
-361 -1192 0
-362 -1193 0
-363 -1194 0
-361 -493 0
-362 -494 0
-363 -495 0
-364 -745 0
-365 -746 0
-366 -747 0
-364 -1054 0
-365 -1055 0
-366 -1056 0
-364 -502 0
-365 -503 0
-366 -504 0
-364 -1117 0
-365 -1118 0
-366 -1119 0
-364 -406 0
-365 -407 0
-366 -408 0
-364 -487 0
-365 -488 0
-366 -489 0
-367 -505 0
-368 -506 0
-369 -507 0
-367 -409 0
-368 -410 0
-369 -411 0
-367 -748 0
-368 -749 0
-369 -750 0
-367 -490 0
-368 -491 0
-369 -492 0
-370 -994 0
-371 -995 0
-372 -996 0
-370 -394 0
-371 -395 0
-372 -396 0
-370 -997 0
-371 -998 0
-372 -999 0
-370 -1192 0
-371 -1193 0
-372 -1194 0
-370 -493 0
-371 -494 0
-372 -495 0
-370 -751 0
-371 -752 0
-372 -753 0
-373 -754 0
-374 -755 0
-375 -756 0
-373 -397 0
-374 -398 0
-375 -399 0
-373 -1006 0
-374 -1007 0
-375 -1008 0
-373 -496 0
-374 -497 0
-375 -498 0
-373 -508 0
-374 -509 0
-375 -510 0
-376 -619 0
-377 -620 0
-378 -621 0
-376 -1000 0
-377 -1001 0
-378 -1002 0
-379 -532 0
-380 -533 0
-381 -534 0
-379 -382 0
-380 -383 0
-381 -384 0
-379 -520 0
-380 -521 0
-381 -522 0
-379 -991 0
-380 -992 0
-381 -993 0
-382 -553 0
-383 -554 0
-384 -555 0
-385 -421 0
-386 -422 0
-387 -423 0
-385 -553 0
-386 -554 0
-387 -555 0
-385 -568 0
-386 -569 0
-387 -570 0
-388 -418 0
-389 -419 0
-390 -420 0
-388 -427 0
-389 -428 0
-390 -429 0
-388 -391 0
-389 -392 0
-390 -393 0
-388 -553 0
-389 -554 0
-390 -555 0
-388 -571 0
-389 -572 0
-390 -573 0
-391 -574 0
-392 -575 0
-393 -576 0
-391 -586 0
-392 -587 0
-393 -588 0
-391 -1096 0
-392 -1097 0
-393 -1098 0
-394 -646 0
-395 -647 0
-396 -648 0
-394 -430 0
-395 -431 0
-396 -432 0
-394 -553 0
-395 -554 0
-396 -555 0
-397 -553 0
-398 -554 0
-399 -555 0
-397 -640 0
-398 -641 0
-399 -642 0
-400 -1012 0
-401 -1013 0
-402 -1014 0
-400 -529 0
-401 -530 0
-402 -531 0
-400 -1228 0
-401 -1229 0
-402 -1230 0
-400 -406 0
-401 -407 0
-402 -408 0
-403 -1297 0
-404 -1298 0
-405 -1299 0
-403 -409 0
-404 -410 0
-405 -411 0
-403 -526 0
-404 -527 0
-405 -528 0
-406 -649 0
-407 -650 0
-408 -651 0
-406 -553 0
-407 -554 0
-408 -555 0
-406 -781 0
-407 -782 0
-408 -783 0
-409 -553 0
-410 -554 0
-411 -555 0
-412 -787 0
-413 -788 0
-414 -789 0
-412 -1006 0
-413 -1007 0
-414 -1008 0
-415 -619 0
-416 -620 0
-417 -621 0
-415 -976 0
-416 -977 0
-417 -978 0
-415 -1147 0
-416 -1148 0
-417 -1149 0
-418 -619 0
-419 -620 0
-420 -621 0
-418 -601 0
-419 -602 0
-420 -603 0
-421 -604 0
-422 -605 0
-423 -606 0
-421 -622 0
-422 -623 0
-423 -624 0
-421 -1018 0
-422 -1019 0
-423 -1020 0
-421 -646 0
-422 -647 0
-423 -648 0
-424 -607 0
-425 -608 0
-426 -609 0
-424 -979 0
-425 -980 0
-426 -981 0
-424 -1342 0
-425 -1343 0
-426 -1344 0
-424 -1021 0
-425 -1022 0
-426 -1023 0
-424 -649 0
-425 -650 0
-426 -651 0
-424 -625 0
-425 -626 0
-426 -627 0
-427 -1330 0
-428 -1331 0
-429 -1332 0
-427 -1087 0
-428 -1088 0
-429 -1089 0
-427 -625 0
-428 -626 0
-429 -627 0
-430 -1342 0
-431 -1343 0
-432 -1344 0
-430 -1360 0
-431 -1361 0
-432 -1362 0
-430 -1333 0
-431 -1334 0
-432 -1335 0
-430 -625 0
-431 -626 0
-432 -627 0
-433 -1375 0
-434 -1376 0
-435 -1377 0
-433 -1114 0
-434 -1115 0
-435 -1116 0
-433 -868 0
-434 -869 0
-435 -870 0
-433 -886 0
-434 -887 0
-435 -888 0
-433 -1129 0
-434 -1130 0
-435 -1131 0
-436 -889 0
-437 -890 0
-438 -891 0
-436 -1372 0
-437 -1373 0
-438 -1374 0
-439 -1240 0
-440 -1241 0
-441 -1242 0
-439 -1264 0
-440 -1265 0
-441 -1266 0
-439 -655 0
-440 -656 0
-441 -657 0
-439 -1336 0
-440 -1337 0
-441 -1338 0
-442 -1123 0
-443 -1124 0
-444 -1125 0
-442 -931 0
-443 -932 0
-444 -933 0
-442 -1159 0
-443 -1160 0
-444 -1161 0
-445 -892 0
-446 -893 0
-447 -894 0
-445 -673 0
-446 -674 0
-447 -675 0
-445 -841 0
-446 -842 0
-447 -843 0
-445 -553 0
-446 -554 0
-447 -555 0
-448 -517 0
-449 -518 0
-450 -519 0
-448 -838 0
-449 -839 0
-450 -840 0
-448 -553 0
-449 -554 0
-450 -555 0
-451 -895 0
-452 -896 0
-453 -897 0
-451 -799 0
-452 -800 0
-453 -801 0
-451 -676 0
-452 -677 0
-453 -678 0
-451 -847 0
-452 -848 0
-453 -849 0
-451 -553 0
-452 -554 0
-453 -555 0
-454 -898 0
-455 -899 0
-456 -900 0
-454 -802 0
-455 -803 0
-456 -804 0
-454 -685 0
-455 -686 0
-456 -687 0
-454 -844 0
-455 -845 0
-456 -846 0
-454 -553 0
-455 -554 0
-456 -555 0
-457 -703 0
-458 -704 0
-459 -705 0
-460 -706 0
-461 -707 0
-462 -708 0
-460 -1279 0
-461 -1280 0
-462 -1281 0
-460 -691 0
-461 -692 0
-462 -693 0
-460 -1018 0
-461 -1019 0
-462 -1020 0
-460 -1027 0
-461 -1028 0
-462 -1029 0
-463 -979 0
-464 -980 0
-465 -981 0
-463 -694 0
-464 -695 0
-465 -696 0
-463 -1021 0
-464 -1022 0
-465 -1023 0
-463 -1027 0
-464 -1028 0
-465 -1029 0
-463 -724 0
-464 -725 0
-465 -726 0
-466 -850 0
-467 -851 0
-468 -852 0
-466 -493 0
-467 -494 0
-468 -495 0
-466 -1231 0
-467 -1232 0
-468 -1233 0
-466 -490 0
-467 -491 0
-468 -492 0
-469 -853 0
-470 -854 0
-471 -855 0
-469 -1204 0
-470 -1205 0
-471 -1206 0
-469 -496 0
-470 -497 0
-471 -498 0
-469 -487 0
-470 -488 0
-471 -489 0
-472 -706 0
-473 -707 0
-474 -708 0
-472 -1207 0
-473 -1208 0
-474 -1209 0
-472 -1222 0
-473 -1223 0
-474 -1224 0
-475 -484 0
-476 -485 0
-477 -486 0
-475 -1084 0
-476 -1085 0
-477 -1086 0
-475 -901 0
-476 -902 0
-477 -903 0
-475 -910 0
-476 -911 0
-477 -912 0
-478 -868 0
-479 -869 0
-480 -870 0
-478 -907 0
-479 -908 0
-480 -909 0
-478 -481 0
-479 -482 0
-480 -483 0
-478 -913 0
-479 -914 0
-480 -915 0
-478 -1048 0
-479 -1049 0
-480 -1050 0
-478 -1327 0
-479 -1328 0
-480 -1329 0
-478 -1273 0
-479 -1274 0
-480 -1275 0
-478 -1198 0
-479 -1199 0
-480 -1200 0
-478 -1339 0
-479 -1340 0
-480 -1341 0
-481 -916 0
-482 -917 0
-483 -918 0
-481 -1144 0
-482 -1145 0
-483 -1146 0
-481 -922 0
-482 -923 0
-483 -924 0
-481 -982 0
-482 -983 0
-483 -984 0
-484 -1183 0
-485 -1184 0
-486 -1185 0
-484 -919 0
-485 -920 0
-486 -921 0
-484 -925 0
-485 -926 0
-486 -927 0
-484 -1162 0
-485 -1163 0
-486 -1164 0
-484 -985 0
-485 -986 0
-486 -987 0
-487 -688 0
-488 -689 0
-489 -690 0
-487 -691 0
-488 -692 0
-489 -693 0
-487 -553 0
-488 -554 0
-489 -555 0
-490 -553 0
-491 -554 0
-492 -555 0
-493 -694 0
-494 -695 0
-495 -696 0
-493 -697 0
-494 -698 0
-495 -699 0
-493 -553 0
-494 -554 0
-495 -555 0
-493 -856 0
-494 -857 0
-495 -858 0
-496 -700 0
-497 -701 0
-498 -702 0
-496 -553 0
-497 -554 0
-498 -555 0
-496 -859 0
-497 -860 0
-498 -861 0
-499 -1261 0
-500 -1262 0
-501 -1263 0
-499 -1405 0
-500 -1406 0
-501 -1407 0
-499 -1201 0
-500 -1202 0
-501 -1203 0
-502 -760 0
-503 -761 0
-504 -762 0
-502 -691 0
-503 -692 0
-504 -693 0
-502 -1153 0
-503 -1154 0
-504 -1155 0
-505 -763 0
-506 -764 0
-507 -765 0
-505 -1267 0
-506 -1268 0
-507 -1269 0
-508 -769 0
-509 -770 0
-510 -771 0
-511 -553 0
-512 -554 0
-513 -555 0
-511 -778 0
-512 -779 0
-513 -780 0
-514 -553 0
-515 -554 0
-516 -555 0
-514 -775 0
-515 -776 0
-516 -777 0
-517 -1141 0
-518 -1142 0
-519 -1143 0
-517 -652 0
-518 -653 0
-519 -654 0
-520 -523 0
-521 -524 0
-522 -525 0
-520 -727 0
-521 -728 0
-522 -729 0
-520 -784 0
-521 -785 0
-522 -786 0
-523 -730 0
-524 -731 0
-525 -732 0
-523 -787 0
-524 -788 0
-525 -789 0
-526 -538 0
-527 -539 0
-528 -540 0
-526 -553 0
-527 -554 0
-528 -555 0
-526 -709 0
-527 -710 0
-528 -711 0
-529 -541 0
-530 -542 0
-531 -543 0
-529 -553 0
-530 -554 0
-531 -555 0
-532 -790 0
-533 -791 0
-534 -792 0
-532 -727 0
-533 -728 0
-534 -729 0
-532 -553 0
-533 -554 0
-534 -555 0
-532 -559 0
-533 -560 0
-534 -561 0
-535 -730 0
-536 -731 0
-537 -732 0
-535 -616 0
-536 -617 0
-537 -618 0
-535 -553 0
-536 -554 0
-537 -555 0
-535 -562 0
-536 -563 0
-537 -564 0
-538 -1297 0
-539 -1298 0
-540 -1299 0
-538 -1300 0
-539 -1301 0
-540 -1302 0
-538 -574 0
-539 -575 0
-540 -576 0
-538 -1288 0
-539 -1289 0
-540 -1290 0
-538 -1237 0
-539 -1238 0
-540 -1239 0
-541 -1246 0
-542 -1247 0
-543 -1248 0
-541 -1213 0
-542 -1214 0
-543 -1215 0
-541 -1306 0
-542 -1307 0
-543 -1308 0
-541 -577 0
-542 -578 0
-543 -579 0
-541 -1228 0
-542 -1229 0
-543 -1230 0
-544 -814 0
-545 -815 0
-546 -816 0
-544 -928 0
-545 -929 0
-546 -930 0
-544 -553 0
-545 -554 0
-546 -555 0
-544 -913 0
-545 -914 0
-546 -915 0
-547 -916 0
-548 -917 0
-549 -918 0
-547 -1189 0
-548 -1190 0
-549 -1191 0
-547 -931 0
-548 -932 0
-549 -933 0
-547 -901 0
-548 -902 0
-549 -903 0
-550 -760 0
-551 -761 0
-552 -762 0
-550 -1111 0
-551 -1112 0
-552 -1113 0
-550 -1321 0
-551 -1322 0
-552 -1323 0
-550 -1240 0
-551 -1241 0
-552 -1242 0
-553 -784 0
-554 -785 0
-555 -786 0
-553 -787 0
-554 -788 0
-555 -789 0
-553 -574 0
-554 -575 0
-555 -576 0
-553 -577 0
-554 -578 0
-555 -579 0
-553 -817 0
-554 -818 0
-555 -819 0
-553 -793 0
-554 -794 0
-555 -795 0
-553 -796 0
-554 -797 0
-555 -798 0
-553 -580 0
-554 -581 0
-555 -582 0
-553 -733 0
-554 -734 0
-555 -735 0
-553 -736 0
-554 -737 0
-555 -738 0
-553 -823 0
-554 -824 0
-555 -825 0
-553 -739 0
-554 -740 0
-555 -741 0
-553 -742 0
-554 -743 0
-555 -744 0
-553 -826 0
-554 -827 0
-555 -828 0
-553 -829 0
-554 -830 0
-555 -831 0
-553 -931 0
-554 -932 0
-555 -933 0
-553 -934 0
-554 -935 0
-555 -936 0
-553 -652 0
-554 -653 0
-555 -654 0
-553 -655 0
-554 -656 0
-555 -657 0
-553 -595 0
-554 -596 0
-555 -597 0
-553 -658 0
-554 -659 0
-555 -660 0
-553 -661 0
-554 -662 0
-555 -663 0
-553 -619 0
-554 -620 0
-555 -621 0
-553 -622 0
-554 -623 0
-555 -624 0
-553 -760 0
-554 -761 0
-555 -762 0
-553 -763 0
-554 -764 0
-555 -765 0
-553 -886 0
-554 -887 0
-555 -888 0
-553 -889 0
-554 -890 0
-555 -891 0
-553 -625 0
-554 -626 0
-555 -627 0
-553 -703 0
-554 -704 0
-555 -705 0
-553 -706 0
-554 -707 0
-555 -708 0
-553 -769 0
-554 -770 0
-555 -771 0
-553 -907 0
-554 -908 0
-555 -909 0
-553 -910 0
-554 -911 0
-555 -912 0
-553 -919 0
-554 -920 0
-555 -921 0
-553 -922 0
-554 -923 0
-555 -924 0
-553 -721 0
-554 -722 0
-555 -723 0
-553 -724 0
-554 -725 0
-555 -726 0
-553 -565 0
-554 -566 0
-555 -567 0
-556 -1171 0
-557 -1172 0
-558 -1173 0
-556 -913 0
-557 -914 0
-558 -915 0
-556 -925 0
-557 -926 0
-558 -927 0
-556 -934 0
-557 -935 0
-558 -936 0
-556 -1114 0
-557 -1115 0
-558 -1116 0
-559 -1015 0
-560 -1016 0
-561 -1017 0
-559 -1381 0
-560 -1382 0
-561 -1383 0
-559 -1132 0
-560 -1133 0
-561 -1134 0
-559 -1315 0
-560 -1316 0
-561 -1317 0
-559 -1237 0
-560 -1238 0
-561 -1239 0
-562 -1213 0
-563 -1214 0
-564 -1215 0
-562 -580 0
-563 -581 0
-564 -582 0
-562 -1093 0
-563 -1094 0
-564 -1095 0
-562 -1318 0
-563 -1319 0
-564 -1320 0
-565 -835 0
-566 -836 0
-567 -837 0
-565 -925 0
-566 -926 0
-567 -927 0
-568 -739 0
-569 -740 0
-570 -741 0
-568 -790 0
-569 -791 0
-570 -792 0
-568 -1057 0
-569 -1058 0
-570 -1059 0
-568 -589 0
-569 -590 0
-570 -591 0
-571 -742 0
-572 -743 0
-573 -744 0
-571 -1219 0
-572 -1220 0
-573 -1221 0
-571 -586 0
-572 -587 0
-573 -588 0
-577 -712 0
-578 -713 0
-579 -714 0
-580 -715 0
-581 -716 0
-582 -717 0
-583 -826 0
-584 -827 0
-585 -828 0
-583 -1081 0
-584 -1082 0
-585 -1083 0
-583 -1219 0
-584 -1220 0
-585 -1221 0
-583 -1030 0
-584 -1031 0
-585 -1032 0
-586 -793 0
-587 -794 0
-588 -795 0
-586 -589 0
-587 -590 0
-588 -591 0
-589 -796 0
-590 -797 0
-591 -798 0
-592 -829 0
-593 -830 0
-594 -831 0
-592 -1330 0
-593 -1331 0
-594 -1332 0
-592 -1057 0
-593 -1058 0
-594 -1059 0
-592 -1033 0
-593 -1034 0
-594 -1035 0
-598 -787 0
-599 -788 0
-600 -789 0
-598 -1135 0
-599 -1136 0
-600 -1137 0
-601 -793 0
-602 -794 0
-603 -795 0
-601 -745 0
-602 -746 0
-603 -747 0
-604 -1249 0
-605 -1250 0
-606 -1251 0
-604 -1264 0
-605 -1265 0
-606 -1266 0
-604 -796 0
-605 -797 0
-606 -798 0
-604 -748 0
-605 -749 0
-606 -750 0
-607 -754 0
-608 -755 0
-609 -756 0
-607 -1252 0
-608 -1253 0
-609 -1254 0
-607 -787 0
-608 -788 0
-609 -789 0
-610 -796 0
-611 -797 0
-612 -798 0
-610 -1060 0
-611 -1061 0
-612 -1062 0
-613 -793 0
-614 -794 0
-615 -795 0
-613 -1063 0
-614 -1064 0
-615 -1065 0
-616 -619 0
-617 -620 0
-618 -621 0
-616 -1135 0
-617 -1136 0
-618 -1137 0
-619 -643 0
-620 -644 0
-621 -645 0
-619 -745 0
-620 -746 0
-621 -747 0
-622 -748 0
-623 -749 0
-624 -750 0
-625 -643 0
-626 -644 0
-627 -645 0
-625 -805 0
-626 -806 0
-627 -807 0
-625 -754 0
-626 -755 0
-627 -756 0
-628 -637 0
-629 -638 0
-630 -639 0
-628 -667 0
-629 -668 0
-630 -669 0
-628 -931 0
-629 -932 0
-630 -933 0
-628 -838 0
-629 -839 0
-630 -840 0
-631 -928 0
-632 -929 0
-633 -930 0
-631 -1024 0
-632 -1025 0
-633 -1026 0
-631 -934 0
-632 -935 0
-633 -936 0
-631 -841 0
-632 -842 0
-633 -843 0
-631 -634 0
-632 -635 0
-633 -636 0
-634 -844 0
-635 -845 0
-636 -846 0
-634 -664 0
-635 -665 0
-636 -666 0
-634 -931 0
-635 -932 0
-636 -933 0
-634 -1066 0
-635 -1067 0
-636 -1068 0
-637 -847 0
-638 -848 0
-639 -849 0
-637 -1276 0
-638 -1277 0
-639 -1278 0
-637 -1045 0
-638 -1046 0
-639 -1047 0
-637 -934 0
-638 -935 0
-639 -936 0
-640 -760 0
-641 -761 0
-642 -762 0
-640 -1006 0
-641 -1007 0
-642 -1008 0
-643 -781 0
-644 -782 0
-645 -783 0
-646 -796 0
-647 -797 0
-648 -798 0
-646 -1042 0
-647 -1043 0
-648 -1044 0
-646 -1051 0
-647 -1052 0
-648 -1053 0
-646 -1225 0
-647 -1226 0
-648 -1227 0
-646 -1360 0
-647 -1361 0
-648 -1362 0
-649 -1042 0
-650 -1043 0
-651 -1044 0
-649 -1225 0
-650 -1226 0
-651 -1227 0
-649 -787 0
-650 -788 0
-651 -789 0
-649 -805 0
-650 -806 0
-651 -807 0
-652 -868 0
-653 -869 0
-654 -870 0
-652 -937 0
-653 -938 0
-654 -939 0
-652 -940 0
-653 -941 0
-654 -942 0
-655 -943 0
-656 -944 0
-657 -945 0
-658 -946 0
-659 -947 0
-660 -948 0
-661 -949 0
-662 -950 0
-663 -951 0
-664 -886 0
-665 -887 0
-666 -888 0
-664 -1096 0
-665 -1097 0
-666 -1098 0
-667 -886 0
-668 -887 0
-669 -888 0
-667 -991 0
-668 -992 0
-669 -993 0
-670 -886 0
-671 -887 0
-672 -888 0
-670 -1096 0
-671 -1097 0
-672 -1098 0
-670 -1393 0
-671 -1394 0
-672 -1395 0
-673 -1396 0
-674 -1397 0
-675 -1398 0
-673 -769 0
-674 -770 0
-675 -771 0
-676 -1099 0
-677 -1100 0
-678 -1101 0
-676 -763 0
-677 -764 0
-678 -765 0
-676 -1378 0
-677 -1379 0
-678 -1380 0
-679 -1171 0
-680 -1172 0
-681 -1173 0
-679 -892 0
-680 -893 0
-681 -894 0
-679 -1180 0
-680 -1181 0
-681 -1182 0
-679 -772 0
-680 -773 0
-681 -774 0
-679 -1150 0
-680 -1151 0
-681 -1152 0
-679 -934 0
-680 -935 0
-681 -936 0
-679 -895 0
-680 -896 0
-681 -897 0
-682 -898 0
-683 -899 0
-684 -900 0
-682 -1174 0
-683 -1175 0
-684 -1176 0
-682 -1189 0
-683 -1190 0
-684 -1191 0
-682 -931 0
-683 -932 0
-684 -933 0
-682 -757 0
-683 -758 0
-684 -759 0
-685 -1099 0
-686 -1100 0
-687 -1101 0
-685 -760 0
-686 -761 0
-687 -762 0
-685 -1399 0
-686 -1400 0
-687 -1401 0
-688 -1366 0
-689 -1367 0
-690 -1368 0
-688 -724 0
-689 -725 0
-690 -726 0
-691 -865 0
-692 -866 0
-693 -867 0
-691 -742 0
-692 -743 0
-693 -744 0
-691 -1051 0
-692 -1052 0
-693 -1053 0
-694 -1126 0
-695 -1127 0
-696 -1128 0
-694 -736 0
-695 -737 0
-696 -738 0
-697 -739 0
-698 -740 0
-699 -741 0
-697 -997 0
-698 -998 0
-699 -999 0
-697 -1030 0
-698 -1031 0
-699 -1032 0
-700 -742 0
-701 -743 0
-702 -744 0
-700 -1168 0
-701 -1169 0
-702 -1170 0
-700 -1033 0
-701 -1034 0
-702 -1035 0
-703 -862 0
-704 -863 0
-705 -864 0
-703 -751 0
-704 -752 0
-705 -753 0
-703 -850 0
-704 -851 0
-705 -852 0
-703 -712 0
-704 -713 0
-705 -714 0
-703 -715 0
-704 -716 0
-705 -717 0
-706 -865 0
-707 -866 0
-708 -867 0
-706 -754 0
-707 -755 0
-708 -756 0
-706 -853 0
-707 -854 0
-708 -855 0
-706 -718 0
-707 -719 0
-708 -720 0
-709 -1402 0
-710 -1403 0
-711 -1404 0
-709 -1300 0
-710 -1301 0
-711 -1302 0
-709 -724 0
-710 -725 0
-711 -726 0
-712 -1060 0
-713 -1061 0
-714 -1062 0
-715 -1318 0
-716 -1319 0
-717 -1320 0
-715 -1291 0
-716 -1292 0
-717 -1293 0
-718 -1348 0
-719 -1349 0
-720 -1350 0
-718 -1315 0
-719 -1316 0
-720 -1317 0
-718 -1351 0
-719 -1352 0
-720 -1353 0
-721 -871 0
-722 -872 0
-723 -873 0
-721 -745 0
-722 -746 0
-723 -747 0
-721 -853 0
-722 -854 0
-723 -855 0
-724 -748 0
-725 -749 0
-726 -750 0
-724 -850 0
-725 -851 0
-726 -852 0
-727 -874 0
-728 -875 0
-729 -876 0
-727 -736 0
-728 -737 0
-729 -738 0
-730 -877 0
-731 -878 0
-732 -879 0
-730 -733 0
-731 -734 0
-732 -735 0
-733 -880 0
-734 -881 0
-735 -882 0
-736 -883 0
-737 -884 0
-738 -885 0
-739 -874 0
-740 -875 0
-741 -876 0
-742 -877 0
-743 -878 0
-744 -879 0
-745 -1000 0
-746 -1001 0
-747 -1002 0
-745 -880 0
-746 -881 0
-747 -882 0
-745 -781 0
-746 -782 0
-747 -783 0
-745 -1135 0
-746 -1136 0
-747 -1137 0
-748 -1210 0
-749 -1211 0
-750 -1212 0
-748 -883 0
-749 -884 0
-750 -885 0
-751 -874 0
-752 -875 0
-753 -876 0
-751 -856 0
-752 -857 0
-753 -858 0
-751 -1060 0
-752 -1061 0
-753 -1062 0
-754 -1207 0
-755 -1208 0
-756 -1209 0
-754 -877 0
-755 -878 0
-756 -879 0
-754 -859 0
-755 -860 0
-756 -861 0
-754 -1063 0
-755 -1064 0
-756 -1065 0
-757 -1234 0
-758 -1235 0
-759 -1236 0
-757 -907 0
-758 -908 0
-759 -909 0
-760 -865 0
-761 -866 0
-762 -867 0
-760 -805 0
-761 -806 0
-762 -807 0
-760 -904 0
-761 -905 0
-762 -906 0
-763 -862 0
-764 -863 0
-765 -864 0
-766 -919 0
-767 -920 0
-768 -921 0
-766 -1384 0
-767 -1385 0
-768 -1386 0
-766 -985 0
-767 -986 0
-768 -987 0
-769 -871 0
-770 -872 0
-771 -873 0
-772 -1165 0
-773 -1166 0
-774 -1167 0
-772 -922 0
-773 -923 0
-774 -924 0
-775 -1402 0
-776 -1403 0
-777 -1404 0
-775 -1381 0
-776 -1382 0
-777 -1383 0
-775 -784 0
-776 -785 0
-777 -786 0
-778 -793 0
-779 -794 0
-780 -795 0
-778 -1297 0
-779 -1298 0
-780 -1299 0
-778 -1348 0
-779 -1349 0
-780 -1350 0
-781 -1012 0
-782 -1013 0
-783 -1014 0
-781 -1015 0
-782 -1016 0
-783 -1017 0
-784 -874 0
-785 -875 0
-786 -876 0
-787 -877 0
-788 -878 0
-789 -879 0
-790 -796 0
-791 -797 0
-792 -798 0
-790 -1012 0
-791 -1013 0
-792 -1014 0
-790 -1015 0
-791 -1016 0
-792 -1017 0
-790 -874 0
-791 -875 0
-792 -876 0
-793 -880 0
-794 -881 0
-795 -882 0
-796 -883 0
-797 -884 0
-798 -885 0
-799 -817 0
-800 -818 0
-801 -819 0
-799 -1105 0
-800 -1106 0
-801 -1107 0
-802 -817 0
-803 -818 0
-804 -819 0
-802 -1144 0
-803 -1145 0
-804 -1146 0
-802 -1195 0
-803 -1196 0
-804 -1197 0
-805 -877 0
-806 -878 0
-807 -879 0
-808 -931 0
-809 -932 0
-810 -933 0
-808 -1357 0
-809 -1358 0
-810 -1359 0
-808 -1033 0
-809 -1034 0
-810 -1035 0
-811 -1282 0
-812 -1283 0
-813 -1284 0
-811 -1405 0
-812 -1406 0
-813 -1407 0
-814 -817 0
-815 -818 0
-816 -819 0
-814 -1279 0
-815 -1280 0
-816 -1281 0
-814 -1108 0
-815 -1109 0
-816 -1110 0
-820 -1369 0
-821 -1370 0
-822 -1371 0
-820 -922 0
-821 -923 0
-822 -924 0
-826 -958 0
-827 -959 0
-828 -960 0
-826 -835 0
-827 -836 0
-828 -837 0
-826 -904 0
-827 -905 0
-828 -906 0
-829 -955 0
-830 -956 0
-831 -957 0
-829 -961 0
-830 -962 0
-831 -963 0
-829 -868 0
-830 -869 0
-831 -870 0
-829 -832 0
-830 -833 0
-831 -834 0
-832 -1036 0
-833 -1037 0
-834 -1038 0
-832 -1057 0
-833 -1058 0
-834 -1059 0
-835 -1219 0
-836 -1220 0
-837 -1221 0
-835 -988 0
-836 -989 0
-837 -990 0
-838 -943 0
-839 -944 0
-840 -945 0
-838 -886 0
-839 -887 0
-840 -888 0
-841 -1354 0
-842 -1355 0
-843 -1356 0
-841 -940 0
-842 -941 0
-843 -942 0
-841 -889 0
-842 -890 0
-843 -891 0
-841 -1108 0
-842 -1109 0
-843 -1110 0
-841 -1066 0
-842 -1067 0
-843 -1068 0
-844 -949 0
-845 -950 0
-846 -951 0
-844 -1036 0
-845 -1037 0
-846 -1038 0
-844 -955 0
-845 -956 0
-846 -957 0
-844 -886 0
-845 -887 0
-846 -888 0
-844 -1024 0
-845 -1025 0
-846 -1026 0
-847 -958 0
-848 -959 0
-849 -960 0
-847 -889 0
-848 -890 0
-849 -891 0
-847 -988 0
-848 -989 0
-849 -990 0
-847 -946 0
-848 -947 0
-849 -948 0
-850 -1366 0
-851 -1367 0
-852 -1368 0
-850 -856 0
-851 -857 0
-852 -858 0
-853 -859 0
-854 -860 0
-855 -861 0
-856 -1030 0
-857 -1031 0
-858 -1032 0
-859 -1033 0
-860 -1034 0
-861 -1035 0
-862 -874 0
-863 -875 0
-864 -876 0
-865 -1369 0
-866 -1370 0
-867 -1371 0
-865 -877 0
-866 -878 0
-867 -879 0
-868 -1039 0
-869 -1040 0
-870 -1041 0
-868 -1321 0
-869 -1322 0
-870 -1323 0
-868 -1240 0
-869 -1241 0
-870 -1242 0
-871 -1168 0
-872 -1169 0
-873 -1170 0
-871 -880 0
-872 -881 0
-873 -882 0
-874 -883 0
-875 -884 0
-876 -885 0
-877 -1168 0
-878 -1169 0
-879 -1170 0
-877 -880 0
-878 -881 0
-879 -882 0
-877 -1006 0
-878 -1007 0
-879 -1008 0
-877 -1135 0
-878 -1136 0
-879 -1137 0
-880 -1063 0
-881 -1064 0
-882 -1065 0
-883 -1060 0
-884 -1061 0
-885 -1062 0
-886 -964 0
-887 -965 0
-888 -966 0
-886 -952 0
-887 -953 0
-888 -954 0
-889 -952 0
-890 -953 0
-891 -954 0
-892 -922 0
-893 -923 0
-894 -924 0
-892 -1105 0
-893 -1106 0
-894 -1107 0
-892 -1201 0
-893 -1202 0
-894 -1203 0
-895 -958 0
-896 -959 0
-897 -960 0
-895 -1105 0
-896 -1106 0
-897 -1107 0
-895 -910 0
-896 -911 0
-897 -912 0
-898 -955 0
-899 -956 0
-900 -957 0
-898 -907 0
-899 -908 0
-900 -909 0
-901 -1243 0
-902 -1244 0
-903 -1245 0
-901 -919 0
-902 -920 0
-903 -921 0
-904 -1309 0
-905 -1310 0
-906 -1311 0
-904 -1312 0
-905 -1313 0
-906 -1314 0
-904 -1234 0
-905 -1235 0
-906 -1236 0
-904 -1321 0
-905 -1322 0
-906 -1323 0
-907 -916 0
-908 -917 0
-909 -918 0
-910 -925 0
-911 -926 0
-912 -927 0
-913 -1039 0
-914 -1040 0
-915 -1041 0
-913 -1009 0
-914 -1010 0
-915 -1011 0
-913 -922 0
-914 -923 0
-915 -924 0
-913 -1003 0
-914 -1004 0
-915 -1005 0
-922 -937 0
-923 -938 0
-924 -939 0
-928 -931 0
-929 -932 0
-930 -933 0
-928 -1108 0
-929 -1109 0
-930 -1110 0
-931 -955 0
-932 -956 0
-933 -957 0
-934 -958 0
-935 -959 0
-936 -960 0
-934 -961 0
-935 -962 0
-936 -963 0
-934 -964 0
-935 -965 0
-936 -966 0
-937 -1165 0
-938 -1166 0
-939 -1167 0
-937 -1369 0
-938 -1370 0
-939 -1371 0
-940 -952 0
-941 -953 0
-942 -954 0
-943 -1249 0
-944 -1250 0
-945 -1251 0
-943 -952 0
-944 -953 0
-945 -954 0
-946 -952 0
-947 -953 0
-948 -954 0
-949 -1252 0
-950 -1253 0
-951 -1254 0
-949 -952 0
-950 -953 0
-951 -954 0
-955 -1033 0
-956 -1034 0
-957 -1035 0
-958 -1030 0
-959 -1031 0
-960 -1032 0
-961 -1036 0
-962 -1037 0
-963 -1038 0
-961 -1039 0
-962 -1040 0
-963 -1041 0
-961 -1024 0
-962 -1025 0
-963 -1026 0
-964 -1165 0
-965 -1166 0
-966 -1167 0
-964 -1114 0
-965 -1115 0
-966 -1116 0
-967 -1390 0
-968 -1391 0
-969 -1392 0
-967 -1189 0
-968 -1190 0
-969 -1191 0
-970 -1171 0
-971 -1172 0
-972 -1173 0
-970 -1111 0
-971 -1112 0
-972 -1113 0
-976 -1117 0
-977 -1118 0
-978 -1119 0
-982 -1066 0
-983 -1067 0
-984 -1068 0
-985 -1045 0
-986 -1046 0
-987 -1047 0
-994 -1060 0
-995 -1061 0
-996 -1062 0
-1000 -1207 0
-1001 -1208 0
-1002 -1209 0
-1000 -1063 0
-1001 -1064 0
-1002 -1065 0
-1003 -1111 0
-1004 -1112 0
-1005 -1113 0
-1006 -1054 0
-1007 -1055 0
-1008 -1056 0
-1009 -1120 0
-1010 -1121 0
-1011 -1122 0
-1015 -1057 0
-1016 -1058 0
-1017 -1059 0
-1018 -1042 0
-1019 -1043 0
-1020 -1044 0
-1021 -1042 0
-1022 -1043 0
-1023 -1044 0
-1024 -1048 0
-1025 -1049 0
-1026 -1050 0
-1027 -1174 0
-1028 -1175 0
-1029 -1176 0
-1027 -1114 0
-1028 -1115 0
-1029 -1116 0
-1039 -1114 0
-1040 -1115 0
-1041 -1116 0
-1054 -1135 0
-1055 -1136 0
-1056 -1137 0
-1057 -1246 0
-1058 -1247 0
-1059 -1248 0
-1057 -1228 0
-1058 -1229 0
-1059 -1230 0
-1057 -1132 0
-1058 -1133 0
-1059 -1134 0
-1060 -1210 0
-1061 -1211 0
-1062 -1212 0
-1069 -1171 0
-1070 -1172 0
-1071 -1173 0
-1072 -1183 0
-1073 -1184 0
-1074 -1185 0
-1078 -1195 0
-1079 -1196 0
-1080 -1197 0
-1081 -1192 0
-1082 -1193 0
-1083 -1194 0
-1084 -1243 0
-1085 -1244 0
-1086 -1245 0
-1093 -1219 0
-1094 -1220 0
-1095 -1221 0
-1093 -1231 0
-1094 -1232 0
-1095 -1233 0
-1096 -1186 0
-1097 -1187 0
-1098 -1188 0
-1099 -1390 0
-1100 -1391 0
-1101 -1392 0
-1102 -1396 0
-1103 -1397 0
-1104 -1398 0
-1105 -1384 0
-1106 -1385 0
-1107 -1386 0
-1108 -1363 0
-1109 -1364 0
-1110 -1365 0
-1111 -1198 0
-1112 -1199 0
-1113 -1200 0
-1114 -1213 0
-1115 -1214 0
-1116 -1215 0
-1117 -1129 0
-1118 -1130 0
-1119 -1131 0
-1120 -1177 0
-1121 -1178 0
-1122 -1179 0
-1120 -1378 0
-1121 -1379 0
-1122 -1380 0
-1120 -1180 0
-1121 -1181 0
-1122 -1182 0
-1120 -1150 0
-1121 -1151 0
-1122 -1152 0
-1123 -1243 0
-1124 -1244 0
-1125 -1245 0
-1123 -1399 0
-1124 -1400 0
-1125 -1401 0
-1123 -1174 0
-1124 -1175 0
-1125 -1176 0
-1126 -1285 0
-1127 -1286 0
-1128 -1287 0
-1129 -1186 0
-1130 -1187 0
-1131 -1188 0
-1132 -1204 0
-1133 -1205 0
-1134 -1206 0
-1135 -1207 0
-1136 -1208 0
-1137 -1209 0
-1138 -1327 0
-1139 -1328 0
-1140 -1329 0
-1141 -1177 0
-1142 -1178 0
-1143 -1179 0
-1144 -1273 0
-1145 -1274 0
-1146 -1275 0
-1150 -1303 0
-1151 -1304 0
-1152 -1305 0
-1153 -1363 0
-1154 -1364 0
-1155 -1365 0
-1159 -1396 0
-1160 -1397 0
-1161 -1398 0
-1159 -1174 0
-1160 -1175 0
-1161 -1176 0
-1165 -1180 0
-1166 -1181 0
-1167 -1182 0
-1171 -1213 0
-1172 -1214 0
-1173 -1215 0
-1174 -1303 0
-1175 -1304 0
-1176 -1305 0
-1180 -1309 0
-1181 -1310 0
-1182 -1311 0
-1183 -1204 0
-1184 -1205 0
-1185 -1206 0
-1186 -1222 0
-1187 -1223 0
-1188 -1224 0
-1189 -1243 0
-1190 -1244 0
-1191 -1245 0
-1189 -1225 0
-1190 -1226 0
-1191 -1227 0
-1189 -1237 0
-1190 -1238 0
-1191 -1239 0
-1198 -1312 0
-1199 -1313 0
-1200 -1314 0
-1198 -1321 0
-1199 -1322 0
-1200 -1323 0
-1201 -1384 0
-1202 -1385 0
-1203 -1386 0
-1204 -1246 0
-1205 -1247 0
-1206 -1248 0
-1204 -1306 0
-1205 -1307 0
-1206 -1308 0
-1204 -1315 0
-1205 -1316 0
-1206 -1317 0
-1216 -1399 0
-1217 -1400 0
-1218 -1401 0
-1216 -1372 0
-1217 -1373 0
-1218 -1374 0
-1219 -1297 0
-1220 -1298 0
-1221 -1299 0
-1219 -1300 0
-1220 -1301 0
-1221 -1302 0
-1231 -1300 0
-1232 -1301 0
-1233 -1302 0
-1231 -1327 0
-1232 -1328 0
-1233 -1329 0
-1231 -1318 0
-1232 -1319 0
-1233 -1320 0
-1231 -1288 0
-1232 -1289 0
-1233 -1290 0
-1234 -1372 0
-1235 -1373 0
-1236 -1374 0
-1255 -1399 0
-1256 -1400 0
-1257 -1401 0
-1270 -1297 0
-1271 -1298 0
-1272 -1299 0
-1270 -1381 0
-1271 -1382 0
-1272 -1383 0
-1273 -1279 0
-1274 -1280 0
-1275 -1281 0
-1279 -1363 0
-1280 -1364 0
-1281 -1365 0
-1285 -1294 0
-1286 -1295 0
-1287 -1296 0
-1309 -1375 0
-1310 -1376 0
-1311 -1377 0
-1309 -1378 0
-1310 -1379 0
-1311 -1380 0
-1312 -1378 0
-1313 -1379 0
-1314 -1380 0
-1336 -1375 0
-1337 -1376 0
-1338 -1377 0
-1336 -1372 0
-1337 -1373 0
-1338 -1374 0
-1345 -1390 0
-1346 -1391 0
-1347 -1392 0
-1354 -1387 0
-1355 -1388 0
-1356 -1389 0
-1390 -1399 0
-1391 -1400 0
-1392 -1401 0
1 0
1184 0
