p cnf 1533 4086
1 2 3 0
4 5 6 0
7 8 9 0
10 11 12 0
13 14 15 0
16 17 18 0
19 20 21 0
22 23 24 0
25 26 27 0
28 29 30 0
31 32 33 0
34 35 36 0
37 38 39 0
40 41 42 0
43 44 45 0
46 47 48 0
49 50 51 0
52 53 54 0
55 56 57 0
58 59 60 0
61 62 63 0
64 65 66 0
67 68 69 0
70 71 72 0
73 74 75 0
76 77 78 0
79 80 81 0
82 83 84 0
85 86 87 0
88 89 90 0
91 92 93 0
94 95 96 0
97 98 99 0
100 101 102 0
103 104 105 0
106 107 108 0
109 110 111 0
112 113 114 0
115 116 117 0
118 119 120 0
121 122 123 0
124 125 126 0
127 128 129 0
130 131 132 0
133 134 135 0
136 137 138 0
139 140 141 0
142 143 144 0
145 146 147 0
148 149 150 0
151 152 153 0
154 155 156 0
157 158 159 0
160 161 162 0
163 164 165 0
166 167 168 0
169 170 171 0
172 173 174 0
175 176 177 0
178 179 180 0
181 182 183 0
184 185 186 0
187 188 189 0
190 191 192 0
193 194 195 0
196 197 198 0
199 200 201 0
202 203 204 0
205 206 207 0
208 209 210 0
211 212 213 0
214 215 216 0
217 218 219 0
220 221 222 0
223 224 225 0
226 227 228 0
229 230 231 0
232 233 234 0
235 236 237 0
238 239 240 0
241 242 243 0
244 245 246 0
247 248 249 0
250 251 252 0
253 254 255 0
256 257 258 0
259 260 261 0
262 263 264 0
265 266 267 0
268 269 270 0
271 272 273 0
274 275 276 0
277 278 279 0
280 281 282 0
283 284 285 0
286 287 288 0
289 290 291 0
292 293 294 0
295 296 297 0
298 299 300 0
301 302 303 0
304 305 306 0
307 308 309 0
310 311 312 0
313 314 315 0
316 317 318 0
319 320 321 0
322 323 324 0
325 326 327 0
328 329 330 0
331 332 333 0
334 335 336 0
337 338 339 0
340 341 342 0
343 344 345 0
346 347 348 0
349 350 351 0
352 353 354 0
355 356 357 0
358 359 360 0
361 362 363 0
364 365 366 0
367 368 369 0
370 371 372 0
373 374 375 0
376 377 378 0
379 380 381 0
382 383 384 0
385 386 387 0
388 389 390 0
391 392 393 0
394 395 396 0
397 398 399 0
400 401 402 0
403 404 405 0
406 407 408 0
409 410 411 0
412 413 414 0
415 416 417 0
418 419 420 0
421 422 423 0
424 425 426 0
427 428 429 0
430 431 432 0
433 434 435 0
436 437 438 0
439 440 441 0
442 443 444 0
445 446 447 0
448 449 450 0
451 452 453 0
454 455 456 0
457 458 459 0
460 461 462 0
463 464 465 0
466 467 468 0
469 470 471 0
472 473 474 0
475 476 477 0
478 479 480 0
481 482 483 0
484 485 486 0
487 488 489 0
490 491 492 0
493 494 495 0
496 497 498 0
499 500 501 0
502 503 504 0
505 506 507 0
508 509 510 0
511 512 513 0
514 515 516 0
517 518 519 0
520 521 522 0
523 524 525 0
526 527 528 0
529 530 531 0
532 533 534 0
535 536 537 0
538 539 540 0
541 542 543 0
544 545 546 0
547 548 549 0
550 551 552 0
553 554 555 0
556 557 558 0
559 560 561 0
562 563 564 0
565 566 567 0
568 569 570 0
571 572 573 0
574 575 576 0
577 578 579 0
580 581 582 0
583 584 585 0
586 587 588 0
589 590 591 0
592 593 594 0
595 596 597 0
598 599 600 0
601 602 603 0
604 605 606 0
607 608 609 0
610 611 612 0
613 614 615 0
616 617 618 0
619 620 621 0
622 623 624 0
625 626 627 0
628 629 630 0
631 632 633 0
634 635 636 0
637 638 639 0
640 641 642 0
643 644 645 0
646 647 648 0
649 650 651 0
652 653 654 0
655 656 657 0
658 659 660 0
661 662 663 0
664 665 666 0
667 668 669 0
670 671 672 0
673 674 675 0
676 677 678 0
679 680 681 0
682 683 684 0
685 686 687 0
688 689 690 0
691 692 693 0
694 695 696 0
697 698 699 0
700 701 702 0
703 704 705 0
706 707 708 0
709 710 711 0
712 713 714 0
715 716 717 0
718 719 720 0
721 722 723 0
724 725 726 0
727 728 729 0
730 731 732 0
733 734 735 0
736 737 738 0
739 740 741 0
742 743 744 0
745 746 747 0
748 749 750 0
751 752 753 0
754 755 756 0
757 758 759 0
760 761 762 0
763 764 765 0
766 767 768 0
769 770 771 0
772 773 774 0
775 776 777 0
778 779 780 0
781 782 783 0
784 785 786 0
787 788 789 0
790 791 792 0
793 794 795 0
796 797 798 0
799 800 801 0
802 803 804 0
805 806 807 0
808 809 810 0
811 812 813 0
814 815 816 0
817 818 819 0
820 821 822 0
823 824 825 0
826 827 828 0
829 830 831 0
832 833 834 0
835 836 837 0
838 839 840 0
841 842 843 0
844 845 846 0
847 848 849 0
850 851 852 0
853 854 855 0
856 857 858 0
859 860 861 0
862 863 864 0
865 866 867 0
868 869 870 0
871 872 873 0
874 875 876 0
877 878 879 0
880 881 882 0
883 884 885 0
886 887 888 0
889 890 891 0
892 893 894 0
895 896 897 0
898 899 900 0
901 902 903 0
904 905 906 0
907 908 909 0
910 911 912 0
913 914 915 0
916 917 918 0
919 920 921 0
922 923 924 0
925 926 927 0
928 929 930 0
931 932 933 0
934 935 936 0
937 938 939 0
940 941 942 0
943 944 945 0
946 947 948 0
949 950 951 0
952 953 954 0
955 956 957 0
958 959 960 0
961 962 963 0
964 965 966 0
967 968 969 0
970 971 972 0
973 974 975 0
976 977 978 0
979 980 981 0
982 983 984 0
985 986 987 0
988 989 990 0
991 992 993 0
994 995 996 0
997 998 999 0
1000 1001 1002 0
1003 1004 1005 0
1006 1007 1008 0
1009 1010 1011 0
1012 1013 1014 0
1015 1016 1017 0
1018 1019 1020 0
1021 1022 1023 0
1024 1025 1026 0
1027 1028 1029 0
1030 1031 1032 0
1033 1034 1035 0
1036 1037 1038 0
1039 1040 1041 0
1042 1043 1044 0
1045 1046 1047 0
1048 1049 1050 0
1051 1052 1053 0
1054 1055 1056 0
1057 1058 1059 0
1060 1061 1062 0
1063 1064 1065 0
1066 1067 1068 0
1069 1070 1071 0
1072 1073 1074 0
1075 1076 1077 0
1078 1079 1080 0
1081 1082 1083 0
1084 1085 1086 0
1087 1088 1089 0
1090 1091 1092 0
1093 1094 1095 0
1096 1097 1098 0
1099 1100 1101 0
1102 1103 1104 0
1105 1106 1107 0
1108 1109 1110 0
1111 1112 1113 0
1114 1115 1116 0
1117 1118 1119 0
1120 1121 1122 0
1123 1124 1125 0
1126 1127 1128 0
1129 1130 1131 0
1132 1133 1134 0
1135 1136 1137 0
1138 1139 1140 0
1141 1142 1143 0
1144 1145 1146 0
1147 1148 1149 0
1150 1151 1152 0
1153 1154 1155 0
1156 1157 1158 0
1159 1160 1161 0
1162 1163 1164 0
1165 1166 1167 0
1168 1169 1170 0
1171 1172 1173 0
1174 1175 1176 0
1177 1178 1179 0
1180 1181 1182 0
1183 1184 1185 0
1186 1187 1188 0
1189 1190 1191 0
1192 1193 1194 0
1195 1196 1197 0
1198 1199 1200 0
1201 1202 1203 0
1204 1205 1206 0
1207 1208 1209 0
1210 1211 1212 0
1213 1214 1215 0
1216 1217 1218 0
1219 1220 1221 0
1222 1223 1224 0
1225 1226 1227 0
1228 1229 1230 0
1231 1232 1233 0
1234 1235 1236 0
1237 1238 1239 0
1240 1241 1242 0
1243 1244 1245 0
1246 1247 1248 0
1249 1250 1251 0
1252 1253 1254 0
1255 1256 1257 0
1258 1259 1260 0
1261 1262 1263 0
1264 1265 1266 0
1267 1268 1269 0
1270 1271 1272 0
1273 1274 1275 0
1276 1277 1278 0
1279 1280 1281 0
1282 1283 1284 0
1285 1286 1287 0
1288 1289 1290 0
1291 1292 1293 0
1294 1295 1296 0
1297 1298 1299 0
1300 1301 1302 0
1303 1304 1305 0
1306 1307 1308 0
1309 1310 1311 0
1312 1313 1314 0
1315 1316 1317 0
1318 1319 1320 0
1321 1322 1323 0
1324 1325 1326 0
1327 1328 1329 0
1330 1331 1332 0
1333 1334 1335 0
1336 1337 1338 0
1339 1340 1341 0
1342 1343 1344 0
1345 1346 1347 0
1348 1349 1350 0
1351 1352 1353 0
1354 1355 1356 0
1357 1358 1359 0
1360 1361 1362 0
1363 1364 1365 0
1366 1367 1368 0
1369 1370 1371 0
1372 1373 1374 0
1375 1376 1377 0
1378 1379 1380 0
1381 1382 1383 0
1384 1385 1386 0
1387 1388 1389 0
1390 1391 1392 0
1393 1394 1395 0
1396 1397 1398 0
1399 1400 1401 0
1402 1403 1404 0
1405 1406 1407 0
1408 1409 1410 0
1411 1412 1413 0
1414 1415 1416 0
1417 1418 1419 0
1420 1421 1422 0
1423 1424 1425 0
1426 1427 1428 0
1429 1430 1431 0
1432 1433 1434 0
1435 1436 1437 0
1438 1439 1440 0
1441 1442 1443 0
1444 1445 1446 0
1447 1448 1449 0
1450 1451 1452 0
1453 1454 1455 0
1456 1457 1458 0
1459 1460 1461 0
1462 1463 1464 0
1465 1466 1467 0
1468 1469 1470 0
1471 1472 1473 0
1474 1475 1476 0
1477 1478 1479 0
1480 1481 1482 0
1483 1484 1485 0
1486 1487 1488 0
1489 1490 1491 0
1492 1493 1494 0
1495 1496 1497 0
1498 1499 1500 0
1501 1502 1503 0
1504 1505 1506 0
1507 1508 1509 0
1510 1511 1512 0
1513 1514 1515 0
1516 1517 1518 0
1519 1520 1521 0
1522 1523 1524 0
1525 1526 1527 0
1528 1529 1530 0
1531 1532 1533 0
-1 -130 0
-2 -131 0
-3 -132 0
-1 -1396 0
-2 -1397 0
-3 -1398 0
-1 -1387 0
-2 -1388 0
-3 -1389 0
-1 -1528 0
-2 -1529 0
-3 -1530 0
-4 -1396 0
-5 -1397 0
-6 -1398 0
-4 -145 0
-5 -146 0
-6 -147 0
-4 -1207 0
-5 -1208 0
-6 -1209 0
-4 -1057 0
-5 -1058 0
-6 -1059 0
-4 -1354 0
-5 -1355 0
-6 -1356 0
-7 -109 0
-8 -110 0
-9 -111 0
-7 -1315 0
-8 -1316 0
-9 -1317 0
-7 -1207 0
-8 -1208 0
-9 -1209 0
-7 -1300 0
-8 -1301 0
-9 -1302 0
-7 -241 0
-8 -242 0
-9 -243 0
-10 -250 0
-11 -251 0
-12 -252 0
-10 -109 0
-11 -110 0
-12 -111 0
-10 -1204 0
-11 -1205 0
-12 -1206 0
-10 -1162 0
-11 -1163 0
-12 -1164 0
-10 -1231 0
-11 -1232 0
-12 -1233 0
-10 -1222 0
-11 -1223 0
-12 -1224 0
-13 -1348 0
-14 -1349 0
-15 -1350 0
-13 -1351 0
-14 -1352 0
-15 -1353 0
-13 -172 0
-14 -173 0
-15 -174 0
-13 -1369 0
-14 -1370 0
-15 -1371 0
-13 -1300 0
-14 -1301 0
-15 -1302 0
-16 -250 0
-17 -251 0
-18 -252 0
-16 -1366 0
-17 -1367 0
-18 -1368 0
-16 -127 0
-17 -128 0
-18 -129 0
-19 -109 0
-20 -110 0
-21 -111 0
-19 -283 0
-20 -284 0
-21 -285 0
-19 -1237 0
-20 -1238 0
-21 -1239 0
-19 -1417 0
-20 -1418 0
-21 -1419 0
-22 -250 0
-23 -251 0
-24 -252 0
-22 -148 0
-23 -149 0
-24 -150 0
-22 -1297 0
-23 -1298 0
-24 -1299 0
-25 -1471 0
-26 -1472 0
-27 -1473 0
-25 -118 0
-26 -119 0
-27 -120 0
-25 -298 0
-26 -299 0
-27 -300 0
-28 -1471 0
-29 -1472 0
-30 -1473 0
-28 -118 0
-29 -119 0
-30 -120 0
-28 -304 0
-29 -305 0
-30 -306 0
-28 -1414 0
-29 -1415 0
-30 -1416 0
-31 -157 0
-32 -158 0
-33 -159 0
-31 -1486 0
-32 -1487 0
-33 -1488 0
-31 -241 0
-32 -242 0
-33 -243 0
-34 -115 0
-35 -116 0
-36 -117 0
-34 -1204 0
-35 -1205 0
-36 -1206 0
-34 -343 0
-35 -344 0
-36 -345 0
-34 -1222 0
-35 -1223 0
-36 -1224 0
-37 -118 0
-38 -119 0
-39 -120 0
-37 -1315 0
-38 -1316 0
-39 -1317 0
-37 -1318 0
-38 -1319 0
-39 -1320 0
-37 -352 0
-38 -353 0
-39 -354 0
-37 -1300 0
-38 -1301 0
-39 -1302 0
-40 -1495 0
-41 -1496 0
-42 -1497 0
-40 -136 0
-41 -137 0
-42 -138 0
-40 -1408 0
-41 -1409 0
-42 -1410 0
-40 -1462 0
-41 -1463 0
-42 -1464 0
-40 -334 0
-41 -335 0
-42 -336 0
-43 -1531 0
-44 -1532 0
-45 -1533 0
-43 -1372 0
-44 -1373 0
-45 -1374 0
-43 -157 0
-44 -158 0
-45 -159 0
-43 -316 0
-44 -317 0
-45 -318 0
-46 -115 0
-47 -116 0
-48 -117 0
-46 -361 0
-47 -362 0
-48 -363 0
-46 -1411 0
-47 -1412 0
-48 -1413 0
-49 -283 0
-50 -284 0
-51 -285 0
-49 -364 0
-50 -365 0
-51 -366 0
-49 -289 0
-50 -290 0
-51 -291 0
-49 -172 0
-50 -173 0
-51 -174 0
-49 -1018 0
-50 -1019 0
-51 -1020 0
-49 -91 0
-50 -92 0
-51 -93 0
-52 -301 0
-53 -302 0
-54 -303 0
-52 -1477 0
-53 -1478 0
-54 -1479 0
-52 -1324 0
-53 -1325 0
-54 -1326 0
-52 -172 0
-53 -173 0
-54 -174 0
-55 -109 0
-56 -110 0
-57 -111 0
-55 -412 0
-56 -413 0
-57 -414 0
-55 -1228 0
-56 -1229 0
-57 -1230 0
-58 -1489 0
-59 -1490 0
-60 -1491 0
-58 -433 0
-59 -434 0
-60 -435 0
-58 -109 0
-59 -110 0
-60 -111 0
-58 -1264 0
-59 -1265 0
-60 -1266 0
-61 -115 0
-62 -116 0
-63 -117 0
-61 -1171 0
-62 -1172 0
-63 -1173 0
-61 -1204 0
-62 -1205 0
-63 -1206 0
-61 -430 0
-62 -431 0
-63 -432 0
-61 -1036 0
-62 -1037 0
-63 -1038 0
-64 -250 0
-65 -251 0
-66 -252 0
-64 -364 0
-65 -365 0
-66 -366 0
-64 -367 0
-65 -368 0
-66 -369 0
-64 -97 0
-65 -98 0
-66 -99 0
-64 -100 0
-65 -101 0
-66 -102 0
-64 -1522 0
-65 -1523 0
-66 -1524 0
-64 -241 0
-65 -242 0
-66 -243 0
-67 -109 0
-68 -110 0
-69 -111 0
-67 -469 0
-68 -470 0
-69 -471 0
-67 -1270 0
-68 -1271 0
-69 -1272 0
-67 -1147 0
-68 -1148 0
-69 -1149 0
-70 -109 0
-71 -110 0
-72 -111 0
-70 -1492 0
-71 -1493 0
-72 -1494 0
-70 -481 0
-71 -482 0
-72 -483 0
-70 -1273 0
-71 -1274 0
-72 -1275 0
-73 -115 0
-74 -116 0
-75 -117 0
-73 -484 0
-74 -485 0
-75 -486 0
-73 -994 0
-74 -995 0
-75 -996 0
-73 -370 0
-74 -371 0
-75 -372 0
-73 -985 0
-74 -986 0
-75 -987 0
-76 -130 0
-77 -131 0
-78 -132 0
-76 -1474 0
-77 -1475 0
-78 -1476 0
-76 -469 0
-77 -470 0
-78 -471 0
-76 -1228 0
-77 -1229 0
-78 -1230 0
-76 -1429 0
-77 -1430 0
-78 -1431 0
-76 -1246 0
-77 -1247 0
-78 -1248 0
-79 -481 0
-80 -482 0
-81 -483 0
-79 -1498 0
-80 -1499 0
-81 -1500 0
-79 -1501 0
-80 -1502 0
-81 -1503 0
-79 -127 0
-80 -128 0
-81 -129 0
-79 -1291 0
-80 -1292 0
-81 -1293 0
-79 -1252 0
-80 -1253 0
-81 -1254 0
-79 -1279 0
-80 -1280 0
-81 -1281 0
-82 -484 0
-83 -485 0
-84 -486 0
-82 -1432 0
-83 -1433 0
-84 -1434 0
-82 -1423 0
-83 -1424 0
-84 -1425 0
-82 -124 0
-83 -125 0
-84 -126 0
-82 -1249 0
-83 -1250 0
-84 -1251 0
-82 -1276 0
-83 -1277 0
-84 -1278 0
-82 -1255 0
-83 -1256 0
-84 -1257 0
-85 -1471 0
-86 -1472 0
-87 -1473 0
-85 -1474 0
-86 -1475 0
-87 -1476 0
-85 -430 0
-86 -431 0
-87 -432 0
-88 -412 0
-89 -413 0
-90 -414 0
-88 -1420 0
-89 -1421 0
-90 -1422 0
-88 -1066 0
-89 -1067 0
-90 -1068 0
-88 -172 0
-89 -173 0
-90 -174 0
-91 -271 0
-92 -272 0
-93 -273 0
-91 -166 0
-92 -167 0
-93 -168 0
-91 -1084 0
-92 -1085 0
-93 -1086 0
-91 -418 0
-92 -419 0
-93 -420 0
-94 -1240 0
-95 -1241 0
-96 -1242 0
-94 -424 0
-95 -425 0
-96 -426 0
-94 -1423 0
-95 -1424 0
-96 -1425 0
-94 -172 0
-95 -173 0
-96 -174 0
-97 -1396 0
-98 -1397 0
-99 -1398 0
-97 -469 0
-98 -470 0
-99 -471 0
-97 -145 0
-98 -146 0
-99 -147 0
-97 -1387 0
-98 -1388 0
-99 -1389 0
-100 -148 0
-101 -149 0
-102 -150 0
-100 -466 0
-101 -467 0
-102 -468 0
-103 -181 0
-104 -182 0
-105 -183 0
-103 -184 0
-104 -185 0
-105 -186 0
-103 -418 0
-104 -419 0
-105 -420 0
-106 -109 0
-107 -110 0
-108 -111 0
-106 -1261 0
-107 -1262 0
-108 -1263 0
-106 -586 0
-107 -587 0
-108 -588 0
-106 -1228 0
-107 -1229 0
-108 -1230 0
-106 -1204 0
-107 -1205 0
-108 -1206 0
-106 -1036 0
-107 -1037 0
-108 -1038 0
-109 -331 0
-110 -332 0
-111 -333 0
-109 -187 0
-110 -188 0
-111 -189 0
-109 -112 0
-110 -113 0
-111 -114 0
-109 -160 0
-110 -161 0
-111 -162 0
-109 -457 0
-110 -458 0
-111 -459 0
-109 -532 0
-110 -533 0
-111 -534 0
-109 -226 0
-110 -227 0
-111 -228 0
-109 -229 0
-110 -230 0
-111 -231 0
-109 -589 0
-110 -590 0
-111 -591 0
-109 -280 0
-110 -281 0
-111 -282 0
-112 -1312 0
-113 -1313 0
-114 -1314 0
-112 -1123 0
-113 -1124 0
-114 -1125 0
-112 -592 0
-113 -593 0
-114 -594 0
-112 -1300 0
-113 -1301 0
-114 -1302 0
-115 -256 0
-116 -257 0
-117 -258 0
-115 -196 0
-116 -197 0
-117 -198 0
-115 -199 0
-116 -200 0
-117 -201 0
-115 -472 0
-116 -473 0
-117 -474 0
-115 -478 0
-116 -479 0
-117 -480 0
-115 -544 0
-116 -545 0
-117 -546 0
-115 -589 0
-116 -590 0
-117 -591 0
-118 -253 0
-119 -254 0
-120 -255 0
-118 -202 0
-119 -203 0
-120 -204 0
-118 -475 0
-119 -476 0
-120 -477 0
-118 -547 0
-119 -548 0
-120 -549 0
-118 -589 0
-119 -590 0
-120 -591 0
-121 -484 0
-122 -485 0
-123 -486 0
-121 -1267 0
-122 -1268 0
-123 -1269 0
-121 -166 0
-122 -167 0
-123 -168 0
-121 -1132 0
-122 -1133 0
-123 -1134 0
-124 -193 0
-125 -194 0
-126 -195 0
-124 -589 0
-125 -590 0
-126 -591 0
-127 -589 0
-128 -590 0
-129 -591 0
-130 -517 0
-131 -518 0
-132 -519 0
-130 -589 0
-131 -590 0
-132 -591 0
-133 -307 0
-134 -308 0
-135 -309 0
-133 -1282 0
-134 -1283 0
-135 -1284 0
-133 -1285 0
-134 -1286 0
-135 -1287 0
-133 -1243 0
-134 -1244 0
-135 -1245 0
-133 -1210 0
-134 -1211 0
-135 -1212 0
-133 -1213 0
-134 -1214 0
-135 -1215 0
-133 -1288 0
-134 -1289 0
-135 -1290 0
-133 -316 0
-134 -317 0
-135 -318 0
-136 -376 0
-137 -377 0
-138 -378 0
-136 -589 0
-137 -590 0
-138 -591 0
-139 -166 0
-140 -167 0
-141 -168 0
-139 -1273 0
-140 -1274 0
-141 -1275 0
-139 -1264 0
-140 -1265 0
-141 -1266 0
-142 -1054 0
-143 -1055 0
-144 -1056 0
-142 -1048 0
-143 -1049 0
-144 -1050 0
-142 -283 0
-143 -284 0
-144 -285 0
-142 -1336 0
-143 -1337 0
-144 -1338 0
-142 -352 0
-143 -353 0
-144 -354 0
-145 -646 0
-146 -647 0
-147 -648 0
-145 -397 0
-146 -398 0
-147 -399 0
-145 -403 0
-146 -404 0
-147 -405 0
-145 -589 0
-146 -590 0
-147 -591 0
-148 -406 0
-149 -407 0
-150 -408 0
-148 -232 0
-149 -233 0
-150 -234 0
-148 -589 0
-149 -590 0
-150 -591 0
-151 -988 0
-152 -989 0
-153 -990 0
-151 -250 0
-152 -251 0
-153 -252 0
-151 -1459 0
-152 -1460 0
-153 -1461 0
-151 -1150 0
-152 -1151 0
-153 -1152 0
-151 -424 0
-152 -425 0
-153 -426 0
-151 -1135 0
-152 -1136 0
-153 -1137 0
-154 -1102 0
-155 -1103 0
-156 -1104 0
-154 -1081 0
-155 -1082 0
-156 -1083 0
-154 -430 0
-155 -431 0
-156 -432 0
-154 -241 0
-155 -242 0
-156 -243 0
-157 -292 0
-158 -293 0
-159 -294 0
-157 -652 0
-158 -653 0
-159 -654 0
-157 -589 0
-158 -590 0
-159 -591 0
-160 -676 0
-161 -677 0
-162 -678 0
-160 -1189 0
-161 -1190 0
-162 -1191 0
-163 -1048 0
-164 -1049 0
-165 -1050 0
-163 -586 0
-164 -587 0
-165 -588 0
-163 -166 0
-164 -167 0
-165 -168 0
-163 -1303 0
-164 -1304 0
-165 -1305 0
-166 -670 0
-167 -671 0
-168 -672 0
-166 -631 0
-167 -632 0
-168 -633 0
-166 -451 0
-167 -452 0
-168 -453 0
-166 -454 0
-167 -455 0
-168 -456 0
-166 -211 0
-167 -212 0
-168 -213 0
-166 -262 0
-167 -263 0
-168 -264 0
-166 -268 0
-167 -269 0
-168 -270 0
-166 -394 0
-167 -395 0
-168 -396 0
-166 -583 0
-167 -584 0
-168 -585 0
-166 -589 0
-167 -590 0
-168 -591 0
-169 -1318 0
-170 -1319 0
-171 -1320 0
-169 -172 0
-170 -173 0
-171 -174 0
-169 -1024 0
-170 -1025 0
-171 -1026 0
-169 -1123 0
-170 -1124 0
-171 -1125 0
-169 -586 0
-170 -587 0
-171 -588 0
-169 -1207 0
-170 -1208 0
-171 -1209 0
-169 -1300 0
-170 -1301 0
-171 -1302 0
-172 -595 0
-173 -596 0
-174 -597 0
-172 -328 0
-173 -329 0
-174 -330 0
-172 -673 0
-173 -674 0
-174 -675 0
-172 -259 0
-173 -260 0
-174 -261 0
-172 -460 0
-173 -461 0
-174 -462 0
-172 -382 0
-173 -383 0
-174 -384 0
-172 -220 0
-173 -221 0
-174 -222 0
-172 -265 0
-173 -266 0
-174 -267 0
-172 -271 0
-173 -272 0
-174 -273 0
-172 -175 0
-173 -176 0
-174 -177 0
-172 -685 0
-173 -686 0
-174 -687 0
-172 -391 0
-173 -392 0
-174 -393 0
-172 -379 0
-173 -380 0
-174 -381 0
-172 -325 0
-173 -326 0
-174 -327 0
-172 -589 0
-173 -590 0
-174 -591 0
-175 -1435 0
-176 -1436 0
-177 -1437 0
-175 -592 0
-176 -593 0
-177 -594 0
-175 -1240 0
-176 -1241 0
-177 -1242 0
-175 -1234 0
-176 -1235 0
-177 -1236 0
-178 -433 0
-179 -434 0
-180 -435 0
-178 -580 0
-179 -581 0
-180 -582 0
-178 -277 0
-179 -278 0
-180 -279 0
-178 -1294 0
-179 -1295 0
-180 -1296 0
-181 -295 0
-182 -296 0
-183 -297 0
-181 -439 0
-182 -440 0
-183 -441 0
-181 -274 0
-182 -275 0
-183 -276 0
-181 -589 0
-182 -590 0
-183 -591 0
-184 -442 0
-185 -443 0
-186 -444 0
-184 -295 0
-185 -296 0
-186 -297 0
-187 -1192 0
-188 -1193 0
-189 -1194 0
-187 -712 0
-188 -713 0
-189 -714 0
-190 -337 0
-191 -338 0
-192 -339 0
-190 -1243 0
-191 -1244 0
-192 -1245 0
-190 -1213 0
-191 -1214 0
-192 -1215 0
-193 -1438 0
-194 -1439 0
-195 -1440 0
-193 -1249 0
-194 -1250 0
-195 -1251 0
-193 -697 0
-194 -698 0
-195 -699 0
-196 -1408 0
-197 -1409 0
-198 -1410 0
-196 -1507 0
-197 -1508 0
-198 -1509 0
-196 -985 0
-197 -986 0
-198 -987 0
-196 -1462 0
-197 -1463 0
-198 -1464 0
-196 -991 0
-197 -992 0
-198 -993 0
-196 -706 0
-197 -707 0
-198 -708 0
-199 -991 0
-200 -992 0
-201 -993 0
-199 -715 0
-200 -716 0
-201 -717 0
-199 -1000 0
-200 -1001 0
-201 -1002 0
-202 -1087 0
-203 -1088 0
-204 -1089 0
-202 -1258 0
-203 -1259 0
-204 -1260 0
-202 -712 0
-203 -713 0
-204 -714 0
-202 -1069 0
-203 -1070 0
-204 -1071 0
-205 -493 0
-206 -494 0
-207 -495 0
-205 -466 0
-206 -467 0
-207 -468 0
-205 -1348 0
-206 -1349 0
-207 -1350 0
-208 -307 0
-209 -308 0
-210 -309 0
-208 -481 0
-209 -482 0
-210 -483 0
-208 -499 0
-209 -500 0
-210 -501 0
-208 -1351 0
-209 -1352 0
-210 -1353 0
-208 -319 0
-209 -320 0
-210 -321 0
-211 -667 0
-212 -668 0
-213 -669 0
-211 -1069 0
-212 -1070 0
-213 -1071 0
-211 -1264 0
-212 -1265 0
-213 -1266 0
-214 -1342 0
-215 -1343 0
-216 -1344 0
-214 -424 0
-215 -425 0
-216 -426 0
-214 -1501 0
-215 -1502 0
-216 -1503 0
-214 -352 0
-215 -353 0
-216 -354 0
-214 -1300 0
-215 -1301 0
-216 -1302 0
-217 -1426 0
-218 -1427 0
-219 -1428 0
-217 -1474 0
-218 -1475 0
-219 -1476 0
-217 -1204 0
-218 -1205 0
-219 -1206 0
-217 -1429 0
-218 -1430 0
-219 -1431 0
-217 -1432 0
-218 -1433 0
-219 -1434 0
-217 -430 0
-218 -431 0
-219 -432 0
-217 -343 0
-218 -344 0
-219 -345 0
-220 -676 0
-221 -677 0
-222 -678 0
-220 -1324 0
-221 -1325 0
-222 -1326 0
-220 -1333 0
-221 -1334 0
-222 -1335 0
-220 -985 0
-221 -986 0
-222 -987 0
-220 -991 0
-221 -992 0
-222 -993 0
-223 -433 0
-224 -434 0
-225 -435 0
-223 -1285 0
-224 -1286 0
-225 -1287 0
-223 -337 0
-224 -338 0
-225 -339 0
-223 -1243 0
-224 -1244 0
-225 -1245 0
-226 -1312 0
-227 -1313 0
-228 -1314 0
-226 -1231 0
-227 -1232 0
-228 -1233 0
-226 -1237 0
-227 -1238 0
-228 -1239 0
-229 -1036 0
-230 -1037 0
-231 -1038 0
-229 -1120 0
-230 -1121 0
-231 -1122 0
-229 -781 0
-230 -782 0
-231 -783 0
-232 -712 0
-233 -713 0
-234 -714 0
-232 -568 0
-233 -569 0
-234 -570 0
-232 -355 0
-233 -356 0
-234 -357 0
-235 -301 0
-236 -302 0
-237 -303 0
-235 -1495 0
-236 -1496 0
-237 -1497 0
-235 -514 0
-236 -515 0
-237 -516 0
-235 -1528 0
-236 -1529 0
-237 -1530 0
-238 -1489 0
-239 -1490 0
-240 -1491 0
-238 -1492 0
-239 -1493 0
-240 -1494 0
-238 -298 0
-239 -299 0
-240 -300 0
-238 -1465 0
-239 -1466 0
-240 -1467 0
-241 -358 0
-242 -359 0
-243 -360 0
-241 -772 0
-242 -773 0
-243 -774 0
-241 -742 0
-242 -743 0
-243 -744 0
-241 -682 0
-242 -683 0
-243 -684 0
-241 -718 0
-242 -719 0
-243 -720 0
-241 -721 0
-242 -722 0
-243 -723 0
-241 -322 0
-242 -323 0
-243 -324 0
-241 -247 0
-242 -248 0
-243 -249 0
-241 -355 0
-242 -356 0
-243 -357 0
-241 -589 0
-242 -590 0
-243 -591 0
-244 -250 0
-245 -251 0
-246 -252 0
-244 -1054 0
-245 -1055 0
-246 -1056 0
-244 -1372 0
-245 -1373 0
-246 -1374 0
-244 -1048 0
-245 -1049 0
-246 -1050 0
-244 -586 0
-245 -587 0
-246 -588 0
-244 -1204 0
-245 -1205 0
-246 -1206 0
-247 -592 0
-248 -593 0
-249 -594 0
-247 -1342 0
-248 -1343 0
-249 -1344 0
-247 -1300 0
-248 -1301 0
-249 -1302 0
-247 -1369 0
-248 -1370 0
-249 -1371 0
-250 -520 0
-251 -521 0
-252 -522 0
-250 -445 0
-251 -446 0
-252 -447 0
-250 -727 0
-251 -728 0
-252 -729 0
-250 -730 0
-251 -731 0
-252 -732 0
-250 -589 0
-251 -590 0
-252 -591 0
-253 -784 0
-254 -785 0
-255 -786 0
-253 -1441 0
-254 -1442 0
-255 -1443 0
-253 -1414 0
-254 -1415 0
-255 -1416 0
-256 -1510 0
-257 -1511 0
-258 -1512 0
-256 -1375 0
-257 -1376 0
-258 -1377 0
-259 -1333 0
-260 -1334 0
-261 -1335 0
-259 -1399 0
-260 -1400 0
-261 -1401 0
-259 -1270 0
-260 -1271 0
-261 -1272 0
-259 -691 0
-260 -692 0
-261 -693 0
-262 -1267 0
-263 -1268 0
-264 -1269 0
-262 -1339 0
-263 -1340 0
-264 -1341 0
-265 -1420 0
-266 -1421 0
-267 -1422 0
-265 -394 0
-266 -395 0
-267 -396 0
-265 -709 0
-266 -710 0
-267 -711 0
-265 -1363 0
-266 -1364 0
-267 -1365 0
-268 -391 0
-269 -392 0
-270 -393 0
-268 -715 0
-269 -716 0
-270 -717 0
-271 -394 0
-272 -395 0
-273 -396 0
-271 -1225 0
-272 -1226 0
-273 -1227 0
-271 -712 0
-272 -713 0
-273 -714 0
-274 -1399 0
-275 -1400 0
-276 -1401 0
-274 -577 0
-275 -578 0
-276 -579 0
-274 -691 0
-275 -692 0
-276 -693 0
-277 -541 0
-278 -542 0
-279 -543 0
-277 -589 0
-278 -590 0
-279 -591 0
-280 -1333 0
-281 -1334 0
-282 -1335 0
-280 -820 0
-281 -821 0
-282 -822 0
-280 -1270 0
-281 -1271 0
-282 -1272 0
-283 -733 0
-284 -734 0
-285 -735 0
-283 -400 0
-284 -401 0
-285 -402 0
-283 -340 0
-284 -341 0
-285 -342 0
-283 -610 0
-284 -611 0
-285 -612 0
-283 -805 0
-284 -806 0
-285 -807 0
-283 -589 0
-284 -590 0
-285 -591 0
-286 -397 0
-287 -398 0
-288 -399 0
-286 -1075 0
-287 -1076 0
-288 -1077 0
-286 -1009 0
-287 -1010 0
-288 -1011 0
-286 -1096 0
-287 -1097 0
-288 -1098 0
-286 -583 0
-287 -584 0
-288 -585 0
-286 -409 0
-287 -410 0
-288 -411 0
-286 -415 0
-287 -416 0
-288 -417 0
-286 -994 0
-287 -995 0
-288 -996 0
-286 -769 0
-287 -770 0
-288 -771 0
-289 -595 0
-290 -596 0
-291 -597 0
-289 -1003 0
-290 -1004 0
-291 -1005 0
-289 -406 0
-290 -407 0
-291 -408 0
-289 -1078 0
-290 -1079 0
-291 -1080 0
-289 -412 0
-290 -413 0
-291 -414 0
-289 -733 0
-290 -734 0
-291 -735 0
-289 -418 0
-290 -419 0
-291 -420 0
-289 -766 0
-290 -767 0
-291 -768 0
-292 -1531 0
-293 -1532 0
-294 -1533 0
-292 -1513 0
-293 -1514 0
-294 -1515 0
-292 -1252 0
-293 -1253 0
-294 -1254 0
-295 -712 0
-296 -713 0
-297 -714 0
-295 -1225 0
-296 -1226 0
-297 -1227 0
-298 -523 0
-299 -524 0
-300 -525 0
-298 -589 0
-299 -590 0
-300 -591 0
-301 -526 0
-302 -527 0
-303 -528 0
-301 -589 0
-302 -590 0
-303 -591 0
-304 -529 0
-305 -530 0
-306 -531 0
-304 -739 0
-305 -740 0
-306 -741 0
-304 -589 0
-305 -590 0
-306 -591 0
-307 -508 0
-308 -509 0
-309 -510 0
-307 -616 0
-308 -617 0
-309 -618 0
-307 -589 0
-308 -590 0
-309 -591 0
-310 -433 0
-311 -434 0
-312 -435 0
-310 -1006 0
-311 -1007 0
-312 -1008 0
-310 -1417 0
-311 -1418 0
-312 -1419 0
-313 -433 0
-314 -434 0
-315 -435 0
-313 -1210 0
-314 -1211 0
-315 -1212 0
-313 -442 0
-314 -443 0
-315 -444 0
-313 -1213 0
-314 -1214 0
-315 -1215 0
-316 -511 0
-317 -512 0
-318 -513 0
-316 -388 0
-317 -389 0
-318 -390 0
-316 -619 0
-317 -620 0
-318 -621 0
-316 -589 0
-317 -590 0
-318 -591 0
-319 -628 0
-320 -629 0
-321 -630 0
-319 -598 0
-320 -599 0
-321 -600 0
-322 -676 0
-323 -677 0
-324 -678 0
-322 -397 0
-323 -398 0
-324 -399 0
-325 -1477 0
-326 -1478 0
-327 -1479 0
-325 -781 0
-326 -782 0
-327 -783 0
-328 -784 0
-329 -785 0
-330 -786 0
-328 -1423 0
-329 -1424 0
-330 -1425 0
-328 -1255 0
-329 -1256 0
-330 -1257 0
-331 -1048 0
-332 -1049 0
-333 -1050 0
-331 -868 0
-332 -869 0
-333 -870 0
-331 -1303 0
-332 -1304 0
-333 -1305 0
-334 -487 0
-335 -488 0
-336 -489 0
-334 -640 0
-335 -641 0
-336 -642 0
-334 -589 0
-335 -590 0
-336 -591 0
-337 -643 0
-338 -644 0
-339 -645 0
-337 -589 0
-338 -590 0
-339 -591 0
-340 -1378 0
-341 -1379 0
-342 -1380 0
-340 -649 0
-341 -650 0
-342 -651 0
-343 -349 0
-344 -350 0
-345 -351 0
-343 -550 0
-344 -551 0
-345 -552 0
-343 -589 0
-344 -590 0
-345 -591 0
-346 -1315 0
-347 -1316 0
-348 -1317 0
-346 -586 0
-347 -587 0
-348 -588 0
-346 -1345 0
-347 -1346 0
-348 -1347 0
-346 -352 0
-347 -353 0
-348 -354 0
-349 -1177 0
-350 -1178 0
-351 -1179 0
-349 -592 0
-350 -593 0
-351 -594 0
-349 -1234 0
-350 -1235 0
-351 -1236 0
-349 -1222 0
-350 -1223 0
-351 -1224 0
-352 -553 0
-353 -554 0
-354 -555 0
-352 -589 0
-353 -590 0
-354 -591 0
-355 -1315 0
-356 -1316 0
-357 -1317 0
-355 -703 0
-356 -704 0
-357 -705 0
-355 -1345 0
-356 -1346 0
-357 -1347 0
-355 -847 0
-356 -848 0
-357 -849 0
-358 -706 0
-359 -707 0
-360 -708 0
-358 -1072 0
-359 -1073 0
-360 -1074 0
-361 -385 0
-362 -386 0
-363 -387 0
-361 -835 0
-362 -836 0
-363 -837 0
-361 -589 0
-362 -590 0
-363 -591 0
-364 -805 0
-365 -806 0
-366 -807 0
-364 -1078 0
-365 -1079 0
-366 -1080 0
-364 -1084 0
-365 -1085 0
-366 -1086 0
-364 -718 0
-365 -719 0
-366 -720 0
-364 -727 0
-365 -728 0
-366 -729 0
-364 -466 0
-365 -467 0
-366 -468 0
-364 -988 0
-365 -989 0
-366 -990 0
-364 -481 0
-365 -482 0
-366 -483 0
-364 -997 0
-365 -998 0
-366 -999 0
-364 -673 0
-365 -674 0
-366 -675 0
-367 -1072 0
-368 -1073 0
-369 -1074 0
-367 -1009 0
-368 -1010 0
-369 -1011 0
-367 -1081 0
-368 -1082 0
-369 -1083 0
-367 -721 0
-368 -722 0
-369 -723 0
-367 -730 0
-368 -731 0
-369 -732 0
-367 -1147 0
-368 -1148 0
-369 -1149 0
-367 -469 0
-368 -470 0
-369 -471 0
-367 -484 0
-368 -485 0
-369 -486 0
-370 -676 0
-371 -677 0
-372 -678 0
-370 -478 0
-371 -479 0
-372 -480 0
-370 -1042 0
-371 -1043 0
-372 -1044 0
-373 -676 0
-374 -677 0
-375 -678 0
-373 -388 0
-374 -389 0
-375 -390 0
-373 -658 0
-374 -659 0
-375 -660 0
-376 -1177 0
-377 -1178 0
-378 -1179 0
-376 -874 0
-377 -875 0
-378 -876 0
-376 -1120 0
-377 -1121 0
-378 -1122 0
-376 -1234 0
-377 -1235 0
-378 -1236 0
-379 -1348 0
-380 -1349 0
-381 -1350 0
-379 -1381 0
-380 -1382 0
-381 -1383 0
-382 -823 0
-383 -824 0
-384 -825 0
-382 -1351 0
-383 -1352 0
-384 -1353 0
-385 -1210 0
-386 -1211 0
-387 -1212 0
-385 -1288 0
-386 -1289 0
-387 -1290 0
-385 -613 0
-386 -614 0
-387 -615 0
-388 -664 0
-389 -665 0
-390 -666 0
-388 -688 0
-389 -689 0
-390 -690 0
-391 -850 0
-392 -851 0
-393 -852 0
-391 -1060 0
-392 -1061 0
-393 -1062 0
-391 -844 0
-392 -845 0
-393 -846 0
-394 -853 0
-395 -854 0
-396 -855 0
-394 -1231 0
-395 -1232 0
-396 -1233 0
-394 -1162 0
-395 -1163 0
-396 -1164 0
-394 -847 0
-395 -848 0
-396 -849 0
-397 -868 0
-398 -869 0
-399 -870 0
-397 -751 0
-398 -752 0
-399 -753 0
-397 -1027 0
-398 -1028 0
-399 -1029 0
-400 -703 0
-401 -704 0
-402 -705 0
-400 -1018 0
-401 -1019 0
-402 -1020 0
-400 -1039 0
-401 -1040 0
-402 -1041 0
-403 -874 0
-404 -875 0
-405 -876 0
-403 -1435 0
-404 -1436 0
-405 -1437 0
-403 -751 0
-404 -752 0
-405 -753 0
-403 -1234 0
-404 -1235 0
-405 -1236 0
-403 -1057 0
-404 -1058 0
-405 -1059 0
-406 -874 0
-407 -875 0
-408 -876 0
-406 -568 0
-407 -569 0
-408 -570 0
-406 -1018 0
-407 -1019 0
-408 -1020 0
-406 -754 0
-407 -755 0
-408 -756 0
-406 -1030 0
-407 -1031 0
-408 -1032 0
-409 -580 0
-410 -581 0
-411 -582 0
-409 -589 0
-410 -590 0
-411 -591 0
-412 -880 0
-413 -881 0
-414 -882 0
-412 -490 0
-413 -491 0
-414 -492 0
-412 -892 0
-413 -893 0
-414 -894 0
-412 -709 0
-413 -710 0
-414 -711 0
-412 -577 0
-413 -578 0
-414 -579 0
-412 -763 0
-413 -764 0
-414 -765 0
-412 -589 0
-413 -590 0
-414 -591 0
-415 -883 0
-416 -884 0
-417 -885 0
-415 -502 0
-416 -503 0
-417 -504 0
-415 -589 0
-416 -590 0
-417 -591 0
-418 -505 0
-419 -506 0
-420 -507 0
-418 -568 0
-419 -569 0
-420 -570 0
-418 -589 0
-419 -590 0
-420 -591 0
-421 -715 0
-422 -716 0
-423 -717 0
-421 -595 0
-422 -596 0
-423 -597 0
-421 -1042 0
-422 -1043 0
-423 -1044 0
-424 -604 0
-425 -605 0
-426 -606 0
-424 -535 0
-425 -536 0
-426 -537 0
-424 -724 0
-425 -725 0
-426 -726 0
-424 -589 0
-425 -590 0
-426 -591 0
-424 -766 0
-425 -767 0
-426 -768 0
-427 -1108 0
-428 -1109 0
-429 -1110 0
-427 -1102 0
-428 -1103 0
-429 -1104 0
-427 -586 0
-428 -587 0
-429 -588 0
-427 -1111 0
-428 -1112 0
-429 -1113 0
-427 -430 0
-428 -431 0
-429 -432 0
-427 -1117 0
-428 -1118 0
-429 -1119 0
-427 -1357 0
-428 -1358 0
-429 -1359 0
-430 -607 0
-431 -608 0
-432 -609 0
-430 -538 0
-431 -539 0
-432 -540 0
-430 -589 0
-431 -590 0
-432 -591 0
-430 -769 0
-431 -770 0
-432 -771 0
-433 -574 0
-434 -575 0
-435 -576 0
-433 -589 0
-434 -590 0
-435 -591 0
-433 -856 0
-434 -857 0
-435 -858 0
-436 -862 0
-437 -863 0
-438 -864 0
-436 -580 0
-437 -581 0
-438 -582 0
-436 -1006 0
-437 -1007 0
-438 -1008 0
-439 -859 0
-440 -860 0
-441 -861 0
-439 -577 0
-440 -578 0
-441 -579 0
-442 -463 0
-443 -464 0
-444 -465 0
-442 -589 0
-443 -590 0
-444 -591 0
-445 -1150 0
-446 -1151 0
-447 -1152 0
-445 -1231 0
-446 -1232 0
-447 -1233 0
-448 -469 0
-449 -470 0
-450 -471 0
-448 -556 0
-449 -557 0
-450 -558 0
-448 -1387 0
-449 -1388 0
-450 -1389 0
-448 -562 0
-449 -563 0
-450 -564 0
-451 -1309 0
-452 -1310 0
-453 -1311 0
-451 -868 0
-452 -869 0
-453 -870 0
-451 -1237 0
-452 -1238 0
-453 -1239 0
-454 -874 0
-455 -875 0
-456 -876 0
-454 -1018 0
-455 -1019 0
-456 -1020 0
-454 -1339 0
-455 -1340 0
-456 -1341 0
-454 -1021 0
-455 -1022 0
-456 -1023 0
-454 -1129 0
-455 -1130 0
-456 -1131 0
-454 -1039 0
-455 -1040 0
-456 -1041 0
-457 -1489 0
-458 -1490 0
-459 -1491 0
-457 -1492 0
-458 -1493 0
-459 -1494 0
-457 -910 0
-458 -911 0
-459 -912 0
-460 -1123 0
-461 -1124 0
-462 -1125 0
-460 -874 0
-461 -875 0
-462 -876 0
-460 -1120 0
-461 -1121 0
-462 -1122 0
-463 -1288 0
-464 -1289 0
-465 -1290 0
-463 -1282 0
-464 -1283 0
-465 -1284 0
-463 -613 0
-464 -614 0
-465 -615 0
-466 -499 0
-467 -500 0
-468 -501 0
-466 -793 0
-467 -794 0
-468 -795 0
-466 -886 0
-467 -887 0
-468 -888 0
-466 -571 0
-467 -572 0
-468 -573 0
-466 -589 0
-467 -590 0
-468 -591 0
-469 -496 0
-470 -497 0
-471 -498 0
-469 -790 0
-470 -791 0
-471 -792 0
-469 -745 0
-470 -746 0
-471 -747 0
-469 -589 0
-470 -590 0
-471 -591 0
-472 -1180 0
-473 -1181 0
-474 -1182 0
-472 -1000 0
-473 -1001 0
-474 -1002 0
-472 -904 0
-473 -905 0
-474 -906 0
-472 -1165 0
-473 -1166 0
-474 -1167 0
-472 -1171 0
-473 -1172 0
-474 -1173 0
-472 -994 0
-473 -995 0
-474 -996 0
-475 -1318 0
-476 -1319 0
-477 -1320 0
-475 -904 0
-476 -905 0
-477 -906 0
-475 -754 0
-476 -755 0
-477 -756 0
-475 -1024 0
-476 -1025 0
-477 -1026 0
-478 -1063 0
-479 -1064 0
-480 -1065 0
-478 -1108 0
-479 -1109 0
-480 -1110 0
-478 -751 0
-479 -752 0
-480 -753 0
-478 -910 0
-479 -911 0
-480 -912 0
-481 -598 0
-482 -599 0
-483 -600 0
-481 -493 0
-482 -494 0
-483 -495 0
-481 -796 0
-482 -797 0
-483 -798 0
-481 -799 0
-482 -800 0
-483 -801 0
-481 -634 0
-482 -635 0
-483 -636 0
-481 -736 0
-482 -737 0
-483 -738 0
-481 -889 0
-482 -890 0
-483 -891 0
-481 -637 0
-482 -638 0
-483 -639 0
-481 -760 0
-482 -761 0
-483 -762 0
-481 -589 0
-482 -590 0
-483 -591 0
-484 -601 0
-485 -602 0
-486 -603 0
-484 -802 0
-485 -803 0
-486 -804 0
-484 -748 0
-485 -749 0
-486 -750 0
-484 -757 0
-485 -758 0
-486 -759 0
-484 -589 0
-485 -590 0
-486 -591 0
-487 -1525 0
-488 -1526 0
-489 -1527 0
-487 -715 0
-488 -716 0
-489 -717 0
-490 -649 0
-491 -650 0
-492 -651 0
-490 -1444 0
-491 -1445 0
-492 -1446 0
-493 -622 0
-494 -623 0
-495 -624 0
-496 -625 0
-497 -626 0
-498 -627 0
-496 -1360 0
-497 -1361 0
-498 -1362 0
-496 -748 0
-497 -749 0
-498 -750 0
-499 -628 0
-500 -629 0
-501 -630 0
-499 -1384 0
-500 -1385 0
-501 -1386 0
-499 -616 0
-500 -617 0
-501 -618 0
-502 -1510 0
-503 -1511 0
-504 -1512 0
-502 -1375 0
-503 -1376 0
-504 -1377 0
-502 -1486 0
-503 -1487 0
-504 -1488 0
-505 -1441 0
-506 -1442 0
-507 -1443 0
-505 -1414 0
-506 -1415 0
-507 -1416 0
-508 -1294 0
-509 -1295 0
-510 -1296 0
-508 -1282 0
-509 -1283 0
-510 -1284 0
-511 -1285 0
-512 -1286 0
-513 -1287 0
-511 -1531 0
-512 -1532 0
-513 -1533 0
-514 -655 0
-515 -656 0
-516 -657 0
-514 -589 0
-515 -590 0
-516 -591 0
-517 -1429 0
-518 -1430 0
-519 -1431 0
-517 -1528 0
-518 -1529 0
-519 -1530 0
-517 -913 0
-518 -914 0
-519 -915 0
-517 -1426 0
-518 -1427 0
-519 -1428 0
-520 -1054 0
-521 -1055 0
-522 -1056 0
-520 -853 0
-521 -854 0
-522 -855 0
-520 -1030 0
-521 -1031 0
-522 -1032 0
-523 -1444 0
-524 -1445 0
-525 -1446 0
-523 -1246 0
-524 -1247 0
-525 -1248 0
-523 -1465 0
-524 -1466 0
-525 -1467 0
-526 -1375 0
-527 -1376 0
-528 -1377 0
-526 -1498 0
-527 -1499 0
-528 -1500 0
-529 -784 0
-530 -785 0
-531 -786 0
-529 -1414 0
-530 -1415 0
-531 -1416 0
-529 -1255 0
-530 -1256 0
-531 -1257 0
-532 -1162 0
-533 -1163 0
-534 -1164 0
-532 -1240 0
-533 -1241 0
-534 -1242 0
-532 -1174 0
-533 -1175 0
-534 -1176 0
-535 -679 0
-536 -680 0
-537 -681 0
-535 -1003 0
-536 -1004 0
-537 -1005 0
-535 -1138 0
-536 -1139 0
-537 -1140 0
-538 -1516 0
-539 -1517 0
-540 -1518 0
-538 -676 0
-539 -677 0
-540 -678 0
-538 -1075 0
-539 -1076 0
-540 -1077 0
-538 -1426 0
-539 -1427 0
-540 -1428 0
-541 -814 0
-542 -815 0
-543 -816 0
-541 -1477 0
-542 -1478 0
-543 -1479 0
-541 -1393 0
-542 -1394 0
-543 -1395 0
-544 -1108 0
-545 -1109 0
-546 -1110 0
-544 -934 0
-545 -935 0
-546 -936 0
-544 -1510 0
-545 -1511 0
-546 -1512 0
-544 -1303 0
-545 -1304 0
-546 -1305 0
-544 -1507 0
-545 -1508 0
-546 -1509 0
-547 -1441 0
-548 -1442 0
-549 -1443 0
-547 -1240 0
-548 -1241 0
-549 -1242 0
-550 -1438 0
-551 -1439 0
-552 -1440 0
-550 -1432 0
-551 -1433 0
-552 -1434 0
-550 -1249 0
-551 -1250 0
-552 -1251 0
-553 -1501 0
-554 -1502 0
-555 -1503 0
-553 -1252 0
-554 -1253 0
-555 -1254 0
-556 -658 0
-557 -659 0
-558 -660 0
-556 -808 0
-557 -809 0
-558 -810 0
-559 -811 0
-560 -812 0
-561 -813 0
-559 -601 0
-560 -602 0
-561 -603 0
-559 -1195 0
-560 -1196 0
-561 -1197 0
-562 -658 0
-563 -659 0
-564 -660 0
-562 -589 0
-563 -590 0
-564 -591 0
-565 -1297 0
-566 -1298 0
-567 -1299 0
-565 -1291 0
-566 -1292 0
-567 -1293 0
-565 -1279 0
-566 -1280 0
-567 -1281 0
-568 -703 0
-569 -704 0
-570 -705 0
-571 -667 0
-572 -668 0
-573 -669 0
-571 -616 0
-572 -617 0
-573 -618 0
-574 -691 0
-575 -692 0
-576 -693 0
-574 -1294 0
-575 -1295 0
-576 -1296 0
-577 -1420 0
-578 -1421 0
-579 -1422 0
-580 -706 0
-581 -707 0
-582 -708 0
-580 -856 0
-581 -857 0
-582 -858 0
-580 -895 0
-581 -896 0
-582 -897 0
-583 -904 0
-584 -905 0
-585 -906 0
-583 -1039 0
-584 -1040 0
-585 -1041 0
-583 -847 0
-584 -848 0
-585 -849 0
-586 -871 0
-587 -872 0
-588 -873 0
-586 -700 0
-587 -701 0
-588 -702 0
-586 -775 0
-587 -776 0
-588 -777 0
-586 -946 0
-587 -947 0
-588 -948 0
-586 -589 0
-587 -590 0
-588 -591 0
-589 -592 0
-590 -593 0
-591 -594 0
-589 -859 0
-590 -860 0
-591 -861 0
-589 -862 0
-590 -863 0
-591 -864 0
-589 -868 0
-590 -869 0
-591 -870 0
-589 -865 0
-590 -866 0
-591 -867 0
-589 -874 0
-590 -875 0
-591 -876 0
-589 -691 0
-590 -692 0
-591 -693 0
-589 -694 0
-590 -695 0
-591 -696 0
-589 -922 0
-590 -923 0
-591 -924 0
-589 -925 0
-590 -926 0
-591 -927 0
-589 -664 0
-590 -665 0
-591 -666 0
-589 -667 0
-590 -668 0
-591 -669 0
-589 -820 0
-590 -821 0
-591 -822 0
-589 -823 0
-590 -824 0
-591 -825 0
-589 -676 0
-590 -677 0
-591 -678 0
-589 -679 0
-590 -680 0
-591 -681 0
-589 -940 0
-590 -941 0
-591 -942 0
-589 -697 0
-590 -698 0
-591 -699 0
-589 -703 0
-590 -704 0
-591 -705 0
-589 -649 0
-590 -650 0
-591 -651 0
-589 -904 0
-590 -905 0
-591 -906 0
-589 -910 0
-590 -911 0
-591 -912 0
-589 -706 0
-590 -707 0
-591 -708 0
-589 -712 0
-590 -713 0
-591 -714 0
-589 -715 0
-590 -716 0
-591 -717 0
-589 -781 0
-590 -782 0
-591 -783 0
-589 -829 0
-590 -830 0
-591 -831 0
-589 -832 0
-590 -833 0
-591 -834 0
-589 -784 0
-590 -785 0
-591 -786 0
-589 -613 0
-590 -614 0
-591 -615 0
-589 -844 0
-590 -845 0
-591 -846 0
-589 -853 0
-590 -854 0
-591 -855 0
-589 -913 0
-590 -914 0
-591 -915 0
-589 -625 0
-590 -626 0
-591 -627 0
-589 -628 0
-590 -629 0
-591 -630 0
-589 -934 0
-590 -935 0
-591 -936 0
-589 -898 0
-590 -899 0
-591 -900 0
-589 -808 0
-590 -809 0
-591 -810 0
-589 -811 0
-590 -812 0
-591 -813 0
-589 -814 0
-590 -815 0
-591 -816 0
-592 -928 0
-593 -929 0
-594 -930 0
-592 -907 0
-593 -908 0
-594 -909 0
-592 -778 0
-593 -779 0
-594 -780 0
-595 -850 0
-596 -851 0
-597 -852 0
-595 -910 0
-596 -911 0
-597 -912 0
-595 -1051 0
-596 -1052 0
-597 -1053 0
-595 -709 0
-596 -710 0
-597 -711 0
-598 -817 0
-599 -818 0
-600 -819 0
-598 -679 0
-599 -680 0
-600 -681 0
-598 -841 0
-599 -842 0
-600 -843 0
-598 -622 0
-599 -623 0
-600 -624 0
-601 -676 0
-602 -677 0
-603 -678 0
-601 -838 0
-602 -839 0
-603 -840 0
-601 -619 0
-602 -620 0
-603 -621 0
-604 -988 0
-605 -989 0
-606 -990 0
-604 -712 0
-605 -713 0
-606 -714 0
-604 -718 0
-605 -719 0
-606 -720 0
-607 -1081 0
-608 -1082 0
-609 -1083 0
-607 -715 0
-608 -716 0
-609 -717 0
-607 -730 0
-608 -731 0
-609 -732 0
-607 -883 0
-608 -884 0
-609 -885 0
-610 -859 0
-611 -860 0
-612 -861 0
-610 -1417 0
-611 -1418 0
-612 -1419 0
-613 -826 0
-614 -827 0
-615 -828 0
-613 -931 0
-614 -932 0
-615 -933 0
-613 -688 0
-614 -689 0
-615 -690 0
-619 -688 0
-620 -689 0
-621 -690 0
-619 -829 0
-620 -830 0
-621 -831 0
-622 -832 0
-623 -833 0
-624 -834 0
-625 -838 0
-626 -839 0
-627 -840 0
-628 -841 0
-629 -842 0
-630 -843 0
-631 -1093 0
-632 -1094 0
-633 -1095 0
-631 -1219 0
-632 -1220 0
-633 -1221 0
-631 -922 0
-632 -923 0
-633 -924 0
-634 -694 0
-635 -695 0
-636 -696 0
-634 -1174 0
-635 -1175 0
-636 -1176 0
-637 -703 0
-638 -704 0
-639 -705 0
-637 -1513 0
-638 -1514 0
-639 -1515 0
-637 -997 0
-638 -998 0
-639 -999 0
-637 -1252 0
-638 -1253 0
-639 -1254 0
-640 -820 0
-641 -821 0
-642 -822 0
-640 -1408 0
-641 -1409 0
-642 -1410 0
-640 -1507 0
-641 -1508 0
-642 -1509 0
-643 -1450 0
-644 -1451 0
-645 -1452 0
-643 -1258 0
-644 -1259 0
-645 -1260 0
-643 -823 0
-644 -824 0
-645 -825 0
-646 -940 0
-647 -941 0
-648 -942 0
-646 -1354 0
-647 -1355 0
-648 -1356 0
-652 -1372 0
-653 -1373 0
-654 -1374 0
-652 -1513 0
-653 -1514 0
-654 -1515 0
-655 -1495 0
-656 -1496 0
-657 -1497 0
-655 -706 0
-656 -707 0
-657 -708 0
-655 -1408 0
-656 -1409 0
-657 -1410 0
-658 -664 0
-659 -665 0
-660 -666 0
-661 -1450 0
-662 -1451 0
-663 -1452 0
-661 -712 0
-662 -713 0
-663 -714 0
-661 -1258 0
-662 -1259 0
-663 -1260 0
-661 -1411 0
-662 -1412 0
-663 -1413 0
-664 -751 0
-665 -752 0
-666 -753 0
-667 -754 0
-668 -755 0
-669 -756 0
-670 -1105 0
-671 -1106 0
-672 -1107 0
-670 -1321 0
-671 -1322 0
-672 -1323 0
-670 -1084 0
-671 -1085 0
-672 -1086 0
-670 -1129 0
-671 -1130 0
-672 -1131 0
-670 -1309 0
-671 -1310 0
-672 -1311 0
-673 -760 0
-674 -761 0
-675 -762 0
-673 -1453 0
-674 -1454 0
-675 -1455 0
-673 -1066 0
-674 -1067 0
-675 -1068 0
-673 -1261 0
-674 -1262 0
-675 -1263 0
-676 -955 0
-677 -956 0
-678 -957 0
-676 -787 0
-677 -788 0
-678 -789 0
-676 -751 0
-677 -752 0
-678 -753 0
-676 -688 0
-677 -689 0
-678 -690 0
-676 -964 0
-677 -965 0
-678 -966 0
-679 -952 0
-680 -953 0
-681 -954 0
-679 -754 0
-680 -755 0
-681 -756 0
-682 -1027 0
-683 -1028 0
-684 -1029 0
-682 -1033 0
-683 -1034 0
-684 -1035 0
-682 -910 0
-683 -911 0
-684 -912 0
-685 -1453 0
-686 -1454 0
-687 -1455 0
-685 -1369 0
-686 -1370 0
-687 -1371 0
-688 -1354 0
-689 -1355 0
-690 -1356 0
-694 -895 0
-695 -896 0
-696 -897 0
-697 -958 0
-698 -959 0
-699 -960 0
-697 -961 0
-698 -962 0
-699 -963 0
-700 -703 0
-701 -704 0
-702 -705 0
-700 -1159 0
-701 -1160 0
-702 -1161 0
-700 -1453 0
-701 -1454 0
-702 -1455 0
-700 -1318 0
-701 -1319 0
-702 -1320 0
-700 -1261 0
-701 -1262 0
-702 -1263 0
-703 -916 0
-704 -917 0
-705 -918 0
-706 -901 0
-707 -902 0
-708 -903 0
-706 -850 0
-707 -851 0
-708 -852 0
-709 -853 0
-710 -854 0
-711 -855 0
-709 -1378 0
-710 -1379 0
-711 -1380 0
-712 -847 0
-713 -848 0
-714 -849 0
-715 -787 0
-716 -788 0
-717 -789 0
-715 -850 0
-716 -851 0
-717 -852 0
-715 -949 0
-716 -950 0
-717 -951 0
-718 -1141 0
-719 -1142 0
-720 -1143 0
-718 -1144 0
-719 -1145 0
-720 -1146 0
-718 -922 0
-719 -923 0
-720 -924 0
-718 -796 0
-719 -797 0
-720 -798 0
-718 -1033 0
-719 -1034 0
-720 -1035 0
-718 -847 0
-719 -848 0
-720 -849 0
-721 -1216 0
-722 -1217 0
-723 -1218 0
-721 -925 0
-722 -926 0
-723 -927 0
-721 -790 0
-722 -791 0
-723 -792 0
-724 -853 0
-725 -854 0
-726 -855 0
-724 -1033 0
-725 -1034 0
-726 -1035 0
-724 -1138 0
-725 -1139 0
-726 -1140 0
-727 -1135 0
-728 -1136 0
-729 -1137 0
-727 -793 0
-728 -794 0
-729 -795 0
-727 -922 0
-728 -923 0
-729 -924 0
-727 -799 0
-728 -800 0
-729 -801 0
-727 -1504 0
-728 -1505 0
-729 -1506 0
-727 -1126 0
-728 -1127 0
-729 -1128 0
-727 -1366 0
-728 -1367 0
-729 -1368 0
-730 -850 0
-731 -851 0
-732 -852 0
-730 -925 0
-731 -926 0
-732 -927 0
-730 -802 0
-731 -803 0
-732 -804 0
-730 -1021 0
-731 -1022 0
-732 -1023 0
-733 -1054 0
-734 -1055 0
-735 -1056 0
-733 -910 0
-734 -911 0
-735 -912 0
-736 -1273 0
-737 -1274 0
-738 -1275 0
-736 -823 0
-737 -824 0
-738 -825 0
-739 -1381 0
-740 -1382 0
-741 -1383 0
-739 -904 0
-740 -905 0
-741 -906 0
-742 -1216 0
-743 -1217 0
-744 -1218 0
-742 -934 0
-743 -935 0
-744 -936 0
-745 -826 0
-746 -827 0
-747 -828 0
-745 -829 0
-746 -830 0
-747 -831 0
-748 -838 0
-749 -839 0
-750 -840 0
-748 -1276 0
-749 -1277 0
-750 -1278 0
-751 -1000 0
-752 -1001 0
-753 -1002 0
-751 -1075 0
-752 -1076 0
-753 -1077 0
-751 -1198 0
-752 -1199 0
-753 -1200 0
-751 -967 0
-752 -968 0
-753 -969 0
-751 -970 0
-752 -971 0
-753 -972 0
-751 -1189 0
-752 -1190 0
-753 -1191 0
-751 -991 0
-752 -992 0
-753 -993 0
-754 -1003 0
-755 -1004 0
-756 -1005 0
-754 -1069 0
-755 -1070 0
-756 -1071 0
-754 -1012 0
-755 -1013 0
-756 -1014 0
-754 -967 0
-755 -968 0
-756 -969 0
-754 -973 0
-755 -974 0
-756 -975 0
-754 -1168 0
-755 -1169 0
-756 -1170 0
-757 -1060 0
-758 -1061 0
-759 -1062 0
-757 -844 0
-758 -845 0
-759 -846 0
-760 -853 0
-761 -854 0
-762 -855 0
-763 -868 0
-764 -869 0
-765 -870 0
-763 -1003 0
-764 -1004 0
-765 -1005 0
-763 -1012 0
-764 -1013 0
-765 -1014 0
-766 -1312 0
-767 -1313 0
-768 -1314 0
-766 -1459 0
-767 -1460 0
-768 -1461 0
-766 -874 0
-767 -875 0
-768 -876 0
-766 -880 0
-767 -881 0
-768 -882 0
-766 -1045 0
-767 -1046 0
-768 -1047 0
-769 -868 0
-770 -869 0
-771 -870 0
-769 -1036 0
-770 -1037 0
-771 -1038 0
-769 -883 0
-770 -884 0
-771 -885 0
-772 -1342 0
-773 -1343 0
-774 -1344 0
-772 -1345 0
-773 -1346 0
-774 -1347 0
-772 -1486 0
-773 -1487 0
-774 -1488 0
-775 -781 0
-776 -782 0
-777 -783 0
-775 -1114 0
-776 -1115 0
-777 -1116 0
-775 -1117 0
-776 -1118 0
-777 -1119 0
-775 -1036 0
-776 -1037 0
-777 -1038 0
-775 -1216 0
-776 -1217 0
-777 -1218 0
-778 -1312 0
-779 -1313 0
-780 -1314 0
-778 -1219 0
-779 -1220 0
-780 -1221 0
-787 -1525 0
-788 -1526 0
-789 -1527 0
-787 -1042 0
-788 -1043 0
-789 -1044 0
-790 -868 0
-791 -869 0
-792 -870 0
-793 -874 0
-794 -875 0
-795 -876 0
-793 -1390 0
-794 -1391 0
-795 -1392 0
-796 -868 0
-797 -869 0
-798 -870 0
-796 -952 0
-797 -953 0
-798 -954 0
-799 -874 0
-800 -875 0
-801 -876 0
-799 -952 0
-800 -953 0
-801 -954 0
-799 -1291 0
-800 -1292 0
-801 -1293 0
-802 -874 0
-803 -875 0
-804 -876 0
-802 -955 0
-803 -956 0
-804 -957 0
-805 -886 0
-806 -887 0
-807 -888 0
-808 -826 0
-809 -827 0
-810 -828 0
-811 -943 0
-812 -944 0
-813 -945 0
-811 -838 0
-812 -839 0
-813 -840 0
-814 -841 0
-815 -842 0
-816 -843 0
-814 -937 0
-815 -938 0
-816 -939 0
-817 -1015 0
-818 -1016 0
-819 -1017 0
-817 -832 0
-818 -833 0
-819 -834 0
-820 -877 0
-821 -878 0
-822 -879 0
-823 -982 0
-824 -983 0
-825 -984 0
-835 -1516 0
-836 -1517 0
-837 -1518 0
-835 -1411 0
-836 -1412 0
-837 -1413 0
-835 -913 0
-836 -914 0
-837 -915 0
-835 -1426 0
-836 -1427 0
-837 -1428 0
-841 -1015 0
-842 -1016 0
-843 -1017 0
-844 -970 0
-845 -971 0
-846 -972 0
-847 -1069 0
-848 -1070 0
-849 -1071 0
-847 -1099 0
-848 -1100 0
-849 -1101 0
-847 -973 0
-848 -974 0
-849 -975 0
-847 -1192 0
-848 -1193 0
-849 -1194 0
-847 -997 0
-848 -998 0
-849 -999 0
-850 -1156 0
-851 -1157 0
-852 -1158 0
-850 -1072 0
-851 -1073 0
-852 -1074 0
-850 -1327 0
-851 -1328 0
-852 -1329 0
-850 -970 0
-851 -971 0
-852 -972 0
-850 -991 0
-851 -992 0
-852 -993 0
-853 -973 0
-854 -974 0
-855 -975 0
-856 -901 0
-857 -902 0
-858 -903 0
-856 -898 0
-857 -899 0
-858 -900 0
-856 -1006 0
-857 -1007 0
-858 -1008 0
-862 -895 0
-863 -896 0
-864 -897 0
-865 -901 0
-866 -902 0
-867 -903 0
-865 -943 0
-866 -944 0
-867 -945 0
-868 -967 0
-869 -968 0
-870 -969 0
-868 -976 0
-869 -977 0
-870 -978 0
-868 -916 0
-869 -917 0
-870 -918 0
-871 -1123 0
-872 -1124 0
-873 -1125 0
-871 -874 0
-872 -875 0
-873 -876 0
-871 -1306 0
-872 -1307 0
-873 -1308 0
-874 -919 0
-875 -920 0
-876 -921 0
-874 -967 0
-875 -968 0
-876 -969 0
-874 -979 0
-875 -980 0
-876 -981 0
-877 -1333 0
-878 -1334 0
-879 -1335 0
-877 -1510 0
-878 -1511 0
-879 -1512 0
-877 -1507 0
-878 -1508 0
-879 -1509 0
-880 -1093 0
-881 -1094 0
-882 -1095 0
-880 -919 0
-881 -920 0
-882 -921 0
-880 -922 0
-881 -923 0
-882 -924 0
-883 -925 0
-884 -926 0
-885 -927 0
-886 -904 0
-887 -905 0
-888 -906 0
-886 -1381 0
-887 -1382 0
-888 -1383 0
-889 -1492 0
-890 -1493 0
-891 -1494 0
-889 -1498 0
-890 -1499 0
-891 -1500 0
-889 -910 0
-890 -911 0
-891 -912 0
-889 -1078 0
-890 -1079 0
-891 -1080 0
-892 -1066 0
-893 -1067 0
-894 -1068 0
-892 -1444 0
-893 -1445 0
-894 -1446 0
-892 -1078 0
-893 -1079 0
-894 -1080 0
-892 -1465 0
-893 -1466 0
-894 -1467 0
-898 -949 0
-899 -950 0
-900 -951 0
-901 -949 0
-902 -950 0
-903 -951 0
-904 -907 0
-905 -908 0
-906 -909 0
-904 -979 0
-905 -980 0
-906 -981 0
-904 -973 0
-905 -974 0
-906 -975 0
-907 -1123 0
-908 -1124 0
-909 -1125 0
-907 -1306 0
-908 -1307 0
-909 -1308 0
-910 -976 0
-911 -977 0
-912 -978 0
-910 -970 0
-911 -971 0
-912 -972 0
-913 -961 0
-914 -962 0
-915 -963 0
-916 -1159 0
-917 -1160 0
-918 -1161 0
-916 -1012 0
-917 -1013 0
-918 -1014 0
-919 -1339 0
-920 -1340 0
-921 -1341 0
-922 -952 0
-923 -953 0
-924 -954 0
-925 -955 0
-926 -956 0
-927 -957 0
-925 -928 0
-926 -929 0
-927 -930 0
-925 -931 0
-926 -932 0
-927 -933 0
-928 -1177 0
-929 -1178 0
-930 -1179 0
-928 -1447 0
-929 -1448 0
-930 -1449 0
-931 -1447 0
-932 -1448 0
-933 -1449 0
-937 -1015 0
-938 -1016 0
-939 -1017 0
-937 -1447 0
-938 -1448 0
-939 -1449 0
-940 -964 0
-941 -965 0
-942 -966 0
-943 -1195 0
-944 -1196 0
-945 -1197 0
-946 -1108 0
-947 -1109 0
-948 -1110 0
-946 -1345 0
-947 -1346 0
-948 -1347 0
-946 -1303 0
-947 -1304 0
-948 -1305 0
-946 -1306 0
-947 -1307 0
-948 -1308 0
-952 -967 0
-953 -968 0
-954 -969 0
-955 -967 0
-956 -968 0
-957 -969 0
-958 -1519 0
-959 -1520 0
-960 -1521 0
-958 -1438 0
-959 -1439 0
-960 -1440 0
-961 -1519 0
-962 -1520 0
-963 -1521 0
-964 -1516 0
-965 -1517 0
-966 -1518 0
-967 -1045 0
-968 -1046 0
-969 -1047 0
-970 -1027 0
-971 -1028 0
-972 -1029 0
-973 -1030 0
-974 -1031 0
-975 -1032 0
-973 -1033 0
-974 -1034 0
-975 -1035 0
-976 -1051 0
-977 -1052 0
-978 -1053 0
-979 -1177 0
-980 -1178 0
-981 -1179 0
-979 -1039 0
-980 -1040 0
-981 -1041 0
-982 -1450 0
-983 -1451 0
-984 -1452 0
-982 -1519 0
-983 -1520 0
-984 -1521 0
-985 -1405 0
-986 -1406 0
-987 -1407 0
-988 -1504 0
-989 -1505 0
-990 -1506 0
-991 -1114 0
-992 -1115 0
-993 -1116 0
-991 -1117 0
-992 -1118 0
-993 -1119 0
-991 -1021 0
-992 -1022 0
-993 -1023 0
-991 -1102 0
-992 -1103 0
-993 -1104 0
-997 -1336 0
-998 -1337 0
-999 -1338 0
-997 -1018 0
-998 -1019 0
-999 -1020 0
-997 -1030 0
-998 -1031 0
-999 -1032 0
-997 -1129 0
-998 -1130 0
-999 -1131 0
-1000 -1063 0
-1001 -1064 0
-1002 -1065 0
-1000 -1153 0
-1001 -1154 0
-1002 -1155 0
-1003 -1045 0
-1004 -1046 0
-1005 -1047 0
-1003 -1024 0
-1004 -1025 0
-1005 -1026 0
-1003 -1033 0
-1004 -1034 0
-1005 -1035 0
-1003 -1051 0
-1004 -1052 0
-1005 -1053 0
-1003 -1105 0
-1004 -1106 0
-1005 -1107 0
-1009 -1027 0
-1010 -1028 0
-1011 -1029 0
-1018 -1087 0
-1019 -1088 0
-1020 -1089 0
-1018 -1069 0
-1019 -1070 0
-1020 -1071 0
-1021 -1075 0
-1022 -1076 0
-1023 -1077 0
-1027 -1072 0
-1028 -1073 0
-1029 -1074 0
-1030 -1078 0
-1031 -1079 0
-1032 -1080 0
-1033 -1078 0
-1034 -1079 0
-1035 -1080 0
-1036 -1090 0
-1037 -1091 0
-1038 -1092 0
-1039 -1075 0
-1040 -1076 0
-1041 -1077 0
-1042 -1111 0
-1043 -1112 0
-1044 -1113 0
-1045 -1201 0
-1046 -1202 0
-1047 -1203 0
-1051 -1138 0
-1052 -1139 0
-1053 -1140 0
-1057 -1090 0
-1058 -1091 0
-1059 -1092 0
-1057 -1480 0
-1058 -1481 0
-1059 -1482 0
-1060 -1132 0
-1061 -1133 0
-1062 -1134 0
-1063 -1165 0
-1064 -1166 0
-1065 -1167 0
-1066 -1456 0
-1067 -1457 0
-1068 -1458 0
-1069 -1150 0
-1070 -1151 0
-1071 -1152 0
-1072 -1180 0
-1073 -1181 0
-1074 -1182 0
-1075 -1153 0
-1076 -1154 0
-1077 -1155 0
-1078 -1159 0
-1079 -1160 0
-1080 -1161 0
-1084 -1126 0
-1085 -1127 0
-1086 -1128 0
-1084 -1144 0
-1085 -1145 0
-1086 -1146 0
-1087 -1402 0
-1088 -1403 0
-1089 -1404 0
-1090 -1123 0
-1091 -1124 0
-1092 -1125 0
-1090 -1120 0
-1091 -1121 0
-1092 -1122 0
-1093 -1339 0
-1094 -1340 0
-1095 -1341 0
-1096 -1186 0
-1097 -1187 0
-1098 -1188 0
-1096 -1153 0
-1097 -1154 0
-1098 -1155 0
-1099 -1183 0
-1100 -1184 0
-1101 -1185 0
-1099 -1141 0
-1100 -1142 0
-1101 -1143 0
-1102 -1156 0
-1103 -1157 0
-1104 -1158 0
-1105 -1168 0
-1106 -1169 0
-1107 -1170 0
-1111 -1525 0
-1112 -1526 0
-1113 -1527 0
-1111 -1195 0
-1112 -1196 0
-1113 -1197 0
-1114 -1198 0
-1115 -1199 0
-1116 -1200 0
-1126 -1129 0
-1127 -1130 0
-1128 -1131 0
-1132 -1393 0
-1133 -1394 0
-1134 -1395 0
-1135 -1168 0
-1136 -1169 0
-1137 -1170 0
-1135 -1183 0
-1136 -1184 0
-1137 -1185 0
-1141 -1309 0
-1142 -1310 0
-1143 -1311 0
-1144 -1309 0
-1145 -1310 0
-1146 -1311 0
-1147 -1171 0
-1148 -1172 0
-1149 -1173 0
-1147 -1180 0
-1148 -1181 0
-1149 -1182 0
-1153 -1171 0
-1154 -1172 0
-1155 -1173 0
-1156 -1165 0
-1157 -1166 0
-1158 -1167 0
-1168 -1321 0
-1169 -1322 0
-1170 -1323 0
-1171 -1186 0
-1172 -1187 0
-1173 -1188 0
-1174 -1483 0
-1175 -1484 0
-1176 -1485 0
-1177 -1327 0
-1178 -1328 0
-1179 -1329 0
-1180 -1327 0
-1181 -1328 0
-1182 -1329 0
-1183 -1321 0
-1184 -1322 0
-1185 -1323 0
-1183 -1309 0
-1184 -1310 0
-1185 -1311 0
-1186 -1330 0
-1187 -1331 0
-1188 -1332 0
-1189 -1330 0
-1190 -1331 0
-1191 -1332 0
-1189 -1357 0
-1190 -1358 0
-1191 -1359 0
-1192 -1459 0
-1193 -1460 0
-1194 -1461 0
-1192 -1315 0
-1193 -1316 0
-1194 -1317 0
-1198 -1216 0
-1199 -1217 0
-1200 -1218 0
-1198 -1330 0
-1199 -1331 0
-1200 -1332 0
-1201 -1312 0
-1202 -1313 0
-1203 -1314 0
-1201 -1219 0
-1202 -1220 0
-1203 -1221 0
-1222 -1327 0
-1223 -1328 0
-1224 -1329 0
-1225 -1363 0
-1226 -1364 0
-1227 -1365 0
-1228 -1456 0
-1229 -1457 0
-1230 -1458 0
-1240 -1483 0
-1241 -1484 0
-1242 -1485 0
-1246 -1456 0
-1247 -1457 0
-1248 -1458 0
-1258 -1402 0
-1259 -1403 0
-1260 -1404 0
-1261 -1456 0
-1262 -1457 0
-1263 -1458 0
-1267 -1393 0
-1268 -1394 0
-1269 -1395 0
-1276 -1360 0
-1277 -1361 0
-1278 -1362 0
-1279 -1384 0
-1280 -1385 0
-1281 -1386 0
-1285 -1402 0
-1286 -1403 0
-1287 -1404 0
-1291 -1366 0
-1292 -1367 0
-1293 -1368 0
-1297 -1384 0
-1298 -1385 0
-1299 -1386 0
-1297 -1390 0
-1298 -1391 0
-1299 -1392 0
-1300 -1480 0
-1301 -1481 0
-1302 -1482 0
-1318 -1468 0
-1319 -1469 0
-1320 -1470 0
-1324 -1405 0
-1325 -1406 0
-1326 -1407 0
-1336 -1372 0
-1337 -1373 0
-1338 -1374 0
-1342 -1468 0
-1343 -1469 0
-1344 -1470 0
-1357 -1525 0
-1358 -1526 0
-1359 -1527 0
-1360 -1522 0
-1361 -1523 0
-1362 -1524 0
-1363 -1378 0
-1364 -1379 0
-1365 -1380 0
-1363 -1399 0
-1364 -1400 0
-1365 -1401 0
-1366 -1390 0
-1367 -1391 0
-1368 -1392 0
-1369 -1468 0
-1370 -1469 0
-1371 -1470 0
-1396 -1522 0
-1397 -1523 0
-1398 -1524 0
-1399 -1420 0
-1400 -1421 0
-1401 -1422 0
-1402 -1531 0
-1403 -1532 0
-1404 -1533 0
-1402 -1411 0
-1403 -1412 0
-1404 -1413 0
-1405 -1462 0
-1406 -1463 0
-1407 -1464 0
-1423 -1483 0
-1424 -1484 0
-1425 -1485 0
-1435 -1480 0
-1436 -1481 0
-1437 -1482 0
-1441 -1483 0
-1442 -1484 0
-1443 -1485 0
-1453 -1468 0
-1454 -1469 0
-1455 -1470 0
-1456 -1465 0
-1457 -1466 0
-1458 -1467 0
-1459 -1504 0
-1460 -1505 0
-1461 -1506 0
1 0
131 0
