p cnf 3843 11861
1 2 3 0
4 5 6 0
7 8 9 0
10 11 12 0
13 14 15 0
16 17 18 0
19 20 21 0
22 23 24 0
25 26 27 0
28 29 30 0
31 32 33 0
34 35 36 0
37 38 39 0
40 41 42 0
43 44 45 0
46 47 48 0
49 50 51 0
52 53 54 0
55 56 57 0
58 59 60 0
61 62 63 0
64 65 66 0
67 68 69 0
70 71 72 0
73 74 75 0
76 77 78 0
79 80 81 0
82 83 84 0
85 86 87 0
88 89 90 0
91 92 93 0
94 95 96 0
97 98 99 0
100 101 102 0
103 104 105 0
106 107 108 0
109 110 111 0
112 113 114 0
115 116 117 0
118 119 120 0
121 122 123 0
124 125 126 0
127 128 129 0
130 131 132 0
133 134 135 0
136 137 138 0
139 140 141 0
142 143 144 0
145 146 147 0
148 149 150 0
151 152 153 0
154 155 156 0
157 158 159 0
160 161 162 0
163 164 165 0
166 167 168 0
169 170 171 0
172 173 174 0
175 176 177 0
178 179 180 0
181 182 183 0
184 185 186 0
187 188 189 0
190 191 192 0
193 194 195 0
196 197 198 0
199 200 201 0
202 203 204 0
205 206 207 0
208 209 210 0
211 212 213 0
214 215 216 0
217 218 219 0
220 221 222 0
223 224 225 0
226 227 228 0
229 230 231 0
232 233 234 0
235 236 237 0
238 239 240 0
241 242 243 0
244 245 246 0
247 248 249 0
250 251 252 0
253 254 255 0
256 257 258 0
259 260 261 0
262 263 264 0
265 266 267 0
268 269 270 0
271 272 273 0
274 275 276 0
277 278 279 0
280 281 282 0
283 284 285 0
286 287 288 0
289 290 291 0
292 293 294 0
295 296 297 0
298 299 300 0
301 302 303 0
304 305 306 0
307 308 309 0
310 311 312 0
313 314 315 0
316 317 318 0
319 320 321 0
322 323 324 0
325 326 327 0
328 329 330 0
331 332 333 0
334 335 336 0
337 338 339 0
340 341 342 0
343 344 345 0
346 347 348 0
349 350 351 0
352 353 354 0
355 356 357 0
358 359 360 0
361 362 363 0
364 365 366 0
367 368 369 0
370 371 372 0
373 374 375 0
376 377 378 0
379 380 381 0
382 383 384 0
385 386 387 0
388 389 390 0
391 392 393 0
394 395 396 0
397 398 399 0
400 401 402 0
403 404 405 0
406 407 408 0
409 410 411 0
412 413 414 0
415 416 417 0
418 419 420 0
421 422 423 0
424 425 426 0
427 428 429 0
430 431 432 0
433 434 435 0
436 437 438 0
439 440 441 0
442 443 444 0
445 446 447 0
448 449 450 0
451 452 453 0
454 455 456 0
457 458 459 0
460 461 462 0
463 464 465 0
466 467 468 0
469 470 471 0
472 473 474 0
475 476 477 0
478 479 480 0
481 482 483 0
484 485 486 0
487 488 489 0
490 491 492 0
493 494 495 0
496 497 498 0
499 500 501 0
502 503 504 0
505 506 507 0
508 509 510 0
511 512 513 0
514 515 516 0
517 518 519 0
520 521 522 0
523 524 525 0
526 527 528 0
529 530 531 0
532 533 534 0
535 536 537 0
538 539 540 0
541 542 543 0
544 545 546 0
547 548 549 0
550 551 552 0
553 554 555 0
556 557 558 0
559 560 561 0
562 563 564 0
565 566 567 0
568 569 570 0
571 572 573 0
574 575 576 0
577 578 579 0
580 581 582 0
583 584 585 0
586 587 588 0
589 590 591 0
592 593 594 0
595 596 597 0
598 599 600 0
601 602 603 0
604 605 606 0
607 608 609 0
610 611 612 0
613 614 615 0
616 617 618 0
619 620 621 0
622 623 624 0
625 626 627 0
628 629 630 0
631 632 633 0
634 635 636 0
637 638 639 0
640 641 642 0
643 644 645 0
646 647 648 0
649 650 651 0
652 653 654 0
655 656 657 0
658 659 660 0
661 662 663 0
664 665 666 0
667 668 669 0
670 671 672 0
673 674 675 0
676 677 678 0
679 680 681 0
682 683 684 0
685 686 687 0
688 689 690 0
691 692 693 0
694 695 696 0
697 698 699 0
700 701 702 0
703 704 705 0
706 707 708 0
709 710 711 0
712 713 714 0
715 716 717 0
718 719 720 0
721 722 723 0
724 725 726 0
727 728 729 0
730 731 732 0
733 734 735 0
736 737 738 0
739 740 741 0
742 743 744 0
745 746 747 0
748 749 750 0
751 752 753 0
754 755 756 0
757 758 759 0
760 761 762 0
763 764 765 0
766 767 768 0
769 770 771 0
772 773 774 0
775 776 777 0
778 779 780 0
781 782 783 0
784 785 786 0
787 788 789 0
790 791 792 0
793 794 795 0
796 797 798 0
799 800 801 0
802 803 804 0
805 806 807 0
808 809 810 0
811 812 813 0
814 815 816 0
817 818 819 0
820 821 822 0
823 824 825 0
826 827 828 0
829 830 831 0
832 833 834 0
835 836 837 0
838 839 840 0
841 842 843 0
844 845 846 0
847 848 849 0
850 851 852 0
853 854 855 0
856 857 858 0
859 860 861 0
862 863 864 0
865 866 867 0
868 869 870 0
871 872 873 0
874 875 876 0
877 878 879 0
880 881 882 0
883 884 885 0
886 887 888 0
889 890 891 0
892 893 894 0
895 896 897 0
898 899 900 0
901 902 903 0
904 905 906 0
907 908 909 0
910 911 912 0
913 914 915 0
916 917 918 0
919 920 921 0
922 923 924 0
925 926 927 0
928 929 930 0
931 932 933 0
934 935 936 0
937 938 939 0
940 941 942 0
943 944 945 0
946 947 948 0
949 950 951 0
952 953 954 0
955 956 957 0
958 959 960 0
961 962 963 0
964 965 966 0
967 968 969 0
970 971 972 0
973 974 975 0
976 977 978 0
979 980 981 0
982 983 984 0
985 986 987 0
988 989 990 0
991 992 993 0
994 995 996 0
997 998 999 0
1000 1001 1002 0
1003 1004 1005 0
1006 1007 1008 0
1009 1010 1011 0
1012 1013 1014 0
1015 1016 1017 0
1018 1019 1020 0
1021 1022 1023 0
1024 1025 1026 0
1027 1028 1029 0
1030 1031 1032 0
1033 1034 1035 0
1036 1037 1038 0
1039 1040 1041 0
1042 1043 1044 0
1045 1046 1047 0
1048 1049 1050 0
1051 1052 1053 0
1054 1055 1056 0
1057 1058 1059 0
1060 1061 1062 0
1063 1064 1065 0
1066 1067 1068 0
1069 1070 1071 0
1072 1073 1074 0
1075 1076 1077 0
1078 1079 1080 0
1081 1082 1083 0
1084 1085 1086 0
1087 1088 1089 0
1090 1091 1092 0
1093 1094 1095 0
1096 1097 1098 0
1099 1100 1101 0
1102 1103 1104 0
1105 1106 1107 0
1108 1109 1110 0
1111 1112 1113 0
1114 1115 1116 0
1117 1118 1119 0
1120 1121 1122 0
1123 1124 1125 0
1126 1127 1128 0
1129 1130 1131 0
1132 1133 1134 0
1135 1136 1137 0
1138 1139 1140 0
1141 1142 1143 0
1144 1145 1146 0
1147 1148 1149 0
1150 1151 1152 0
1153 1154 1155 0
1156 1157 1158 0
1159 1160 1161 0
1162 1163 1164 0
1165 1166 1167 0
1168 1169 1170 0
1171 1172 1173 0
1174 1175 1176 0
1177 1178 1179 0
1180 1181 1182 0
1183 1184 1185 0
1186 1187 1188 0
1189 1190 1191 0
1192 1193 1194 0
1195 1196 1197 0
1198 1199 1200 0
1201 1202 1203 0
1204 1205 1206 0
1207 1208 1209 0
1210 1211 1212 0
1213 1214 1215 0
1216 1217 1218 0
1219 1220 1221 0
1222 1223 1224 0
1225 1226 1227 0
1228 1229 1230 0
1231 1232 1233 0
1234 1235 1236 0
1237 1238 1239 0
1240 1241 1242 0
1243 1244 1245 0
1246 1247 1248 0
1249 1250 1251 0
1252 1253 1254 0
1255 1256 1257 0
1258 1259 1260 0
1261 1262 1263 0
1264 1265 1266 0
1267 1268 1269 0
1270 1271 1272 0
1273 1274 1275 0
1276 1277 1278 0
1279 1280 1281 0
1282 1283 1284 0
1285 1286 1287 0
1288 1289 1290 0
1291 1292 1293 0
1294 1295 1296 0
1297 1298 1299 0
1300 1301 1302 0
1303 1304 1305 0
1306 1307 1308 0
1309 1310 1311 0
1312 1313 1314 0
1315 1316 1317 0
1318 1319 1320 0
1321 1322 1323 0
1324 1325 1326 0
1327 1328 1329 0
1330 1331 1332 0
1333 1334 1335 0
1336 1337 1338 0
1339 1340 1341 0
1342 1343 1344 0
1345 1346 1347 0
1348 1349 1350 0
1351 1352 1353 0
1354 1355 1356 0
1357 1358 1359 0
1360 1361 1362 0
1363 1364 1365 0
1366 1367 1368 0
1369 1370 1371 0
1372 1373 1374 0
1375 1376 1377 0
1378 1379 1380 0
1381 1382 1383 0
1384 1385 1386 0
1387 1388 1389 0
1390 1391 1392 0
1393 1394 1395 0
1396 1397 1398 0
1399 1400 1401 0
1402 1403 1404 0
1405 1406 1407 0
1408 1409 1410 0
1411 1412 1413 0
1414 1415 1416 0
1417 1418 1419 0
1420 1421 1422 0
1423 1424 1425 0
1426 1427 1428 0
1429 1430 1431 0
1432 1433 1434 0
1435 1436 1437 0
1438 1439 1440 0
1441 1442 1443 0
1444 1445 1446 0
1447 1448 1449 0
1450 1451 1452 0
1453 1454 1455 0
1456 1457 1458 0
1459 1460 1461 0
1462 1463 1464 0
1465 1466 1467 0
1468 1469 1470 0
1471 1472 1473 0
1474 1475 1476 0
1477 1478 1479 0
1480 1481 1482 0
1483 1484 1485 0
1486 1487 1488 0
1489 1490 1491 0
1492 1493 1494 0
1495 1496 1497 0
1498 1499 1500 0
1501 1502 1503 0
1504 1505 1506 0
1507 1508 1509 0
1510 1511 1512 0
1513 1514 1515 0
1516 1517 1518 0
1519 1520 1521 0
1522 1523 1524 0
1525 1526 1527 0
1528 1529 1530 0
1531 1532 1533 0
1534 1535 1536 0
1537 1538 1539 0
1540 1541 1542 0
1543 1544 1545 0
1546 1547 1548 0
1549 1550 1551 0
1552 1553 1554 0
1555 1556 1557 0
1558 1559 1560 0
1561 1562 1563 0
1564 1565 1566 0
1567 1568 1569 0
1570 1571 1572 0
1573 1574 1575 0
1576 1577 1578 0
1579 1580 1581 0
1582 1583 1584 0
1585 1586 1587 0
1588 1589 1590 0
1591 1592 1593 0
1594 1595 1596 0
1597 1598 1599 0
1600 1601 1602 0
1603 1604 1605 0
1606 1607 1608 0
1609 1610 1611 0
1612 1613 1614 0
1615 1616 1617 0
1618 1619 1620 0
1621 1622 1623 0
1624 1625 1626 0
1627 1628 1629 0
1630 1631 1632 0
1633 1634 1635 0
1636 1637 1638 0
1639 1640 1641 0
1642 1643 1644 0
1645 1646 1647 0
1648 1649 1650 0
1651 1652 1653 0
1654 1655 1656 0
1657 1658 1659 0
1660 1661 1662 0
1663 1664 1665 0
1666 1667 1668 0
1669 1670 1671 0
1672 1673 1674 0
1675 1676 1677 0
1678 1679 1680 0
1681 1682 1683 0
1684 1685 1686 0
1687 1688 1689 0
1690 1691 1692 0
1693 1694 1695 0
1696 1697 1698 0
1699 1700 1701 0
1702 1703 1704 0
1705 1706 1707 0
1708 1709 1710 0
1711 1712 1713 0
1714 1715 1716 0
1717 1718 1719 0
1720 1721 1722 0
1723 1724 1725 0
1726 1727 1728 0
1729 1730 1731 0
1732 1733 1734 0
1735 1736 1737 0
1738 1739 1740 0
1741 1742 1743 0
1744 1745 1746 0
1747 1748 1749 0
1750 1751 1752 0
1753 1754 1755 0
1756 1757 1758 0
1759 1760 1761 0
1762 1763 1764 0
1765 1766 1767 0
1768 1769 1770 0
1771 1772 1773 0
1774 1775 1776 0
1777 1778 1779 0
1780 1781 1782 0
1783 1784 1785 0
1786 1787 1788 0
1789 1790 1791 0
1792 1793 1794 0
1795 1796 1797 0
1798 1799 1800 0
1801 1802 1803 0
1804 1805 1806 0
1807 1808 1809 0
1810 1811 1812 0
1813 1814 1815 0
1816 1817 1818 0
1819 1820 1821 0
1822 1823 1824 0
1825 1826 1827 0
1828 1829 1830 0
1831 1832 1833 0
1834 1835 1836 0
1837 1838 1839 0
1840 1841 1842 0
1843 1844 1845 0
1846 1847 1848 0
1849 1850 1851 0
1852 1853 1854 0
1855 1856 1857 0
1858 1859 1860 0
1861 1862 1863 0
1864 1865 1866 0
1867 1868 1869 0
1870 1871 1872 0
1873 1874 1875 0
1876 1877 1878 0
1879 1880 1881 0
1882 1883 1884 0
1885 1886 1887 0
1888 1889 1890 0
1891 1892 1893 0
1894 1895 1896 0
1897 1898 1899 0
1900 1901 1902 0
1903 1904 1905 0
1906 1907 1908 0
1909 1910 1911 0
1912 1913 1914 0
1915 1916 1917 0
1918 1919 1920 0
1921 1922 1923 0
1924 1925 1926 0
1927 1928 1929 0
1930 1931 1932 0
1933 1934 1935 0
1936 1937 1938 0
1939 1940 1941 0
1942 1943 1944 0
1945 1946 1947 0
1948 1949 1950 0
1951 1952 1953 0
1954 1955 1956 0
1957 1958 1959 0
1960 1961 1962 0
1963 1964 1965 0
1966 1967 1968 0
1969 1970 1971 0
1972 1973 1974 0
1975 1976 1977 0
1978 1979 1980 0
1981 1982 1983 0
1984 1985 1986 0
1987 1988 1989 0
1990 1991 1992 0
1993 1994 1995 0
1996 1997 1998 0
1999 2000 2001 0
2002 2003 2004 0
2005 2006 2007 0
2008 2009 2010 0
2011 2012 2013 0
2014 2015 2016 0
2017 2018 2019 0
2020 2021 2022 0
2023 2024 2025 0
2026 2027 2028 0
2029 2030 2031 0
2032 2033 2034 0
2035 2036 2037 0
2038 2039 2040 0
2041 2042 2043 0
2044 2045 2046 0
2047 2048 2049 0
2050 2051 2052 0
2053 2054 2055 0
2056 2057 2058 0
2059 2060 2061 0
2062 2063 2064 0
2065 2066 2067 0
2068 2069 2070 0
2071 2072 2073 0
2074 2075 2076 0
2077 2078 2079 0
2080 2081 2082 0
2083 2084 2085 0
2086 2087 2088 0
2089 2090 2091 0
2092 2093 2094 0
2095 2096 2097 0
2098 2099 2100 0
2101 2102 2103 0
2104 2105 2106 0
2107 2108 2109 0
2110 2111 2112 0
2113 2114 2115 0
2116 2117 2118 0
2119 2120 2121 0
2122 2123 2124 0
2125 2126 2127 0
2128 2129 2130 0
2131 2132 2133 0
2134 2135 2136 0
2137 2138 2139 0
2140 2141 2142 0
2143 2144 2145 0
2146 2147 2148 0
2149 2150 2151 0
2152 2153 2154 0
2155 2156 2157 0
2158 2159 2160 0
2161 2162 2163 0
2164 2165 2166 0
2167 2168 2169 0
2170 2171 2172 0
2173 2174 2175 0
2176 2177 2178 0
2179 2180 2181 0
2182 2183 2184 0
2185 2186 2187 0
2188 2189 2190 0
2191 2192 2193 0
2194 2195 2196 0
2197 2198 2199 0
2200 2201 2202 0
2203 2204 2205 0
2206 2207 2208 0
2209 2210 2211 0
2212 2213 2214 0
2215 2216 2217 0
2218 2219 2220 0
2221 2222 2223 0
2224 2225 2226 0
2227 2228 2229 0
2230 2231 2232 0
2233 2234 2235 0
2236 2237 2238 0
2239 2240 2241 0
2242 2243 2244 0
2245 2246 2247 0
2248 2249 2250 0
2251 2252 2253 0
2254 2255 2256 0
2257 2258 2259 0
2260 2261 2262 0
2263 2264 2265 0
2266 2267 2268 0
2269 2270 2271 0
2272 2273 2274 0
2275 2276 2277 0
2278 2279 2280 0
2281 2282 2283 0
2284 2285 2286 0
2287 2288 2289 0
2290 2291 2292 0
2293 2294 2295 0
2296 2297 2298 0
2299 2300 2301 0
2302 2303 2304 0
2305 2306 2307 0
2308 2309 2310 0
2311 2312 2313 0
2314 2315 2316 0
2317 2318 2319 0
2320 2321 2322 0
2323 2324 2325 0
2326 2327 2328 0
2329 2330 2331 0
2332 2333 2334 0
2335 2336 2337 0
2338 2339 2340 0
2341 2342 2343 0
2344 2345 2346 0
2347 2348 2349 0
2350 2351 2352 0
2353 2354 2355 0
2356 2357 2358 0
2359 2360 2361 0
2362 2363 2364 0
2365 2366 2367 0
2368 2369 2370 0
2371 2372 2373 0
2374 2375 2376 0
2377 2378 2379 0
2380 2381 2382 0
2383 2384 2385 0
2386 2387 2388 0
2389 2390 2391 0
2392 2393 2394 0
2395 2396 2397 0
2398 2399 2400 0
2401 2402 2403 0
2404 2405 2406 0
2407 2408 2409 0
2410 2411 2412 0
2413 2414 2415 0
2416 2417 2418 0
2419 2420 2421 0
2422 2423 2424 0
2425 2426 2427 0
2428 2429 2430 0
2431 2432 2433 0
2434 2435 2436 0
2437 2438 2439 0
2440 2441 2442 0
2443 2444 2445 0
2446 2447 2448 0
2449 2450 2451 0
2452 2453 2454 0
2455 2456 2457 0
2458 2459 2460 0
2461 2462 2463 0
2464 2465 2466 0
2467 2468 2469 0
2470 2471 2472 0
2473 2474 2475 0
2476 2477 2478 0
2479 2480 2481 0
2482 2483 2484 0
2485 2486 2487 0
2488 2489 2490 0
2491 2492 2493 0
2494 2495 2496 0
2497 2498 2499 0
2500 2501 2502 0
2503 2504 2505 0
2506 2507 2508 0
2509 2510 2511 0
2512 2513 2514 0
2515 2516 2517 0
2518 2519 2520 0
2521 2522 2523 0
2524 2525 2526 0
2527 2528 2529 0
2530 2531 2532 0
2533 2534 2535 0
2536 2537 2538 0
2539 2540 2541 0
2542 2543 2544 0
2545 2546 2547 0
2548 2549 2550 0
2551 2552 2553 0
2554 2555 2556 0
2557 2558 2559 0
2560 2561 2562 0
2563 2564 2565 0
2566 2567 2568 0
2569 2570 2571 0
2572 2573 2574 0
2575 2576 2577 0
2578 2579 2580 0
2581 2582 2583 0
2584 2585 2586 0
2587 2588 2589 0
2590 2591 2592 0
2593 2594 2595 0
2596 2597 2598 0
2599 2600 2601 0
2602 2603 2604 0
2605 2606 2607 0
2608 2609 2610 0
2611 2612 2613 0
2614 2615 2616 0
2617 2618 2619 0
2620 2621 2622 0
2623 2624 2625 0
2626 2627 2628 0
2629 2630 2631 0
2632 2633 2634 0
2635 2636 2637 0
2638 2639 2640 0
2641 2642 2643 0
2644 2645 2646 0
2647 2648 2649 0
2650 2651 2652 0
2653 2654 2655 0
2656 2657 2658 0
2659 2660 2661 0
2662 2663 2664 0
2665 2666 2667 0
2668 2669 2670 0
2671 2672 2673 0
2674 2675 2676 0
2677 2678 2679 0
2680 2681 2682 0
2683 2684 2685 0
2686 2687 2688 0
2689 2690 2691 0
2692 2693 2694 0
2695 2696 2697 0
2698 2699 2700 0
2701 2702 2703 0
2704 2705 2706 0
2707 2708 2709 0
2710 2711 2712 0
2713 2714 2715 0
2716 2717 2718 0
2719 2720 2721 0
2722 2723 2724 0
2725 2726 2727 0
2728 2729 2730 0
2731 2732 2733 0
2734 2735 2736 0
2737 2738 2739 0
2740 2741 2742 0
2743 2744 2745 0
2746 2747 2748 0
2749 2750 2751 0
2752 2753 2754 0
2755 2756 2757 0
2758 2759 2760 0
2761 2762 2763 0
2764 2765 2766 0
2767 2768 2769 0
2770 2771 2772 0
2773 2774 2775 0
2776 2777 2778 0
2779 2780 2781 0
2782 2783 2784 0
2785 2786 2787 0
2788 2789 2790 0
2791 2792 2793 0
2794 2795 2796 0
2797 2798 2799 0
2800 2801 2802 0
2803 2804 2805 0
2806 2807 2808 0
2809 2810 2811 0
2812 2813 2814 0
2815 2816 2817 0
2818 2819 2820 0
2821 2822 2823 0
2824 2825 2826 0
2827 2828 2829 0
2830 2831 2832 0
2833 2834 2835 0
2836 2837 2838 0
2839 2840 2841 0
2842 2843 2844 0
2845 2846 2847 0
2848 2849 2850 0
2851 2852 2853 0
2854 2855 2856 0
2857 2858 2859 0
2860 2861 2862 0
2863 2864 2865 0
2866 2867 2868 0
2869 2870 2871 0
2872 2873 2874 0
2875 2876 2877 0
2878 2879 2880 0
2881 2882 2883 0
2884 2885 2886 0
2887 2888 2889 0
2890 2891 2892 0
2893 2894 2895 0
2896 2897 2898 0
2899 2900 2901 0
2902 2903 2904 0
2905 2906 2907 0
2908 2909 2910 0
2911 2912 2913 0
2914 2915 2916 0
2917 2918 2919 0
2920 2921 2922 0
2923 2924 2925 0
2926 2927 2928 0
2929 2930 2931 0
2932 2933 2934 0
2935 2936 2937 0
2938 2939 2940 0
2941 2942 2943 0
2944 2945 2946 0
2947 2948 2949 0
2950 2951 2952 0
2953 2954 2955 0
2956 2957 2958 0
2959 2960 2961 0
2962 2963 2964 0
2965 2966 2967 0
2968 2969 2970 0
2971 2972 2973 0
2974 2975 2976 0
2977 2978 2979 0
2980 2981 2982 0
2983 2984 2985 0
2986 2987 2988 0
2989 2990 2991 0
2992 2993 2994 0
2995 2996 2997 0
2998 2999 3000 0
3001 3002 3003 0
3004 3005 3006 0
3007 3008 3009 0
3010 3011 3012 0
3013 3014 3015 0
3016 3017 3018 0
3019 3020 3021 0
3022 3023 3024 0
3025 3026 3027 0
3028 3029 3030 0
3031 3032 3033 0
3034 3035 3036 0
3037 3038 3039 0
3040 3041 3042 0
3043 3044 3045 0
3046 3047 3048 0
3049 3050 3051 0
3052 3053 3054 0
3055 3056 3057 0
3058 3059 3060 0
3061 3062 3063 0
3064 3065 3066 0
3067 3068 3069 0
3070 3071 3072 0
3073 3074 3075 0
3076 3077 3078 0
3079 3080 3081 0
3082 3083 3084 0
3085 3086 3087 0
3088 3089 3090 0
3091 3092 3093 0
3094 3095 3096 0
3097 3098 3099 0
3100 3101 3102 0
3103 3104 3105 0
3106 3107 3108 0
3109 3110 3111 0
3112 3113 3114 0
3115 3116 3117 0
3118 3119 3120 0
3121 3122 3123 0
3124 3125 3126 0
3127 3128 3129 0
3130 3131 3132 0
3133 3134 3135 0
3136 3137 3138 0
3139 3140 3141 0
3142 3143 3144 0
3145 3146 3147 0
3148 3149 3150 0
3151 3152 3153 0
3154 3155 3156 0
3157 3158 3159 0
3160 3161 3162 0
3163 3164 3165 0
3166 3167 3168 0
3169 3170 3171 0
3172 3173 3174 0
3175 3176 3177 0
3178 3179 3180 0
3181 3182 3183 0
3184 3185 3186 0
3187 3188 3189 0
3190 3191 3192 0
3193 3194 3195 0
3196 3197 3198 0
3199 3200 3201 0
3202 3203 3204 0
3205 3206 3207 0
3208 3209 3210 0
3211 3212 3213 0
3214 3215 3216 0
3217 3218 3219 0
3220 3221 3222 0
3223 3224 3225 0
3226 3227 3228 0
3229 3230 3231 0
3232 3233 3234 0
3235 3236 3237 0
3238 3239 3240 0
3241 3242 3243 0
3244 3245 3246 0
3247 3248 3249 0
3250 3251 3252 0
3253 3254 3255 0
3256 3257 3258 0
3259 3260 3261 0
3262 3263 3264 0
3265 3266 3267 0
3268 3269 3270 0
3271 3272 3273 0
3274 3275 3276 0
3277 3278 3279 0
3280 3281 3282 0
3283 3284 3285 0
3286 3287 3288 0
3289 3290 3291 0
3292 3293 3294 0
3295 3296 3297 0
3298 3299 3300 0
3301 3302 3303 0
3304 3305 3306 0
3307 3308 3309 0
3310 3311 3312 0
3313 3314 3315 0
3316 3317 3318 0
3319 3320 3321 0
3322 3323 3324 0
3325 3326 3327 0
3328 3329 3330 0
3331 3332 3333 0
3334 3335 3336 0
3337 3338 3339 0
3340 3341 3342 0
3343 3344 3345 0
3346 3347 3348 0
3349 3350 3351 0
3352 3353 3354 0
3355 3356 3357 0
3358 3359 3360 0
3361 3362 3363 0
3364 3365 3366 0
3367 3368 3369 0
3370 3371 3372 0
3373 3374 3375 0
3376 3377 3378 0
3379 3380 3381 0
3382 3383 3384 0
3385 3386 3387 0
3388 3389 3390 0
3391 3392 3393 0
3394 3395 3396 0
3397 3398 3399 0
3400 3401 3402 0
3403 3404 3405 0
3406 3407 3408 0
3409 3410 3411 0
3412 3413 3414 0
3415 3416 3417 0
3418 3419 3420 0
3421 3422 3423 0
3424 3425 3426 0
3427 3428 3429 0
3430 3431 3432 0
3433 3434 3435 0
3436 3437 3438 0
3439 3440 3441 0
3442 3443 3444 0
3445 3446 3447 0
3448 3449 3450 0
3451 3452 3453 0
3454 3455 3456 0
3457 3458 3459 0
3460 3461 3462 0
3463 3464 3465 0
3466 3467 3468 0
3469 3470 3471 0
3472 3473 3474 0
3475 3476 3477 0
3478 3479 3480 0
3481 3482 3483 0
3484 3485 3486 0
3487 3488 3489 0
3490 3491 3492 0
3493 3494 3495 0
3496 3497 3498 0
3499 3500 3501 0
3502 3503 3504 0
3505 3506 3507 0
3508 3509 3510 0
3511 3512 3513 0
3514 3515 3516 0
3517 3518 3519 0
3520 3521 3522 0
3523 3524 3525 0
3526 3527 3528 0
3529 3530 3531 0
3532 3533 3534 0
3535 3536 3537 0
3538 3539 3540 0
3541 3542 3543 0
3544 3545 3546 0
3547 3548 3549 0
3550 3551 3552 0
3553 3554 3555 0
3556 3557 3558 0
3559 3560 3561 0
3562 3563 3564 0
3565 3566 3567 0
3568 3569 3570 0
3571 3572 3573 0
3574 3575 3576 0
3577 3578 3579 0
3580 3581 3582 0
3583 3584 3585 0
3586 3587 3588 0
3589 3590 3591 0
3592 3593 3594 0
3595 3596 3597 0
3598 3599 3600 0
3601 3602 3603 0
3604 3605 3606 0
3607 3608 3609 0
3610 3611 3612 0
3613 3614 3615 0
3616 3617 3618 0
3619 3620 3621 0
3622 3623 3624 0
3625 3626 3627 0
3628 3629 3630 0
3631 3632 3633 0
3634 3635 3636 0
3637 3638 3639 0
3640 3641 3642 0
3643 3644 3645 0
3646 3647 3648 0
3649 3650 3651 0
3652 3653 3654 0
3655 3656 3657 0
3658 3659 3660 0
3661 3662 3663 0
3664 3665 3666 0
3667 3668 3669 0
3670 3671 3672 0
3673 3674 3675 0
3676 3677 3678 0
3679 3680 3681 0
3682 3683 3684 0
3685 3686 3687 0
3688 3689 3690 0
3691 3692 3693 0
3694 3695 3696 0
3697 3698 3699 0
3700 3701 3702 0
3703 3704 3705 0
3706 3707 3708 0
3709 3710 3711 0
3712 3713 3714 0
3715 3716 3717 0
3718 3719 3720 0
3721 3722 3723 0
3724 3725 3726 0
3727 3728 3729 0
3730 3731 3732 0
3733 3734 3735 0
3736 3737 3738 0
3739 3740 3741 0
3742 3743 3744 0
3745 3746 3747 0
3748 3749 3750 0
3751 3752 3753 0
3754 3755 3756 0
3757 3758 3759 0
3760 3761 3762 0
3763 3764 3765 0
3766 3767 3768 0
3769 3770 3771 0
3772 3773 3774 0
3775 3776 3777 0
3778 3779 3780 0
3781 3782 3783 0
3784 3785 3786 0
3787 3788 3789 0
3790 3791 3792 0
3793 3794 3795 0
3796 3797 3798 0
3799 3800 3801 0
3802 3803 3804 0
3805 3806 3807 0
3808 3809 3810 0
3811 3812 3813 0
3814 3815 3816 0
3817 3818 3819 0
3820 3821 3822 0
3823 3824 3825 0
3826 3827 3828 0
3829 3830 3831 0
3832 3833 3834 0
3835 3836 3837 0
3838 3839 3840 0
3841 3842 3843 0
-1 -1825 0
-2 -1826 0
-3 -1827 0
-1 -2335 0
-2 -2336 0
-3 -2337 0
-1 -1678 0
-2 -1679 0
-3 -1680 0
-1 -127 0
-2 -128 0
-3 -129 0
-4 -1978 0
-5 -1979 0
-6 -1980 0
-4 -1591 0
-5 -1592 0
-6 -1593 0
-4 -1594 0
-5 -1595 0
-6 -1596 0
-4 -130 0
-5 -131 0
-6 -132 0
-7 -2461 0
-8 -2462 0
-9 -2463 0
-7 -2464 0
-8 -2465 0
-9 -2466 0
-7 -706 0
-8 -707 0
-9 -708 0
-7 -3826 0
-8 -3827 0
-9 -3828 0
-7 -22 0
-8 -23 0
-9 -24 0
-10 -16 0
-11 -17 0
-12 -18 0
-10 -28 0
-11 -29 0
-12 -30 0
-10 -67 0
-11 -68 0
-12 -69 0
-10 -34 0
-11 -35 0
-12 -36 0
-10 -763 0
-11 -764 0
-12 -765 0
-13 -31 0
-14 -32 0
-15 -33 0
-13 -97 0
-14 -98 0
-15 -99 0
-13 -310 0
-14 -311 0
-15 -312 0
-13 -37 0
-14 -38 0
-15 -39 0
-13 -763 0
-14 -764 0
-15 -765 0
-16 -766 0
-17 -767 0
-18 -768 0
-16 -2059 0
-17 -2060 0
-18 -2061 0
-19 -763 0
-20 -764 0
-21 -765 0
-19 -157 0
-20 -158 0
-21 -159 0
-19 -163 0
-20 -164 0
-21 -165 0
-22 -76 0
-23 -77 0
-24 -78 0
-22 -763 0
-23 -764 0
-24 -765 0
-22 -160 0
-23 -161 0
-24 -162 0
-22 -166 0
-23 -167 0
-24 -168 0
-25 -103 0
-26 -104 0
-27 -105 0
-25 -70 0
-26 -71 0
-27 -72 0
-25 -763 0
-26 -764 0
-27 -765 0
-28 -790 0
-29 -791 0
-30 -792 0
-28 -1498 0
-29 -1499 0
-30 -1500 0
-28 -3811 0
-29 -3812 0
-30 -3813 0
-31 -787 0
-32 -788 0
-33 -789 0
-31 -1546 0
-32 -1547 0
-33 -1548 0
-31 -2818 0
-32 -2819 0
-33 -2820 0
-34 -2029 0
-35 -2030 0
-36 -2031 0
-34 -1849 0
-35 -1850 0
-36 -1851 0
-34 -964 0
-35 -965 0
-36 -966 0
-34 -2320 0
-35 -2321 0
-36 -2322 0
-37 -1984 0
-38 -1985 0
-39 -1986 0
-37 -2203 0
-38 -2204 0
-39 -2205 0
-37 -961 0
-38 -962 0
-39 -963 0
-40 -292 0
-41 -293 0
-42 -294 0
-40 -2863 0
-41 -2864 0
-42 -2865 0
-40 -2194 0
-41 -2195 0
-42 -2196 0
-43 -3268 0
-44 -3269 0
-45 -3270 0
-43 -292 0
-44 -293 0
-45 -294 0
-43 -298 0
-44 -299 0
-45 -300 0
-43 -2032 0
-44 -2033 0
-45 -2034 0
-43 -2557 0
-44 -2558 0
-45 -2559 0
-43 -2044 0
-44 -2045 0
-45 -2046 0
-46 -2869 0
-47 -2870 0
-48 -2871 0
-46 -298 0
-47 -299 0
-48 -300 0
-46 -2557 0
-47 -2558 0
-48 -2559 0
-49 -130 0
-50 -131 0
-51 -132 0
-49 -1978 0
-50 -1979 0
-51 -1980 0
-49 -2068 0
-50 -2069 0
-51 -2070 0
-49 -460 0
-50 -461 0
-51 -462 0
-49 -2071 0
-50 -2072 0
-51 -2073 0
-49 -1936 0
-50 -1937 0
-51 -1938 0
-52 -2335 0
-53 -2336 0
-54 -2337 0
-52 -1756 0
-53 -1757 0
-54 -1758 0
-52 -2821 0
-53 -2822 0
-54 -2823 0
-52 -3214 0
-53 -3215 0
-54 -3216 0
-52 -3424 0
-53 -3425 0
-54 -3426 0
-52 -127 0
-53 -128 0
-54 -129 0
-52 -3784 0
-53 -3785 0
-54 -3786 0
-52 -1900 0
-53 -1901 0
-54 -1902 0
-52 -463 0
-53 -464 0
-54 -465 0
-52 -2611 0
-53 -2612 0
-54 -2613 0
-52 -1744 0
-53 -1745 0
-54 -1746 0
-55 -364 0
-56 -365 0
-57 -366 0
-55 -2389 0
-56 -2390 0
-57 -2391 0
-55 -2125 0
-56 -2126 0
-57 -2127 0
-55 -250 0
-56 -251 0
-57 -252 0
-58 -532 0
-59 -533 0
-60 -534 0
-58 -2707 0
-59 -2708 0
-60 -2709 0
-58 -3418 0
-59 -3419 0
-60 -3420 0
-58 -127 0
-59 -128 0
-60 -129 0
-61 -292 0
-62 -293 0
-63 -294 0
-61 -3730 0
-62 -3731 0
-63 -3732 0
-61 -379 0
-62 -380 0
-63 -381 0
-61 -2920 0
-62 -2921 0
-63 -2922 0
-64 -2842 0
-65 -2843 0
-66 -2844 0
-64 -298 0
-65 -299 0
-66 -300 0
-64 -3094 0
-65 -3095 0
-66 -3096 0
-64 -379 0
-65 -380 0
-66 -381 0
-67 -1996 0
-68 -1997 0
-69 -1998 0
-67 -1915 0
-68 -1916 0
-69 -1917 0
-67 -2707 0
-68 -2708 0
-69 -2709 0
-67 -1063 0
-68 -1064 0
-69 -1065 0
-67 -1687 0
-68 -1688 0
-69 -1689 0
-70 -3781 0
-71 -3782 0
-72 -3783 0
-70 -2311 0
-71 -2312 0
-72 -2313 0
-70 -1066 0
-71 -1067 0
-72 -1068 0
-70 -2344 0
-71 -2345 0
-72 -2346 0
-73 -1675 0
-74 -1676 0
-75 -1677 0
-73 -1063 0
-74 -1064 0
-75 -1065 0
-73 -1696 0
-74 -1697 0
-75 -1698 0
-73 -2128 0
-74 -2129 0
-75 -2130 0
-76 -2464 0
-77 -2465 0
-78 -2466 0
-76 -2026 0
-77 -2027 0
-78 -2028 0
-76 -1081 0
-77 -1082 0
-78 -1083 0
-76 -2650 0
-77 -2651 0
-78 -2652 0
-79 -2197 0
-80 -2198 0
-81 -2199 0
-79 -2158 0
-80 -2159 0
-81 -2160 0
-79 -379 0
-80 -380 0
-81 -381 0
-79 -367 0
-80 -368 0
-81 -369 0
-79 -1948 0
-80 -1949 0
-81 -1950 0
-82 -370 0
-83 -371 0
-84 -372 0
-82 -3352 0
-83 -3353 0
-84 -3354 0
-82 -382 0
-83 -383 0
-84 -384 0
-82 -2293 0
-83 -2294 0
-84 -2295 0
-82 -2317 0
-83 -2318 0
-84 -2319 0
-85 -1990 0
-86 -1991 0
-87 -1992 0
-85 -3412 0
-86 -3413 0
-87 -3414 0
-85 -508 0
-86 -509 0
-87 -510 0
-85 -3097 0
-86 -3098 0
-87 -3099 0
-85 -262 0
-86 -263 0
-87 -264 0
-85 -1696 0
-86 -1697 0
-87 -1698 0
-88 -3781 0
-89 -3782 0
-90 -3783 0
-88 -2254 0
-89 -2255 0
-90 -2256 0
-88 -511 0
-89 -512 0
-90 -513 0
-88 -265 0
-89 -266 0
-90 -267 0
-88 -2314 0
-89 -2315 0
-90 -2316 0
-91 -529 0
-92 -530 0
-93 -531 0
-91 -3451 0
-92 -3452 0
-93 -3453 0
-91 -2167 0
-92 -2168 0
-93 -2169 0
-91 -2170 0
-92 -2171 0
-93 -2172 0
-91 -250 0
-92 -251 0
-93 -252 0
-94 -253 0
-95 -254 0
-96 -255 0
-94 -3787 0
-95 -3788 0
-96 -3789 0
-94 -1990 0
-95 -1991 0
-96 -1992 0
-94 -532 0
-95 -533 0
-96 -534 0
-94 -2449 0
-95 -2450 0
-96 -2451 0
-94 -1687 0
-95 -1688 0
-96 -1689 0
-94 -2698 0
-95 -2699 0
-96 -2700 0
-97 -1984 0
-98 -1985 0
-99 -1986 0
-97 -1159 0
-98 -1160 0
-99 -1161 0
-97 -2818 0
-98 -2819 0
-99 -2820 0
-100 -577 0
-101 -578 0
-102 -579 0
-100 -1498 0
-101 -1499 0
-102 -1500 0
-100 -2965 0
-101 -2966 0
-102 -2967 0
-100 -226 0
-101 -227 0
-102 -228 0
-103 -1183 0
-104 -1184 0
-105 -1185 0
-103 -2020 0
-104 -2021 0
-105 -2022 0
-103 -2344 0
-104 -2345 0
-105 -2346 0
-103 -2914 0
-104 -2915 0
-105 -2916 0
-106 -253 0
-107 -254 0
-108 -255 0
-106 -3640 0
-107 -3641 0
-108 -3642 0
-106 -577 0
-107 -578 0
-108 -579 0
-106 -1507 0
-107 -1508 0
-108 -1509 0
-106 -1885 0
-107 -1886 0
-108 -1887 0
-109 -295 0
-110 -296 0
-111 -297 0
-109 -2377 0
-110 -2378 0
-111 -2379 0
-109 -2380 0
-110 -2381 0
-111 -2382 0
-109 -508 0
-110 -509 0
-111 -510 0
-112 -595 0
-113 -596 0
-114 -597 0
-112 -2764 0
-113 -2765 0
-114 -2766 0
-112 -2731 0
-113 -2732 0
-114 -2733 0
-112 -265 0
-113 -266 0
-114 -267 0
-112 -3616 0
-113 -3617 0
-114 -3618 0
-115 -1765 0
-116 -1766 0
-117 -1767 0
-115 -1954 0
-116 -1955 0
-117 -1956 0
-115 -127 0
-116 -128 0
-117 -129 0
-115 -739 0
-116 -740 0
-117 -741 0
-115 -1726 0
-116 -1727 0
-117 -1728 0
-118 -2137 0
-119 -2138 0
-120 -2139 0
-118 -2728 0
-119 -2729 0
-120 -2730 0
-118 -3355 0
-119 -3356 0
-120 -3357 0
-118 -130 0
-119 -131 0
-120 -132 0
-118 -742 0
-119 -743 0
-120 -744 0
-121 -2038 0
-122 -2039 0
-123 -2040 0
-121 -2056 0
-122 -2057 0
-123 -2058 0
-121 -130 0
-122 -131 0
-123 -132 0
-121 -745 0
-122 -746 0
-123 -747 0
-124 -748 0
-125 -749 0
-126 -750 0
-124 -2050 0
-125 -2051 0
-126 -2052 0
-124 -1714 0
-125 -1715 0
-126 -1716 0
-124 -3163 0
-125 -3164 0
-126 -3165 0
-124 -127 0
-125 -128 0
-126 -129 0
-127 -490 0
-128 -491 0
-129 -492 0
-127 -493 0
-128 -494 0
-129 -495 0
-127 -373 0
-128 -374 0
-129 -375 0
-127 -1198 0
-128 -1199 0
-129 -1200 0
-127 -1204 0
-128 -1205 0
-129 -1206 0
-127 -610 0
-128 -611 0
-129 -612 0
-127 -613 0
-128 -614 0
-129 -615 0
-127 -763 0
-128 -764 0
-129 -765 0
-127 -142 0
-128 -143 0
-129 -144 0
-127 -148 0
-128 -149 0
-129 -150 0
-127 -454 0
-128 -455 0
-129 -456 0
-127 -469 0
-128 -470 0
-129 -471 0
-130 -496 0
-131 -497 0
-132 -498 0
-130 -376 0
-131 -377 0
-132 -378 0
-130 -1201 0
-131 -1202 0
-132 -1203 0
-130 -607 0
-131 -608 0
-132 -609 0
-130 -616 0
-131 -617 0
-132 -618 0
-130 -763 0
-131 -764 0
-132 -765 0
-130 -145 0
-131 -146 0
-132 -147 0
-133 -1513 0
-134 -1514 0
-135 -1515 0
-133 -472 0
-134 -473 0
-135 -474 0
-133 -1528 0
-134 -1529 0
-135 -1530 0
-133 -3613 0
-134 -3614 0
-135 -3615 0
-133 -370 0
-134 -371 0
-135 -372 0
-136 -2869 0
-137 -2870 0
-138 -2871 0
-136 -3202 0
-137 -3203 0
-138 -3204 0
-136 -2824 0
-137 -2825 0
-138 -2826 0
-136 -475 0
-137 -476 0
-138 -477 0
-136 -367 0
-137 -368 0
-138 -369 0
-139 -463 0
-140 -464 0
-141 -465 0
-139 -3727 0
-140 -3728 0
-141 -3729 0
-139 -379 0
-140 -380 0
-141 -381 0
-142 -3784 0
-143 -3785 0
-144 -3786 0
-142 -1531 0
-143 -1532 0
-144 -1533 0
-142 -1780 0
-143 -1781 0
-144 -1782 0
-142 -3667 0
-143 -3668 0
-144 -3669 0
-142 -781 0
-143 -782 0
-144 -783 0
-145 -787 0
-146 -788 0
-147 -789 0
-145 -1957 0
-146 -1958 0
-147 -1959 0
-145 -3202 0
-146 -3203 0
-147 -3204 0
-145 -2395 0
-146 -2396 0
-147 -2397 0
-145 -2662 0
-146 -2663 0
-147 -2664 0
-148 -2614 0
-149 -2615 0
-150 -2616 0
-148 -1513 0
-149 -1514 0
-150 -1515 0
-148 -790 0
-149 -791 0
-150 -792 0
-148 -1921 0
-149 -1922 0
-150 -1923 0
-148 -1831 0
-149 -1832 0
-150 -1833 0
-148 -3424 0
-149 -3425 0
-150 -3426 0
-148 -3427 0
-149 -3428 0
-150 -3429 0
-151 -1777 0
-152 -1778 0
-153 -1779 0
-151 -2542 0
-152 -2543 0
-153 -2544 0
-151 -382 0
-152 -383 0
-153 -384 0
-151 -472 0
-152 -473 0
-153 -474 0
-154 -1519 0
-155 -1520 0
-156 -1521 0
-154 -3478 0
-155 -3479 0
-156 -3480 0
-154 -379 0
-155 -380 0
-156 -381 0
-154 -475 0
-155 -476 0
-156 -477 0
-154 -2191 0
-155 -2192 0
-156 -2193 0
-157 -3247 0
-158 -3248 0
-159 -3249 0
-157 -2746 0
-158 -2747 0
-159 -2748 0
-157 -1222 0
-158 -1223 0
-159 -1224 0
-157 -2293 0
-158 -2294 0
-159 -2295 0
-157 -3208 0
-158 -3209 0
-159 -3210 0
-160 -2650 0
-161 -2651 0
-162 -2652 0
-160 -3730 0
-161 -3731 0
-162 -3732 0
-160 -3826 0
-161 -3827 0
-162 -3828 0
-160 -2158 0
-161 -2159 0
-162 -2160 0
-160 -1219 0
-161 -1220 0
-162 -1221 0
-163 -3349 0
-164 -3350 0
-165 -3351 0
-163 -2617 0
-164 -2618 0
-165 -2619 0
-163 -2293 0
-164 -2294 0
-165 -2295 0
-163 -1228 0
-164 -1229 0
-165 -1230 0
-166 -3139 0
-167 -3140 0
-168 -3141 0
-166 -2563 0
-167 -2564 0
-168 -2565 0
-166 -2158 0
-167 -2159 0
-168 -2160 0
-166 -1225 0
-167 -1226 0
-168 -1227 0
-169 -325 0
-170 -326 0
-171 -327 0
-169 -538 0
-170 -539 0
-171 -540 0
-169 -1783 0
-170 -1784 0
-171 -1785 0
-169 -1759 0
-170 -1760 0
-171 -1761 0
-172 -1525 0
-173 -1526 0
-174 -1527 0
-172 -2920 0
-173 -2921 0
-174 -2922 0
-172 -328 0
-173 -329 0
-174 -330 0
-175 -337 0
-176 -338 0
-177 -339 0
-175 -1870 0
-176 -1871 0
-177 -1872 0
-175 -3610 0
-176 -3611 0
-177 -3612 0
-178 -184 0
-179 -185 0
-180 -186 0
-178 -190 0
-179 -191 0
-180 -192 0
-178 -541 0
-179 -542 0
-180 -543 0
-178 -550 0
-179 -551 0
-180 -552 0
-178 -763 0
-179 -764 0
-180 -765 0
-181 -187 0
-182 -188 0
-183 -189 0
-181 -193 0
-182 -194 0
-183 -195 0
-181 -544 0
-182 -545 0
-183 -546 0
-181 -553 0
-182 -554 0
-183 -555 0
-181 -763 0
-182 -764 0
-183 -765 0
-184 -2461 0
-185 -2462 0
-186 -2463 0
-184 -2464 0
-185 -2465 0
-186 -2466 0
-184 -835 0
-185 -836 0
-186 -837 0
-184 -2026 0
-185 -2027 0
-186 -2028 0
-184 -2089 0
-185 -2090 0
-186 -2091 0
-184 -2119 0
-185 -2120 0
-186 -2121 0
-184 -3529 0
-185 -3530 0
-186 -3531 0
-184 -2923 0
-185 -2924 0
-186 -2925 0
-187 -832 0
-188 -833 0
-189 -834 0
-187 -2233 0
-188 -2234 0
-189 -2235 0
-187 -1843 0
-188 -1844 0
-189 -1845 0
-187 -1501 0
-188 -1502 0
-189 -1503 0
-190 -2026 0
-191 -2027 0
-192 -2028 0
-190 -2092 0
-191 -2093 0
-192 -2094 0
-190 -844 0
-191 -845 0
-192 -846 0
-193 -2956 0
-194 -2957 0
-195 -2958 0
-193 -1501 0
-194 -1502 0
-195 -1503 0
-193 -841 0
-194 -842 0
-195 -843 0
-193 -2245 0
-194 -2246 0
-195 -2247 0
-196 -1702 0
-197 -1703 0
-198 -1704 0
-196 -748 0
-197 -749 0
-198 -750 0
-196 -1945 0
-197 -1946 0
-198 -1947 0
-199 -208 0
-200 -209 0
-201 -210 0
-199 -2848 0
-200 -2849 0
-201 -2850 0
-199 -2914 0
-200 -2915 0
-201 -2916 0
-199 -745 0
-200 -746 0
-201 -747 0
-202 -1984 0
-203 -1985 0
-204 -1986 0
-202 -2704 0
-203 -2705 0
-204 -2706 0
-202 -223 0
-203 -224 0
-204 -225 0
-202 -742 0
-203 -743 0
-204 -744 0
-202 -3364 0
-203 -3365 0
-204 -3366 0
-205 -2029 0
-206 -2030 0
-207 -2031 0
-205 -2581 0
-206 -2582 0
-207 -2583 0
-205 -2500 0
-206 -2501 0
-207 -2502 0
-205 -739 0
-206 -740 0
-207 -741 0
-205 -226 0
-206 -227 0
-207 -228 0
-208 -418 0
-209 -419 0
-210 -420 0
-208 -232 0
-209 -233 0
-210 -234 0
-208 -763 0
-209 -764 0
-210 -765 0
-208 -343 0
-209 -344 0
-210 -345 0
-211 -2290 0
-212 -2291 0
-213 -2292 0
-211 -577 0
-212 -578 0
-213 -579 0
-211 -1864 0
-212 -1865 0
-213 -1866 0
-211 -2443 0
-212 -2444 0
-213 -2445 0
-211 -361 0
-212 -362 0
-213 -363 0
-214 -1909 0
-215 -1910 0
-216 -1911 0
-214 -3460 0
-215 -3461 0
-216 -3462 0
-214 -580 0
-215 -581 0
-216 -582 0
-214 -2374 0
-215 -2375 0
-216 -2376 0
-214 -364 0
-215 -365 0
-216 -366 0
-214 -1930 0
-215 -1931 0
-216 -1932 0
-214 -1543 0
-215 -1544 0
-216 -1545 0
-217 -1987 0
-218 -1988 0
-219 -1989 0
-217 -595 0
-218 -596 0
-219 -597 0
-217 -2005 0
-218 -2006 0
-219 -2007 0
-217 -2008 0
-218 -2009 0
-219 -2010 0
-217 -2062 0
-218 -2063 0
-219 -2064 0
-220 -1912 0
-221 -1913 0
-222 -1914 0
-220 -598 0
-221 -599 0
-222 -600 0
-220 -2035 0
-221 -2036 0
-222 -2037 0
-220 -1648 0
-221 -1649 0
-222 -1650 0
-220 -346 0
-221 -347 0
-222 -348 0
-220 -2161 0
-221 -2162 0
-222 -2163 0
-223 -697 0
-224 -698 0
-225 -699 0
-223 -409 0
-224 -410 0
-225 -411 0
-223 -235 0
-224 -236 0
-225 -237 0
-223 -763 0
-224 -764 0
-225 -765 0
-226 -700 0
-227 -701 0
-228 -702 0
-226 -412 0
-227 -413 0
-228 -414 0
-226 -238 0
-227 -239 0
-228 -240 0
-226 -763 0
-227 -764 0
-228 -765 0
-229 -1702 0
-230 -1703 0
-231 -1704 0
-229 -790 0
-230 -791 0
-231 -792 0
-229 -3001 0
-230 -3002 0
-231 -3003 0
-232 -787 0
-233 -788 0
-234 -789 0
-232 -3796 0
-233 -3797 0
-234 -3798 0
-232 -1939 0
-233 -1940 0
-234 -1941 0
-232 -2914 0
-233 -2915 0
-234 -2916 0
-235 -1984 0
-236 -1985 0
-237 -1986 0
-235 -3250 0
-236 -3251 0
-237 -3252 0
-235 -2818 0
-236 -2819 0
-237 -2820 0
-235 -784 0
-236 -785 0
-237 -786 0
-238 -1498 0
-239 -1499 0
-240 -1500 0
-238 -2029 0
-239 -2030 0
-240 -2031 0
-238 -1828 0
-239 -1829 0
-240 -1830 0
-238 -781 0
-239 -782 0
-240 -783 0
-238 -3607 0
-239 -3608 0
-240 -3609 0
-241 -472 0
-242 -473 0
-243 -474 0
-241 -1651 0
-242 -1652 0
-243 -1653 0
-241 -2470 0
-242 -2471 0
-243 -2472 0
-241 -2536 0
-242 -2537 0
-243 -2538 0
-241 -1504 0
-242 -1505 0
-243 -1506 0
-241 -3733 0
-242 -3734 0
-243 -3735 0
-244 -463 0
-245 -464 0
-246 -465 0
-244 -2539 0
-245 -2540 0
-246 -2541 0
-244 -1603 0
-245 -1604 0
-246 -1605 0
-247 -2239 0
-248 -2240 0
-249 -2241 0
-247 -451 0
-248 -452 0
-249 -453 0
-247 -2164 0
-248 -2165 0
-249 -2166 0
-247 -1933 0
-248 -1934 0
-249 -1935 0
-247 -475 0
-248 -476 0
-249 -477 0
-250 -259 0
-251 -260 0
-252 -261 0
-250 -679 0
-251 -680 0
-252 -681 0
-250 -922 0
-251 -923 0
-252 -924 0
-250 -763 0
-251 -764 0
-252 -765 0
-253 -256 0
-254 -257 0
-255 -258 0
-253 -925 0
-254 -926 0
-255 -927 0
-253 -847 0
-254 -848 0
-255 -849 0
-253 -406 0
-254 -407 0
-255 -408 0
-253 -421 0
-254 -422 0
-255 -423 0
-253 -763 0
-254 -764 0
-255 -765 0
-256 -2053 0
-257 -2054 0
-258 -2055 0
-256 -2059 0
-257 -2060 0
-258 -2061 0
-256 -1810 0
-257 -1811 0
-258 -1812 0
-256 -1714 0
-257 -1715 0
-258 -1716 0
-256 -1723 0
-257 -1724 0
-258 -1725 0
-256 -781 0
-257 -782 0
-258 -783 0
-259 -2176 0
-260 -2177 0
-261 -2178 0
-259 -2056 0
-260 -2057 0
-261 -2058 0
-259 -1558 0
-260 -1559 0
-261 -1560 0
-259 -784 0
-260 -785 0
-261 -786 0
-262 -793 0
-263 -794 0
-264 -795 0
-262 -931 0
-263 -932 0
-264 -933 0
-262 -619 0
-263 -620 0
-264 -621 0
-262 -424 0
-263 -425 0
-264 -426 0
-262 -763 0
-263 -764 0
-264 -765 0
-265 -934 0
-266 -935 0
-267 -936 0
-265 -850 0
-266 -851 0
-267 -852 0
-265 -622 0
-266 -623 0
-267 -624 0
-265 -763 0
-266 -764 0
-267 -765 0
-268 -292 0
-269 -293 0
-270 -294 0
-268 -706 0
-269 -707 0
-270 -708 0
-268 -3079 0
-269 -3080 0
-270 -3081 0
-268 -2560 0
-269 -2561 0
-270 -2562 0
-268 -1507 0
-269 -1508 0
-270 -1509 0
-271 -706 0
-272 -707 0
-273 -708 0
-271 -298 0
-272 -299 0
-273 -300 0
-271 -1783 0
-272 -1784 0
-273 -1785 0
-271 -2749 0
-272 -2750 0
-273 -2751 0
-271 -2935 0
-272 -2936 0
-273 -2937 0
-274 -709 0
-275 -710 0
-276 -711 0
-274 -295 0
-275 -296 0
-276 -297 0
-274 -1720 0
-275 -1721 0
-276 -1722 0
-274 -3220 0
-275 -3221 0
-276 -3222 0
-274 -1579 0
-275 -1580 0
-276 -1581 0
-274 -2752 0
-275 -2753 0
-276 -2754 0
-274 -1525 0
-275 -1526 0
-276 -1527 0
-277 -3343 0
-278 -3344 0
-279 -3345 0
-277 -292 0
-278 -293 0
-279 -294 0
-277 -1870 0
-278 -1871 0
-279 -1872 0
-277 -1516 0
-278 -1517 0
-279 -1518 0
-277 -1534 0
-278 -1535 0
-279 -1536 0
-277 -2494 0
-278 -2495 0
-279 -2496 0
-277 -712 0
-278 -713 0
-279 -714 0
-280 -289 0
-281 -290 0
-282 -291 0
-280 -2467 0
-281 -2468 0
-282 -2469 0
-280 -1786 0
-281 -1787 0
-282 -1788 0
-280 -3799 0
-281 -3800 0
-282 -3801 0
-280 -1816 0
-281 -1817 0
-282 -1818 0
-280 -1537 0
-281 -1538 0
-282 -1539 0
-280 -715 0
-281 -716 0
-282 -717 0
-283 -2647 0
-284 -2648 0
-285 -2649 0
-283 -2569 0
-284 -2570 0
-285 -2571 0
-283 -298 0
-284 -299 0
-285 -300 0
-283 -2575 0
-284 -2576 0
-285 -2577 0
-283 -2749 0
-284 -2750 0
-285 -2751 0
-283 -712 0
-284 -713 0
-285 -714 0
-283 -3616 0
-284 -3617 0
-285 -3618 0
-286 -295 0
-287 -296 0
-288 -297 0
-286 -3067 0
-287 -3068 0
-288 -3069 0
-286 -2881 0
-287 -2882 0
-288 -2883 0
-286 -715 0
-287 -716 0
-288 -717 0
-286 -2752 0
-287 -2753 0
-288 -2754 0
-286 -2767 0
-287 -2768 0
-288 -2769 0
-286 -1510 0
-287 -1511 0
-288 -1512 0
-289 -301 0
-290 -302 0
-291 -303 0
-289 -313 0
-290 -314 0
-291 -315 0
-289 -1327 0
-290 -1328 0
-291 -1329 0
-289 -655 0
-290 -656 0
-291 -657 0
-289 -763 0
-290 -764 0
-291 -765 0
-289 -562 0
-290 -563 0
-291 -564 0
-292 -502 0
-293 -503 0
-294 -504 0
-292 -316 0
-293 -317 0
-294 -318 0
-292 -868 0
-293 -869 0
-294 -870 0
-292 -1324 0
-293 -1325 0
-294 -1326 0
-292 -658 0
-293 -659 0
-294 -660 0
-292 -763 0
-293 -764 0
-294 -765 0
-292 -559 0
-293 -560 0
-294 -561 0
-295 -919 0
-296 -920 0
-297 -921 0
-295 -304 0
-296 -305 0
-297 -306 0
-295 -319 0
-296 -320 0
-297 -321 0
-295 -1333 0
-296 -1334 0
-297 -1335 0
-295 -763 0
-296 -764 0
-297 -765 0
-295 -565 0
-296 -566 0
-297 -567 0
-295 -661 0
-296 -662 0
-297 -663 0
-295 -769 0
-296 -770 0
-297 -771 0
-298 -307 0
-299 -308 0
-300 -309 0
-298 -322 0
-299 -323 0
-300 -324 0
-298 -865 0
-299 -866 0
-300 -867 0
-298 -1330 0
-299 -1331 0
-300 -1332 0
-298 -556 0
-299 -557 0
-300 -558 0
-298 -763 0
-299 -764 0
-300 -765 0
-298 -664 0
-299 -665 0
-300 -666 0
-301 -832 0
-302 -833 0
-303 -834 0
-301 -2503 0
-302 -2504 0
-303 -2505 0
-301 -1759 0
-302 -1760 0
-303 -1761 0
-301 -2386 0
-302 -2387 0
-303 -2388 0
-301 -3166 0
-302 -3167 0
-303 -3168 0
-304 -832 0
-305 -833 0
-306 -834 0
-304 -2233 0
-305 -2234 0
-306 -2235 0
-304 -2248 0
-305 -2249 0
-306 -2250 0
-307 -3268 0
-308 -3269 0
-309 -3270 0
-307 -835 0
-308 -836 0
-309 -837 0
-307 -2047 0
-308 -2048 0
-309 -2049 0
-307 -2119 0
-308 -2120 0
-309 -2121 0
-307 -2098 0
-308 -2099 0
-309 -2100 0
-307 -3094 0
-308 -3095 0
-309 -3096 0
-307 -2932 0
-308 -2933 0
-309 -2934 0
-307 -2065 0
-308 -2066 0
-309 -2067 0
-310 -2203 0
-311 -2204 0
-312 -2205 0
-310 -1357 0
-311 -1358 0
-312 -1359 0
-310 -2167 0
-311 -2168 0
-312 -2169 0
-313 -3148 0
-314 -3149 0
-315 -3150 0
-313 -1549 0
-314 -1550 0
-315 -1551 0
-313 -2377 0
-314 -2378 0
-315 -2379 0
-313 -3121 0
-314 -3122 0
-315 -3123 0
-313 -841 0
-314 -842 0
-315 -843 0
-316 -2095 0
-317 -2096 0
-318 -2097 0
-316 -3169 0
-317 -3170 0
-318 -3171 0
-316 -2497 0
-317 -2498 0
-318 -2499 0
-316 -844 0
-317 -845 0
-318 -846 0
-319 -841 0
-320 -842 0
-321 -843 0
-319 -1528 0
-320 -1529 0
-321 -1530 0
-319 -3610 0
-320 -3611 0
-321 -3612 0
-319 -1510 0
-320 -1511 0
-321 -1512 0
-319 -3457 0
-320 -3458 0
-321 -3459 0
-322 -2869 0
-323 -2870 0
-324 -2871 0
-322 -1762 0
-323 -1763 0
-324 -1764 0
-322 -844 0
-323 -845 0
-324 -846 0
-322 -2623 0
-323 -2624 0
-324 -2625 0
-322 -3616 0
-323 -3617 0
-324 -3618 0
-322 -2824 0
-323 -2825 0
-324 -2826 0
-325 -751 0
-326 -752 0
-327 -753 0
-325 -331 0
-326 -332 0
-327 -333 0
-325 -763 0
-326 -764 0
-327 -765 0
-328 -547 0
-329 -548 0
-330 -549 0
-328 -754 0
-329 -755 0
-330 -756 0
-328 -763 0
-329 -764 0
-330 -765 0
-331 -2392 0
-332 -2393 0
-333 -2394 0
-331 -766 0
-332 -767 0
-333 -768 0
-334 -1759 0
-335 -1760 0
-336 -1761 0
-334 -1762 0
-335 -1763 0
-336 -1764 0
-334 -538 0
-335 -539 0
-336 -540 0
-337 -340 0
-338 -341 0
-339 -342 0
-337 -763 0
-338 -764 0
-339 -765 0
-337 -778 0
-338 -779 0
-339 -780 0
-340 -1546 0
-341 -1547 0
-342 -1548 0
-340 -1810 0
-341 -1811 0
-342 -1812 0
-340 -766 0
-341 -767 0
-342 -768 0
-343 -946 0
-344 -947 0
-345 -948 0
-343 -1543 0
-344 -1544 0
-345 -1545 0
-343 -1939 0
-344 -1940 0
-345 -1941 0
-346 -355 0
-347 -356 0
-348 -357 0
-346 -568 0
-347 -569 0
-348 -570 0
-346 -928 0
-347 -929 0
-348 -930 0
-346 -1396 0
-347 -1397 0
-348 -1398 0
-346 -505 0
-347 -506 0
-348 -507 0
-346 -1039 0
-347 -1040 0
-348 -1041 0
-346 -763 0
-347 -764 0
-348 -765 0
-349 -1909 0
-350 -1910 0
-351 -1911 0
-349 -2404 0
-350 -2405 0
-351 -2406 0
-349 -1594 0
-350 -1595 0
-351 -1596 0
-349 -1558 0
-350 -1559 0
-351 -1560 0
-349 -364 0
-350 -365 0
-351 -366 0
-349 -1927 0
-350 -1928 0
-351 -1929 0
-349 -1942 0
-350 -1943 0
-351 -1944 0
-349 -745 0
-350 -746 0
-351 -747 0
-352 -748 0
-353 -749 0
-354 -750 0
-352 -1825 0
-353 -1826 0
-354 -1827 0
-352 -2017 0
-353 -2018 0
-354 -2019 0
-352 -2443 0
-353 -2444 0
-354 -2445 0
-352 -1708 0
-353 -1709 0
-354 -1710 0
-352 -1801 0
-353 -1802 0
-354 -1803 0
-352 -361 0
-353 -362 0
-354 -363 0
-355 -1633 0
-356 -1634 0
-357 -1635 0
-355 -3517 0
-356 -3518 0
-357 -3519 0
-355 -2035 0
-356 -2036 0
-357 -2037 0
-355 -1678 0
-356 -1679 0
-357 -1680 0
-355 -2530 0
-356 -2531 0
-357 -2532 0
-355 -2011 0
-356 -2012 0
-357 -2013 0
-355 -3367 0
-356 -3368 0
-357 -3369 0
-355 -2134 0
-356 -2135 0
-357 -2136 0
-355 -2074 0
-356 -2075 0
-357 -2076 0
-355 -1597 0
-356 -1598 0
-357 -1599 0
-355 -781 0
-356 -782 0
-357 -783 0
-355 -1903 0
-356 -1904 0
-357 -1905 0
-358 -1570 0
-359 -1571 0
-360 -1572 0
-358 -1999 0
-359 -2000 0
-360 -2001 0
-358 -2002 0
-359 -2003 0
-360 -2004 0
-358 -3328 0
-359 -3329 0
-360 -3330 0
-358 -1591 0
-359 -1592 0
-360 -1593 0
-358 -2008 0
-359 -2009 0
-360 -2010 0
-358 -3061 0
-359 -3062 0
-360 -3063 0
-358 -784 0
-359 -785 0
-360 -786 0
-361 -937 0
-362 -938 0
-363 -939 0
-361 -1402 0
-362 -1403 0
-363 -1404 0
-361 -763 0
-362 -764 0
-363 -765 0
-364 -571 0
-365 -572 0
-366 -573 0
-364 -802 0
-365 -803 0
-366 -804 0
-364 -940 0
-365 -941 0
-366 -942 0
-364 -1399 0
-365 -1400 0
-366 -1401 0
-364 -763 0
-365 -764 0
-366 -765 0
-367 -988 0
-368 -989 0
-369 -990 0
-367 -403 0
-368 -404 0
-369 -405 0
-367 -736 0
-368 -737 0
-369 -738 0
-367 -634 0
-368 -635 0
-369 -636 0
-367 -886 0
-368 -887 0
-369 -888 0
-367 -763 0
-368 -764 0
-369 -765 0
-370 -400 0
-371 -401 0
-372 -402 0
-370 -625 0
-371 -626 0
-372 -627 0
-370 -628 0
-371 -629 0
-372 -630 0
-370 -637 0
-371 -638 0
-372 -639 0
-370 -889 0
-371 -890 0
-372 -891 0
-370 -763 0
-371 -764 0
-372 -765 0
-373 -1765 0
-374 -1766 0
-375 -1767 0
-373 -1513 0
-374 -1514 0
-375 -1515 0
-373 -1063 0
-374 -1064 0
-375 -1065 0
-373 -1540 0
-374 -1541 0
-375 -1542 0
-376 -2491 0
-377 -2492 0
-378 -2493 0
-376 -1066 0
-377 -1067 0
-378 -1068 0
-376 -3202 0
-377 -3203 0
-378 -3204 0
-376 -3571 0
-377 -3572 0
-378 -3573 0
-379 -796 0
-380 -797 0
-381 -798 0
-379 -994 0
-380 -995 0
-381 -996 0
-379 -397 0
-380 -398 0
-381 -399 0
-379 -631 0
-380 -632 0
-381 -633 0
-379 -640 0
-380 -641 0
-381 -642 0
-379 -643 0
-380 -644 0
-381 -645 0
-379 -763 0
-380 -764 0
-381 -765 0
-379 -892 0
-380 -893 0
-381 -894 0
-379 -895 0
-380 -896 0
-381 -897 0
-382 -799 0
-383 -800 0
-384 -801 0
-382 -991 0
-383 -992 0
-384 -993 0
-382 -394 0
-383 -395 0
-384 -396 0
-382 -646 0
-383 -647 0
-384 -648 0
-382 -763 0
-383 -764 0
-384 -765 0
-382 -898 0
-383 -899 0
-384 -900 0
-385 -577 0
-386 -578 0
-387 -579 0
-385 -532 0
-386 -533 0
-387 -534 0
-385 -1789 0
-386 -1790 0
-387 -1791 0
-385 -2539 0
-386 -2540 0
-387 -2541 0
-385 -3418 0
-386 -3419 0
-387 -3420 0
-385 -2065 0
-386 -2066 0
-387 -2067 0
-388 -2959 0
-389 -2960 0
-390 -2961 0
-388 -580 0
-389 -581 0
-390 -582 0
-388 -529 0
-389 -530 0
-390 -531 0
-388 -2830 0
-389 -2831 0
-390 -2832 0
-391 -3430 0
-392 -3431 0
-393 -3432 0
-391 -1549 0
-392 -1550 0
-393 -1551 0
-391 -598 0
-392 -599 0
-393 -600 0
-391 -1717 0
-392 -1718 0
-393 -1719 0
-391 -508 0
-392 -509 0
-393 -510 0
-394 -832 0
-395 -833 0
-396 -834 0
-394 -2638 0
-395 -2639 0
-396 -2640 0
-394 -1816 0
-395 -1817 0
-396 -1818 0
-394 -1759 0
-395 -1760 0
-396 -1761 0
-394 -1795 0
-395 -1796 0
-396 -1797 0
-397 -835 0
-398 -836 0
-399 -837 0
-397 -2974 0
-398 -2975 0
-399 -2976 0
-397 -2695 0
-398 -2696 0
-399 -2697 0
-397 -3094 0
-398 -3095 0
-399 -3096 0
-397 -2494 0
-398 -2495 0
-399 -2496 0
-397 -2920 0
-398 -2921 0
-399 -2922 0
-400 -2506 0
-401 -2507 0
-402 -2508 0
-400 -3220 0
-401 -3221 0
-402 -3222 0
-400 -1579 0
-401 -1580 0
-402 -1581 0
-400 -1582 0
-401 -1583 0
-402 -1584 0
-400 -841 0
-401 -842 0
-402 -843 0
-400 -3610 0
-401 -3611 0
-402 -3612 0
-400 -3613 0
-401 -3614 0
-402 -3615 0
-403 -1762 0
-404 -1763 0
-405 -1764 0
-403 -844 0
-404 -845 0
-405 -846 0
-403 -2935 0
-404 -2936 0
-405 -2937 0
-406 -964 0
-407 -965 0
-408 -966 0
-406 -1993 0
-407 -1994 0
-408 -1995 0
-406 -2641 0
-407 -2642 0
-408 -2643 0
-409 -2071 0
-410 -2072 0
-411 -2073 0
-409 -3250 0
-410 -3251 0
-411 -3252 0
-409 -1003 0
-410 -1004 0
-411 -1005 0
-409 -2362 0
-410 -2363 0
-411 -2364 0
-412 -2716 0
-413 -2717 0
-414 -2718 0
-412 -1756 0
-413 -1757 0
-414 -1758 0
-412 -1000 0
-413 -1001 0
-414 -1002 0
-412 -3607 0
-413 -3608 0
-414 -3609 0
-415 -2251 0
-416 -2252 0
-417 -2253 0
-415 -1027 0
-416 -1028 0
-417 -1029 0
-415 -2611 0
-416 -2612 0
-417 -2613 0
-415 -1945 0
-416 -1946 0
-417 -1947 0
-418 -2068 0
-419 -2069 0
-420 -2070 0
-418 -1024 0
-419 -1025 0
-420 -1026 0
-418 -2848 0
-419 -2849 0
-420 -2850 0
-421 -3415 0
-422 -3416 0
-423 -3417 0
-421 -1000 0
-422 -1001 0
-423 -1002 0
-421 -1507 0
-422 -1508 0
-423 -1509 0
-424 -1027 0
-425 -1028 0
-426 -1029 0
-424 -1510 0
-425 -1511 0
-426 -1512 0
-427 -2836 0
-428 -2837 0
-429 -2838 0
-427 -2200 0
-428 -2201 0
-429 -2202 0
-427 -706 0
-428 -707 0
-429 -708 0
-427 -2677 0
-428 -2678 0
-429 -2679 0
-427 -2239 0
-428 -2240 0
-429 -2241 0
-427 -3055 0
-428 -3056 0
-429 -3057 0
-427 -2260 0
-428 -2261 0
-429 -2262 0
-427 -2560 0
-428 -2561 0
-429 -2562 0
-427 -475 0
-428 -476 0
-429 -477 0
-427 -2191 0
-428 -2192 0
-429 -2193 0
-430 -2551 0
-431 -2552 0
-432 -2553 0
-430 -3631 0
-431 -3632 0
-432 -3633 0
-430 -3469 0
-431 -3470 0
-432 -3471 0
-430 -3712 0
-431 -3713 0
-432 -3714 0
-430 -2839 0
-431 -2840 0
-432 -2841 0
-430 -2506 0
-431 -2507 0
-432 -2508 0
-430 -1579 0
-431 -1580 0
-432 -1581 0
-430 -3676 0
-431 -3677 0
-432 -3678 0
-430 -709 0
-431 -710 0
-432 -711 0
-430 -2470 0
-431 -2471 0
-432 -2472 0
-430 -2473 0
-431 -2474 0
-432 -2475 0
-430 -472 0
-431 -473 0
-432 -474 0
-433 -2647 0
-434 -2648 0
-435 -2649 0
-433 -2626 0
-434 -2627 0
-435 -2628 0
-433 -2695 0
-434 -2696 0
-435 -2697 0
-433 -1966 0
-434 -1967 0
-435 -1968 0
-433 -451 0
-434 -452 0
-435 -453 0
-433 -1924 0
-434 -1925 0
-435 -1926 0
-433 -1933 0
-434 -1934 0
-435 -1935 0
-433 -712 0
-434 -713 0
-435 -714 0
-433 -2194 0
-434 -2195 0
-435 -2196 0
-436 -1798 0
-437 -1799 0
-438 -1800 0
-436 -3067 0
-437 -3068 0
-438 -3069 0
-436 -1618 0
-437 -1619 0
-438 -1620 0
-436 -2533 0
-437 -2534 0
-438 -2535 0
-436 -1816 0
-437 -1817 0
-438 -1818 0
-436 -2536 0
-437 -2537 0
-438 -2538 0
-436 -1630 0
-437 -1631 0
-438 -1632 0
-436 -715 0
-437 -716 0
-438 -717 0
-436 -1795 0
-437 -1796 0
-438 -1797 0
-439 -1774 0
-440 -1775 0
-441 -1776 0
-439 -1789 0
-440 -1790 0
-441 -1791 0
-439 -2188 0
-440 -2189 0
-441 -2190 0
-439 -739 0
-440 -740 0
-441 -741 0
-439 -463 0
-440 -464 0
-441 -465 0
-439 -2539 0
-440 -2540 0
-441 -2541 0
-439 -1606 0
-440 -1607 0
-441 -1608 0
-442 -2959 0
-443 -2960 0
-444 -2961 0
-442 -2926 0
-443 -2927 0
-444 -2928 0
-442 -460 0
-443 -461 0
-444 -462 0
-442 -2830 0
-443 -2831 0
-444 -2832 0
-442 -742 0
-443 -743 0
-444 -744 0
-442 -3550 0
-443 -3551 0
-444 -3552 0
-442 -2989 0
-443 -2990 0
-444 -2991 0
-442 -2482 0
-443 -2483 0
-444 -2484 0
-445 -460 0
-446 -461 0
-447 -462 0
-445 -3649 0
-446 -3650 0
-447 -3651 0
-445 -1927 0
-446 -1928 0
-447 -1929 0
-445 -2854 0
-446 -2855 0
-447 -2856 0
-445 -2482 0
-446 -2483 0
-447 -2484 0
-445 -745 0
-446 -746 0
-447 -747 0
-448 -3736 0
-449 -3737 0
-450 -3738 0
-448 -748 0
-449 -749 0
-450 -750 0
-448 -1774 0
-449 -1775 0
-450 -1776 0
-448 -2017 0
-449 -2018 0
-450 -2019 0
-448 -463 0
-449 -464 0
-450 -465 0
-448 -2938 0
-449 -2939 0
-450 -2940 0
-451 -1432 0
-452 -1433 0
-453 -1434 0
-451 -733 0
-452 -734 0
-453 -735 0
-451 -763 0
-452 -764 0
-453 -765 0
-451 -466 0
-452 -467 0
-453 -468 0
-451 -910 0
-452 -911 0
-453 -912 0
-454 -3739 0
-455 -3740 0
-456 -3741 0
-454 -1867 0
-455 -1868 0
-456 -1869 0
-454 -1150 0
-455 -1151 0
-456 -1152 0
-454 -1540 0
-455 -1541 0
-456 -1542 0
-457 -2485 0
-458 -2486 0
-459 -2487 0
-457 -2509 0
-458 -2510 0
-459 -2511 0
-457 -475 0
-458 -476 0
-459 -477 0
-457 -745 0
-458 -746 0
-459 -747 0
-460 -481 0
-461 -482 0
-462 -483 0
-460 -484 0
-461 -485 0
-462 -486 0
-460 -676 0
-461 -677 0
-462 -678 0
-460 -682 0
-461 -683 0
-462 -684 0
-460 -1438 0
-461 -1439 0
-462 -1440 0
-460 -763 0
-461 -764 0
-462 -765 0
-463 -487 0
-464 -488 0
-465 -489 0
-463 -673 0
-464 -674 0
-465 -675 0
-463 -685 0
-464 -686 0
-465 -687 0
-463 -1435 0
-464 -1436 0
-465 -1437 0
-463 -1441 0
-464 -1442 0
-465 -1443 0
-463 -1153 0
-464 -1154 0
-465 -1155 0
-463 -649 0
-464 -650 0
-465 -651 0
-463 -652 0
-464 -653 0
-465 -654 0
-463 -763 0
-464 -764 0
-465 -765 0
-463 -478 0
-464 -479 0
-465 -480 0
-466 -3736 0
-467 -3737 0
-468 -3738 0
-466 -790 0
-467 -791 0
-468 -792 0
-466 -1867 0
-467 -1868 0
-468 -1869 0
-466 -3727 0
-467 -3728 0
-468 -3729 0
-466 -1540 0
-467 -1541 0
-468 -1542 0
-469 -1555 0
-470 -1556 0
-471 -1557 0
-469 -1156 0
-470 -1157 0
-471 -1158 0
-472 -916 0
-473 -917 0
-474 -918 0
-472 -805 0
-473 -806 0
-474 -807 0
-472 -763 0
-473 -764 0
-474 -765 0
-472 -982 0
-473 -983 0
-474 -984 0
-475 -913 0
-476 -914 0
-477 -915 0
-475 -1444 0
-476 -1445 0
-477 -1446 0
-475 -763 0
-476 -764 0
-477 -765 0
-475 -985 0
-476 -986 0
-477 -987 0
-478 -3784 0
-479 -3785 0
-480 -3786 0
-478 -1777 0
-479 -1778 0
-480 -1779 0
-478 -1963 0
-479 -1964 0
-480 -1965 0
-478 -1855 0
-479 -1856 0
-480 -1857 0
-478 -781 0
-479 -782 0
-480 -783 0
-481 -3370 0
-482 -3371 0
-483 -3372 0
-481 -3328 0
-482 -3329 0
-483 -3330 0
-481 -1519 0
-482 -1520 0
-483 -1521 0
-481 -784 0
-482 -785 0
-483 -786 0
-484 -2173 0
-485 -2174 0
-486 -2175 0
-484 -787 0
-485 -788 0
-486 -789 0
-484 -3745 0
-485 -3746 0
-486 -3747 0
-484 -1519 0
-485 -1520 0
-486 -1521 0
-484 -2710 0
-485 -2711 0
-486 -2712 0
-487 -790 0
-488 -791 0
-489 -792 0
-487 -1750 0
-488 -1751 0
-489 -1752 0
-487 -3409 0
-488 -3410 0
-489 -3411 0
-487 -1777 0
-488 -1778 0
-489 -1779 0
-487 -3424 0
-488 -3425 0
-489 -3426 0
-487 -1867 0
-488 -1868 0
-489 -1869 0
-487 -1876 0
-488 -1877 0
-489 -1878 0
-487 -1717 0
-488 -1718 0
-489 -1719 0
-490 -1771 0
-491 -1772 0
-492 -1773 0
-490 -1780 0
-491 -1781 0
-492 -1782 0
-490 -1162 0
-491 -1163 0
-492 -1164 0
-490 -1555 0
-491 -1556 0
-492 -1557 0
-490 -1801 0
-491 -1802 0
-492 -1803 0
-493 -3739 0
-494 -3740 0
-495 -3741 0
-493 -1180 0
-494 -1181 0
-495 -1182 0
-493 -2050 0
-494 -2051 0
-495 -2052 0
-493 -2074 0
-494 -2075 0
-495 -2076 0
-493 -2479 0
-494 -2480 0
-495 -2481 0
-496 -1570 0
-497 -1571 0
-498 -1572 0
-496 -1183 0
-497 -1184 0
-498 -1185 0
-496 -2038 0
-497 -2039 0
-498 -2040 0
-496 -3355 0
-497 -3356 0
-498 -3357 0
-496 -3571 0
-497 -3572 0
-498 -3573 0
-499 -832 0
-500 -833 0
-501 -834 0
-499 -2302 0
-500 -2303 0
-501 -2304 0
-499 -1504 0
-500 -1505 0
-501 -1506 0
-502 -1024 0
-503 -1025 0
-504 -1026 0
-502 -2053 0
-503 -2054 0
-504 -2055 0
-502 -2515 0
-503 -2516 0
-504 -2517 0
-505 -1720 0
-506 -1721 0
-507 -1722 0
-505 -2380 0
-506 -2381 0
-507 -2382 0
-505 -943 0
-506 -944 0
-507 -945 0
-505 -2413 0
-506 -2414 0
-507 -2415 0
-508 -667 0
-509 -668 0
-510 -669 0
-508 -1033 0
-509 -1034 0
-510 -1035 0
-508 -526 0
-509 -527 0
-510 -528 0
-508 -859 0
-509 -860 0
-510 -861 0
-508 -973 0
-509 -974 0
-510 -975 0
-508 -763 0
-509 -764 0
-510 -765 0
-511 -670 0
-512 -671 0
-513 -672 0
-511 -1117 0
-512 -1118 0
-513 -1119 0
-511 -523 0
-512 -524 0
-513 -525 0
-511 -862 0
-512 -863 0
-513 -864 0
-511 -763 0
-512 -764 0
-513 -765 0
-514 -3787 0
-515 -3788 0
-516 -3789 0
-514 -3409 0
-515 -3410 0
-516 -3411 0
-514 -532 0
-515 -533 0
-516 -534 0
-514 -739 0
-515 -740 0
-516 -741 0
-514 -1738 0
-515 -1739 0
-516 -1740 0
-517 -529 0
-518 -530 0
-519 -531 0
-517 -3451 0
-518 -3452 0
-519 -3453 0
-517 -2710 0
-518 -2711 0
-519 -2712 0
-517 -2713 0
-518 -2714 0
-519 -2715 0
-517 -742 0
-518 -743 0
-519 -744 0
-517 -1792 0
-518 -1793 0
-519 -1794 0
-520 -748 0
-521 -749 0
-522 -750 0
-520 -532 0
-521 -533 0
-522 -534 0
-520 -2524 0
-521 -2525 0
-522 -2526 0
-520 -3838 0
-521 -3839 0
-522 -3840 0
-520 -2545 0
-521 -2546 0
-522 -2547 0
-523 -2926 0
-524 -2927 0
-525 -2928 0
-523 -787 0
-524 -788 0
-525 -789 0
-523 -2179 0
-524 -2180 0
-525 -2181 0
-523 -3586 0
-524 -3587 0
-525 -3588 0
-523 -1522 0
-524 -1523 0
-525 -1524 0
-526 -790 0
-527 -791 0
-528 -792 0
-526 -2509 0
-527 -2510 0
-528 -2511 0
-526 -3097 0
-527 -3098 0
-528 -3099 0
-526 -3427 0
-527 -3428 0
-528 -3429 0
-526 -2296 0
-527 -2297 0
-528 -2298 0
-529 -688 0
-530 -689 0
-531 -690 0
-529 -1123 0
-530 -1124 0
-531 -1125 0
-529 -535 0
-530 -536 0
-531 -537 0
-529 -871 0
-530 -872 0
-531 -873 0
-529 -877 0
-530 -878 0
-531 -879 0
-529 -763 0
-530 -764 0
-531 -765 0
-529 -1114 0
-530 -1115 0
-531 -1116 0
-532 -1189 0
-533 -1190 0
-534 -1191 0
-532 -691 0
-533 -692 0
-534 -693 0
-532 -1120 0
-533 -1121 0
-534 -1122 0
-532 -874 0
-533 -875 0
-534 -876 0
-532 -970 0
-533 -971 0
-534 -972 0
-532 -763 0
-533 -764 0
-534 -765 0
-532 -1111 0
-533 -1112 0
-534 -1113 0
-535 -2215 0
-536 -2216 0
-537 -2217 0
-535 -3283 0
-536 -3284 0
-537 -3285 0
-535 -784 0
-536 -785 0
-537 -786 0
-538 -763 0
-539 -764 0
-540 -765 0
-541 -1150 0
-542 -1151 0
-543 -1152 0
-541 -2446 0
-542 -2447 0
-543 -2448 0
-541 -2092 0
-542 -2093 0
-543 -2094 0
-541 -2032 0
-542 -2033 0
-543 -2034 0
-544 -1147 0
-545 -1148 0
-546 -1149 0
-544 -2452 0
-545 -2453 0
-546 -2454 0
-544 -2512 0
-545 -2513 0
-546 -2514 0
-544 -2245 0
-545 -2246 0
-546 -2247 0
-547 -1564 0
-548 -1565 0
-549 -1566 0
-547 -997 0
-548 -998 0
-549 -999 0
-550 -2842 0
-551 -2843 0
-552 -2844 0
-550 -2089 0
-551 -2090 0
-552 -2091 0
-550 -2032 0
-551 -2033 0
-552 -2034 0
-550 -1642 0
-551 -1643 0
-552 -1644 0
-553 -1843 0
-554 -1844 0
-555 -1845 0
-553 -2452 0
-554 -2453 0
-555 -2454 0
-553 -3274 0
-554 -3275 0
-555 -3276 0
-553 -1156 0
-554 -1157 0
-555 -1158 0
-556 -2836 0
-557 -2837 0
-558 -2838 0
-556 -1054 0
-557 -1055 0
-558 -1056 0
-556 -1783 0
-557 -1784 0
-558 -1785 0
-556 -2824 0
-557 -2825 0
-558 -2826 0
-559 -1081 0
-560 -1082 0
-561 -1083 0
-559 -1870 0
-560 -1871 0
-561 -1872 0
-559 -2488 0
-560 -2489 0
-561 -2490 0
-559 -2626 0
-560 -2627 0
-561 -2628 0
-562 -1798 0
-563 -1799 0
-564 -1800 0
-562 -1084 0
-563 -1085 0
-564 -1086 0
-562 -1786 0
-563 -1787 0
-564 -1788 0
-565 -1084 0
-566 -1085 0
-567 -1086 0
-565 -2263 0
-566 -2264 0
-567 -2265 0
-565 -2860 0
-566 -2861 0
-567 -2862 0
-565 -2248 0
-566 -2249 0
-567 -2250 0
-568 -2134 0
-569 -2135 0
-570 -2136 0
-568 -1027 0
-569 -1028 0
-570 -1029 0
-568 -1720 0
-569 -1721 0
-570 -1722 0
-568 -2476 0
-569 -2477 0
-570 -2478 0
-571 -2401 0
-572 -2402 0
-573 -2403 0
-571 -2467 0
-572 -2468 0
-573 -2469 0
-571 -1537 0
-572 -1538 0
-573 -1539 0
-571 -1003 0
-572 -1004 0
-573 -1005 0
-574 -580 0
-575 -581 0
-576 -582 0
-574 -2467 0
-575 -2468 0
-576 -2469 0
-574 -715 0
-575 -716 0
-576 -717 0
-577 -592 0
-578 -593 0
-579 -594 0
-577 -1126 0
-578 -1127 0
-579 -1128 0
-577 -1030 0
-578 -1031 0
-579 -1032 0
-577 -853 0
-578 -854 0
-579 -855 0
-577 -763 0
-578 -764 0
-579 -765 0
-577 -1462 0
-578 -1463 0
-579 -1464 0
-580 -589 0
-581 -590 0
-582 -591 0
-580 -604 0
-581 -605 0
-582 -606 0
-580 -856 0
-581 -857 0
-582 -858 0
-580 -763 0
-581 -764 0
-582 -765 0
-580 -901 0
-581 -902 0
-582 -903 0
-583 -1912 0
-584 -1913 0
-585 -1914 0
-583 -598 0
-584 -599 0
-585 -600 0
-583 -3475 0
-584 -3476 0
-585 -3477 0
-583 -739 0
-584 -740 0
-585 -741 0
-583 -2296 0
-584 -2297 0
-585 -2298 0
-583 -1552 0
-584 -1553 0
-585 -1554 0
-583 -1726 0
-584 -1727 0
-585 -1728 0
-583 -1603 0
-584 -1604 0
-585 -1605 0
-583 -2953 0
-584 -2954 0
-585 -2955 0
-586 -2740 0
-587 -2741 0
-588 -2742 0
-586 -2206 0
-587 -2207 0
-588 -2208 0
-586 -595 0
-587 -596 0
-588 -597 0
-586 -2179 0
-587 -2180 0
-588 -2181 0
-586 -2728 0
-587 -2729 0
-588 -2730 0
-586 -2005 0
-587 -2006 0
-588 -2007 0
-586 -1600 0
-587 -1601 0
-588 -1602 0
-586 -2731 0
-587 -2732 0
-588 -2733 0
-586 -742 0
-587 -743 0
-588 -744 0
-589 -787 0
-590 -788 0
-591 -789 0
-589 -2395 0
-590 -2396 0
-591 -2397 0
-589 -2338 0
-590 -2339 0
-591 -2340 0
-589 -1930 0
-590 -1931 0
-591 -1932 0
-589 -2713 0
-590 -2714 0
-591 -2715 0
-589 -2833 0
-590 -2834 0
-591 -2835 0
-589 -2422 0
-590 -2423 0
-591 -2424 0
-589 -2323 0
-590 -2324 0
-591 -2325 0
-592 -790 0
-593 -791 0
-594 -792 0
-592 -2614 0
-593 -2615 0
-594 -2616 0
-592 -2917 0
-593 -2918 0
-594 -2919 0
-592 -1864 0
-593 -1865 0
-594 -1866 0
-592 -3289 0
-593 -3290 0
-594 -3291 0
-592 -2644 0
-593 -2645 0
-594 -2646 0
-592 -1885 0
-593 -1886 0
-594 -1887 0
-592 -1705 0
-593 -1706 0
-594 -1707 0
-592 -1738 0
-593 -1739 0
-594 -1740 0
-595 -601 0
-596 -602 0
-597 -603 0
-595 -880 0
-596 -881 0
-597 -882 0
-595 -763 0
-596 -764 0
-597 -765 0
-595 -1468 0
-596 -1469 0
-597 -1470 0
-595 -904 0
-596 -905 0
-597 -906 0
-598 -1129 0
-599 -1130 0
-600 -1131 0
-598 -883 0
-599 -884 0
-600 -885 0
-598 -763 0
-599 -764 0
-600 -765 0
-598 -1465 0
-599 -1466 0
-600 -1467 0
-601 -835 0
-602 -836 0
-603 -837 0
-601 -1555 0
-602 -1556 0
-603 -1557 0
-601 -2620 0
-602 -2621 0
-603 -2622 0
-601 -2623 0
-602 -2624 0
-603 -2625 0
-604 -3739 0
-605 -3740 0
-606 -3741 0
-604 -2503 0
-605 -2504 0
-606 -2505 0
-604 -841 0
-605 -842 0
-606 -843 0
-604 -2521 0
-605 -2522 0
-606 -2523 0
-607 -1570 0
-608 -1571 0
-609 -1572 0
-607 -2137 0
-608 -2138 0
-609 -2139 0
-607 -1246 0
-608 -1247 0
-609 -1248 0
-607 -2146 0
-608 -2147 0
-609 -2148 0
-607 -2041 0
-608 -2042 0
-609 -2043 0
-607 -1591 0
-608 -1592 0
-609 -1593 0
-607 -3226 0
-608 -3227 0
-609 -3228 0
-607 -2662 0
-608 -2663 0
-609 -2664 0
-610 -1951 0
-611 -1952 0
-612 -1953 0
-610 -1531 0
-611 -1532 0
-612 -1533 0
-610 -1672 0
-611 -1673 0
-612 -1674 0
-610 -1954 0
-611 -1955 0
-612 -1956 0
-610 -1249 0
-611 -1250 0
-612 -1251 0
-610 -1678 0
-611 -1679 0
-612 -1680 0
-610 -1831 0
-611 -1832 0
-612 -1833 0
-610 -1654 0
-611 -1655 0
-612 -1656 0
-610 -2074 0
-611 -2075 0
-612 -2076 0
-613 -1825 0
-614 -1826 0
-615 -1827 0
-613 -1918 0
-614 -1919 0
-615 -1920 0
-613 -1921 0
-614 -1922 0
-615 -1923 0
-613 -1960 0
-614 -1961 0
-615 -1962 0
-613 -1801 0
-614 -1802 0
-615 -1803 0
-613 -1681 0
-614 -1682 0
-615 -1683 0
-613 -1684 0
-614 -1685 0
-615 -1686 0
-613 -1261 0
-614 -1262 0
-615 -1263 0
-613 -1714 0
-614 -1715 0
-615 -1716 0
-613 -1723 0
-614 -1724 0
-615 -1725 0
-613 -1900 0
-614 -1901 0
-615 -1902 0
-616 -2326 0
-617 -2327 0
-618 -2328 0
-616 -1957 0
-617 -1958 0
-618 -1959 0
-616 -1594 0
-617 -1595 0
-618 -1596 0
-616 -2056 0
-617 -2057 0
-618 -2058 0
-616 -2341 0
-617 -2342 0
-618 -2343 0
-616 -2110 0
-617 -2111 0
-618 -2112 0
-616 -1936 0
-617 -1937 0
-618 -1938 0
-616 -1264 0
-617 -1265 0
-618 -1266 0
-619 -1531 0
-620 -1532 0
-621 -1533 0
-619 -1180 0
-620 -1181 0
-621 -1182 0
-619 -2734 0
-620 -2735 0
-621 -2736 0
-622 -1183 0
-623 -1184 0
-624 -1185 0
-622 -3070 0
-623 -3071 0
-624 -3072 0
-622 -2041 0
-623 -2042 0
-624 -2043 0
-625 -1057 0
-626 -1058 0
-627 -1059 0
-625 -2305 0
-626 -2306 0
-627 -2307 0
-625 -3220 0
-626 -3221 0
-627 -3222 0
-628 -1771 0
-629 -1772 0
-630 -1773 0
-628 -1066 0
-629 -1067 0
-630 -1068 0
-628 -3634 0
-629 -3635 0
-630 -3636 0
-631 -1765 0
-632 -1766 0
-633 -1767 0
-631 -1054 0
-632 -1055 0
-633 -1056 0
-631 -3346 0
-632 -3347 0
-633 -3348 0
-631 -2572 0
-632 -2573 0
-633 -2574 0
-634 -1081 0
-635 -1082 0
-636 -1083 0
-634 -2491 0
-635 -2492 0
-636 -2493 0
-634 -3202 0
-635 -3203 0
-636 -3204 0
-637 -1513 0
-638 -1514 0
-639 -1515 0
-637 -1084 0
-638 -1085 0
-639 -1086 0
-637 -3325 0
-638 -3326 0
-639 -3327 0
-637 -2743 0
-638 -2744 0
-639 -2745 0
-640 -1573 0
-641 -1574 0
-642 -1575 0
-640 -1066 0
-641 -1067 0
-642 -1068 0
-640 -2479 0
-641 -2480 0
-642 -2481 0
-643 -1081 0
-644 -1082 0
-645 -1083 0
-643 -2494 0
-644 -2495 0
-645 -2496 0
-643 -2077 0
-644 -2078 0
-645 -2079 0
-643 -1585 0
-644 -1586 0
-645 -1587 0
-646 -3628 0
-647 -3629 0
-648 -3630 0
-646 -1084 0
-647 -1085 0
-648 -1086 0
-646 -1819 0
-647 -1820 0
-648 -1821 0
-646 -3634 0
-647 -3635 0
-648 -3636 0
-649 -2566 0
-650 -2567 0
-651 -2568 0
-649 -1717 0
-650 -1718 0
-651 -1719 0
-649 -1552 0
-650 -1553 0
-651 -1554 0
-649 -943 0
-650 -944 0
-651 -945 0
-652 -964 0
-653 -965 0
-654 -966 0
-652 -3214 0
-653 -3215 0
-654 -3216 0
-652 -1789 0
-653 -1790 0
-654 -1791 0
-652 -2917 0
-653 -2918 0
-654 -2919 0
-655 -3148 0
-656 -3149 0
-657 -3150 0
-655 -1798 0
-656 -1799 0
-657 -1800 0
-655 -1147 0
-656 -1148 0
-657 -1149 0
-655 -2638 0
-656 -2639 0
-657 -2640 0
-655 -2533 0
-656 -2534 0
-657 -2535 0
-655 -2227 0
-656 -2228 0
-657 -2229 0
-655 -3658 0
-656 -3659 0
-657 -3660 0
-658 -1150 0
-659 -1151 0
-660 -1152 0
-658 -2446 0
-659 -2447 0
-660 -2448 0
-658 -3079 0
-659 -3080 0
-660 -3081 0
-658 -2494 0
-659 -2495 0
-660 -2496 0
-658 -2497 0
-659 -2498 0
-660 -2499 0
-658 -2518 0
-659 -2519 0
-660 -2520 0
-658 -2626 0
-659 -2627 0
-660 -2628 0
-658 -2194 0
-659 -2195 0
-660 -2196 0
-661 -2839 0
-662 -2840 0
-663 -2841 0
-661 -1156 0
-662 -1157 0
-663 -1158 0
-661 -2881 0
-662 -2882 0
-663 -2883 0
-661 -2596 0
-662 -2597 0
-663 -2598 0
-661 -3220 0
-662 -3221 0
-663 -3222 0
-661 -2473 0
-662 -2474 0
-663 -2475 0
-661 -2263 0
-662 -2264 0
-663 -2265 0
-661 -1582 0
-662 -1583 0
-663 -1584 0
-661 -2266 0
-662 -2267 0
-663 -2268 0
-664 -2836 0
-665 -2837 0
-666 -2838 0
-664 -2575 0
-665 -2576 0
-666 -2577 0
-664 -2098 0
-665 -2099 0
-666 -2100 0
-664 -2107 0
-665 -2108 0
-666 -2109 0
-664 -2935 0
-665 -2936 0
-666 -2937 0
-664 -2044 0
-665 -2045 0
-666 -2046 0
-667 -2566 0
-668 -2567 0
-669 -2568 0
-667 -943 0
-668 -944 0
-669 -945 0
-667 -1606 0
-668 -1607 0
-669 -1608 0
-670 -2926 0
-671 -2927 0
-672 -2928 0
-670 -3235 0
-671 -3236 0
-672 -3237 0
-670 -946 0
-671 -947 0
-672 -948 0
-670 -3550 0
-671 -3551 0
-672 -3552 0
-673 -3409 0
-674 -3410 0
-675 -3411 0
-673 -1855 0
-674 -1856 0
-675 -1857 0
-673 -2917 0
-674 -2918 0
-675 -2919 0
-673 -1000 0
-674 -1001 0
-675 -1002 0
-673 -1888 0
-674 -1889 0
-675 -1890 0
-673 -1609 0
-674 -1610 0
-675 -1611 0
-673 -1741 0
-674 -1742 0
-675 -1743 0
-676 -2401 0
-677 -2402 0
-678 -2403 0
-676 -2398 0
-677 -2399 0
-678 -2400 0
-676 -2182 0
-677 -2183 0
-678 -2184 0
-676 -1003 0
-677 -1004 0
-678 -1005 0
-676 -2710 0
-677 -2711 0
-678 -2712 0
-676 -2833 0
-677 -2834 0
-678 -2835 0
-679 -2176 0
-680 -2177 0
-681 -2178 0
-679 -2185 0
-680 -2186 0
-681 -2187 0
-679 -3223 0
-680 -3224 0
-681 -3225 0
-679 -1228 0
-680 -1229 0
-681 -1230 0
-679 -2485 0
-680 -2486 0
-681 -2487 0
-682 -2926 0
-683 -2927 0
-684 -2928 0
-682 -1024 0
-683 -1025 0
-684 -1026 0
-682 -2218 0
-683 -2219 0
-684 -2220 0
-682 -2455 0
-683 -2456 0
-684 -2457 0
-682 -2242 0
-683 -2243 0
-684 -2244 0
-682 -1600 0
-683 -1601 0
-684 -1602 0
-682 -2854 0
-683 -2855 0
-684 -2856 0
-685 -2938 0
-686 -2939 0
-687 -2940 0
-685 -1027 0
-686 -1028 0
-687 -1029 0
-685 -1552 0
-686 -1553 0
-687 -1554 0
-685 -1603 0
-686 -1604 0
-687 -1605 0
-685 -2476 0
-686 -2477 0
-687 -2478 0
-685 -1612 0
-686 -1613 0
-687 -1614 0
-685 -1744 0
-686 -1745 0
-687 -1746 0
-688 -3223 0
-689 -3224 0
-690 -3225 0
-688 -3283 0
-689 -3284 0
-690 -3285 0
-688 -2710 0
-689 -2711 0
-690 -2712 0
-688 -961 0
-689 -962 0
-690 -963 0
-688 -2719 0
-689 -2720 0
-690 -2721 0
-691 -1750 0
-692 -1751 0
-693 -1752 0
-691 -3409 0
-692 -3410 0
-693 -3411 0
-691 -1804 0
-692 -1805 0
-693 -1806 0
-691 -964 0
-692 -965 0
-693 -966 0
-694 -1249 0
-695 -1250 0
-696 -1251 0
-694 -3001 0
-695 -3002 0
-696 -3003 0
-694 -1654 0
-695 -1655 0
-696 -1656 0
-694 -3019 0
-695 -3020 0
-696 -3021 0
-694 -2611 0
-695 -2612 0
-696 -2613 0
-697 -2071 0
-698 -2072 0
-699 -2073 0
-697 -2341 0
-698 -2342 0
-699 -2343 0
-697 -1264 0
-698 -1265 0
-699 -1266 0
-697 -3364 0
-698 -3365 0
-699 -3366 0
-700 -2965 0
-701 -2966 0
-702 -2967 0
-700 -1756 0
-701 -1757 0
-702 -1758 0
-700 -2500 0
-701 -2501 0
-702 -2502 0
-700 -1261 0
-701 -1262 0
-702 -1263 0
-703 -2200 0
-704 -2201 0
-705 -2202 0
-703 -706 0
-704 -707 0
-705 -708 0
-703 -2164 0
-704 -2165 0
-705 -2166 0
-703 -2749 0
-704 -2750 0
-705 -2751 0
-703 -712 0
-704 -713 0
-705 -714 0
-706 -1192 0
-707 -1193 0
-708 -1194 0
-706 -1306 0
-707 -1307 0
-708 -1308 0
-706 -1036 0
-707 -1037 0
-708 -1038 0
-706 -721 0
-707 -722 0
-708 -723 0
-706 -763 0
-707 -764 0
-708 -765 0
-709 -1195 0
-710 -1196 0
-711 -1197 0
-709 -1303 0
-710 -1304 0
-711 -1305 0
-709 -718 0
-710 -719 0
-711 -720 0
-709 -763 0
-710 -764 0
-711 -765 0
-712 -823 0
-713 -824 0
-714 -825 0
-712 -1312 0
-713 -1313 0
-714 -1314 0
-712 -1207 0
-713 -1208 0
-714 -1209 0
-712 -1213 0
-713 -1214 0
-714 -1215 0
-712 -1132 0
-713 -1133 0
-714 -1134 0
-712 -763 0
-713 -764 0
-714 -765 0
-715 -1309 0
-716 -1310 0
-717 -1311 0
-715 -1210 0
-716 -1211 0
-717 -1212 0
-715 -1216 0
-716 -1217 0
-717 -1218 0
-715 -1135 0
-716 -1136 0
-717 -1137 0
-715 -763 0
-716 -764 0
-717 -765 0
-718 -832 0
-719 -833 0
-720 -834 0
-718 -2587 0
-719 -2588 0
-720 -2589 0
-718 -2386 0
-719 -2387 0
-720 -2388 0
-721 -2629 0
-722 -2630 0
-723 -2631 0
-721 -835 0
-722 -836 0
-723 -837 0
-721 -3415 0
-722 -3416 0
-723 -3417 0
-721 -2620 0
-722 -2621 0
-723 -2622 0
-721 -3235 0
-722 -3236 0
-723 -3237 0
-721 -1507 0
-722 -1508 0
-723 -1509 0
-724 -2485 0
-725 -2486 0
-726 -2487 0
-724 -2185 0
-725 -2186 0
-726 -2187 0
-724 -739 0
-725 -740 0
-726 -741 0
-724 -745 0
-725 -746 0
-726 -747 0
-727 -1576 0
-728 -1577 0
-729 -1578 0
-727 -742 0
-728 -743 0
-729 -744 0
-727 -3721 0
-728 -3722 0
-729 -3723 0
-727 -2482 0
-728 -2483 0
-729 -2484 0
-727 -745 0
-728 -746 0
-729 -747 0
-730 -2773 0
-731 -2774 0
-732 -2775 0
-730 -748 0
-731 -749 0
-732 -750 0
-730 -1774 0
-731 -1775 0
-732 -1776 0
-730 -2305 0
-731 -2306 0
-732 -2307 0
-730 -739 0
-731 -740 0
-732 -741 0
-733 -1765 0
-734 -1766 0
-735 -1767 0
-733 -1054 0
-734 -1055 0
-735 -1056 0
-733 -1540 0
-734 -1541 0
-735 -1542 0
-736 -1774 0
-737 -1775 0
-738 -1776 0
-736 -1150 0
-737 -1151 0
-738 -1152 0
-736 -3802 0
-737 -3803 0
-738 -3804 0
-736 -3721 0
-737 -3722 0
-738 -3723 0
-739 -1006 0
-740 -1007 0
-741 -1008 0
-739 -838 0
-740 -839 0
-741 -840 0
-739 -949 0
-740 -950 0
-741 -951 0
-739 -1042 0
-740 -1043 0
-741 -1044 0
-739 -757 0
-740 -758 0
-741 -759 0
-739 -1342 0
-740 -1343 0
-741 -1344 0
-739 -763 0
-740 -764 0
-741 -765 0
-742 -1009 0
-743 -1010 0
-744 -1011 0
-742 -952 0
-743 -953 0
-744 -954 0
-742 -1045 0
-743 -1046 0
-744 -1047 0
-742 -1060 0
-743 -1061 0
-744 -1062 0
-742 -760 0
-743 -761 0
-744 -762 0
-742 -1345 0
-743 -1346 0
-744 -1347 0
-742 -763 0
-743 -764 0
-744 -765 0
-745 -1252 0
-746 -1253 0
-747 -1254 0
-745 -1165 0
-746 -1166 0
-747 -1167 0
-745 -1048 0
-746 -1049 0
-747 -1050 0
-745 -763 0
-746 -764 0
-747 -765 0
-745 -772 0
-746 -773 0
-747 -774 0
-748 -1012 0
-749 -1013 0
-750 -1014 0
-748 -1255 0
-749 -1256 0
-750 -1257 0
-748 -1168 0
-749 -1169 0
-750 -1170 0
-748 -1051 0
-749 -1052 0
-750 -1053 0
-748 -1348 0
-749 -1349 0
-750 -1350 0
-748 -763 0
-749 -764 0
-750 -765 0
-748 -775 0
-749 -776 0
-750 -777 0
-751 -2086 0
-752 -2087 0
-753 -2088 0
-751 -1783 0
-752 -1784 0
-753 -1785 0
-751 -2302 0
-752 -2303 0
-753 -2304 0
-751 -2308 0
-752 -2309 0
-753 -2310 0
-754 -1525 0
-755 -1526 0
-756 -1527 0
-754 -1561 0
-755 -1562 0
-756 -1563 0
-754 -1564 0
-755 -1565 0
-756 -1566 0
-757 -3535 0
-758 -3536 0
-759 -3537 0
-757 -2029 0
-758 -2030 0
-759 -2031 0
-757 -1639 0
-758 -1640 0
-759 -1641 0
-757 -1648 0
-758 -1649 0
-759 -1650 0
-757 -781 0
-758 -782 0
-759 -783 0
-757 -1903 0
-758 -1904 0
-759 -1905 0
-760 -1984 0
-761 -1985 0
-762 -1986 0
-760 -1987 0
-761 -1988 0
-762 -1989 0
-760 -2812 0
-761 -2813 0
-762 -2814 0
-760 -1999 0
-761 -2000 0
-762 -2001 0
-760 -2893 0
-761 -2894 0
-762 -2895 0
-760 -1636 0
-761 -1637 0
-762 -1638 0
-760 -784 0
-761 -785 0
-762 -786 0
-763 -787 0
-764 -788 0
-765 -789 0
-763 -790 0
-764 -791 0
-765 -792 0
-763 -1294 0
-764 -1295 0
-765 -1296 0
-763 -997 0
-764 -998 0
-765 -999 0
-763 -1000 0
-764 -1001 0
-765 -1002 0
-763 -1003 0
-764 -1004 0
-765 -1005 0
-763 -832 0
-764 -833 0
-765 -834 0
-763 -835 0
-764 -836 0
-765 -837 0
-763 -1024 0
-764 -1025 0
-765 -1026 0
-763 -1027 0
-764 -1028 0
-765 -1029 0
-763 -841 0
-764 -842 0
-765 -843 0
-763 -844 0
-764 -845 0
-765 -846 0
-763 -1219 0
-764 -1220 0
-765 -1221 0
-763 -1222 0
-764 -1223 0
-765 -1224 0
-763 -1225 0
-764 -1226 0
-765 -1227 0
-763 -1228 0
-764 -1229 0
-765 -1230 0
-763 -1315 0
-764 -1316 0
-765 -1317 0
-763 -1318 0
-764 -1319 0
-765 -1320 0
-763 -943 0
-764 -944 0
-765 -945 0
-763 -946 0
-764 -947 0
-765 -948 0
-763 -961 0
-764 -962 0
-765 -963 0
-763 -964 0
-764 -965 0
-765 -966 0
-763 -1147 0
-764 -1148 0
-765 -1149 0
-763 -1150 0
-764 -1151 0
-765 -1152 0
-763 -1156 0
-764 -1157 0
-765 -1158 0
-763 -1474 0
-764 -1475 0
-765 -1476 0
-763 -1477 0
-764 -1478 0
-765 -1479 0
-763 -1246 0
-764 -1247 0
-765 -1248 0
-763 -1249 0
-764 -1250 0
-765 -1251 0
-763 -1159 0
-764 -1160 0
-765 -1161 0
-763 -1162 0
-764 -1163 0
-765 -1164 0
-763 -1480 0
-764 -1481 0
-765 -1482 0
-763 -1483 0
-764 -1484 0
-765 -1485 0
-763 -1486 0
-764 -1487 0
-765 -1488 0
-763 -1489 0
-764 -1490 0
-765 -1491 0
-763 -1261 0
-764 -1262 0
-765 -1263 0
-763 -1264 0
-764 -1265 0
-765 -1266 0
-763 -1054 0
-764 -1055 0
-765 -1056 0
-763 -1057 0
-764 -1058 0
-765 -1059 0
-763 -1180 0
-764 -1181 0
-765 -1182 0
-763 -1183 0
-764 -1184 0
-765 -1185 0
-763 -1063 0
-764 -1064 0
-765 -1065 0
-763 -1066 0
-764 -1067 0
-765 -1068 0
-763 -1081 0
-764 -1082 0
-765 -1083 0
-763 -1084 0
-764 -1085 0
-765 -1086 0
-763 -1357 0
-764 -1358 0
-765 -1359 0
-763 -1360 0
-764 -1361 0
-765 -1362 0
-763 -766 0
-764 -767 0
-765 -768 0
-763 -1186 0
-764 -1187 0
-765 -1188 0
-763 -781 0
-764 -782 0
-765 -783 0
-763 -784 0
-764 -785 0
-765 -786 0
-766 -1471 0
-767 -1472 0
-768 -1473 0
-769 -3277 0
-770 -3278 0
-771 -3279 0
-769 -1720 0
-770 -1721 0
-771 -1722 0
-769 -2380 0
-770 -2381 0
-771 -2382 0
-769 -1228 0
-770 -1229 0
-771 -1230 0
-772 -787 0
-773 -788 0
-774 -789 0
-772 -2140 0
-773 -2141 0
-774 -2142 0
-772 -2374 0
-773 -2375 0
-774 -2376 0
-772 -2914 0
-773 -2915 0
-774 -2916 0
-772 -1942 0
-773 -1943 0
-774 -1944 0
-775 -2290 0
-776 -2291 0
-777 -2292 0
-775 -3487 0
-776 -3488 0
-777 -3489 0
-775 -1702 0
-776 -1703 0
-777 -1704 0
-775 -790 0
-776 -791 0
-777 -792 0
-775 -1837 0
-776 -1838 0
-777 -1839 0
-775 -1882 0
-776 -1883 0
-777 -1884 0
-778 -1516 0
-779 -1517 0
-780 -1518 0
-778 -1870 0
-779 -1871 0
-780 -1872 0
-778 -1873 0
-779 -1874 0
-780 -1875 0
-778 -1186 0
-779 -1187 0
-780 -1188 0
-778 -1546 0
-779 -1547 0
-780 -1548 0
-778 -1564 0
-779 -1565 0
-780 -1566 0
-781 -808 0
-782 -809 0
-783 -810 0
-781 -814 0
-782 -815 0
-783 -816 0
-781 -817 0
-782 -818 0
-783 -819 0
-781 -1300 0
-782 -1301 0
-783 -1302 0
-781 -1015 0
-782 -1016 0
-783 -1017 0
-781 -1258 0
-782 -1259 0
-783 -1260 0
-781 -1171 0
-782 -1172 0
-783 -1173 0
-781 -1069 0
-782 -1070 0
-783 -1071 0
-781 -1087 0
-782 -1088 0
-783 -1089 0
-781 -1372 0
-782 -1373 0
-783 -1374 0
-784 -811 0
-785 -812 0
-786 -813 0
-784 -820 0
-785 -821 0
-786 -822 0
-784 -1297 0
-785 -1298 0
-786 -1299 0
-784 -1174 0
-785 -1175 0
-786 -1176 0
-784 -1072 0
-785 -1073 0
-786 -1074 0
-784 -1090 0
-785 -1091 0
-786 -1092 0
-787 -814 0
-788 -815 0
-789 -816 0
-787 -820 0
-788 -821 0
-789 -822 0
-787 -826 0
-788 -827 0
-789 -828 0
-787 -1018 0
-788 -1019 0
-789 -1020 0
-787 -955 0
-788 -956 0
-789 -957 0
-787 -1492 0
-788 -1493 0
-789 -1494 0
-787 -1093 0
-788 -1094 0
-789 -1095 0
-787 -1375 0
-788 -1376 0
-789 -1377 0
-790 -817 0
-791 -818 0
-792 -819 0
-790 -829 0
-791 -830 0
-792 -831 0
-790 -1021 0
-791 -1022 0
-792 -1023 0
-790 -958 0
-791 -959 0
-792 -960 0
-790 -1177 0
-791 -1178 0
-792 -1179 0
-790 -1075 0
-791 -1076 0
-792 -1077 0
-790 -1078 0
-791 -1079 0
-792 -1080 0
-790 -1096 0
-791 -1097 0
-792 -1098 0
-790 -1378 0
-791 -1379 0
-792 -1380 0
-793 -1261 0
-794 -1262 0
-795 -1263 0
-793 -2755 0
-794 -2756 0
-795 -2757 0
-796 -1573 0
-797 -1574 0
-798 -1575 0
-796 -3727 0
-797 -3728 0
-798 -3729 0
-796 -1519 0
-797 -1520 0
-798 -1521 0
-796 -2077 0
-797 -2078 0
-798 -2079 0
-799 -3301 0
-800 -3302 0
-801 -3303 0
-799 -3628 0
-800 -3629 0
-801 -3630 0
-799 -1777 0
-800 -1778 0
-801 -1779 0
-799 -1156 0
-800 -1157 0
-801 -1158 0
-802 -1183 0
-803 -1184 0
-804 -1185 0
-802 -2125 0
-803 -2126 0
-804 -2127 0
-805 -1513 0
-806 -1514 0
-807 -1515 0
-805 -1084 0
-806 -1085 0
-807 -1086 0
-805 -3745 0
-806 -3746 0
-807 -3747 0
-805 -3469 0
-806 -3470 0
-807 -3471 0
-808 -1639 0
-809 -1640 0
-810 -1641 0
-808 -1723 0
-809 -1724 0
-810 -1725 0
-808 -1597 0
-809 -1598 0
-810 -1599 0
-811 -1615 0
-812 -1616 0
-813 -1617 0
-811 -3070 0
-812 -3071 0
-813 -3072 0
-811 -2002 0
-812 -2003 0
-813 -2004 0
-811 -2110 0
-812 -2111 0
-813 -2112 0
-814 -1567 0
-815 -1568 0
-816 -1569 0
-814 -2515 0
-815 -2516 0
-816 -2517 0
-814 -1807 0
-815 -1808 0
-816 -1809 0
-814 -1522 0
-815 -1523 0
-816 -1524 0
-817 -1777 0
-818 -1778 0
-819 -1779 0
-817 -3727 0
-818 -3728 0
-819 -3729 0
-817 -2077 0
-818 -2078 0
-819 -2079 0
-820 -3628 0
-821 -3629 0
-822 -3630 0
-820 -1573 0
-821 -1574 0
-822 -1575 0
-820 -1519 0
-821 -1520 0
-822 -1521 0
-820 -3583 0
-821 -3584 0
-822 -3585 0
-823 -3688 0
-824 -3689 0
-825 -3690 0
-823 -1804 0
-824 -1805 0
-825 -1806 0
-823 -844 0
-824 -845 0
-825 -846 0
-823 -3616 0
-824 -3617 0
-825 -3618 0
-826 -2140 0
-827 -2141 0
-828 -2142 0
-826 -2218 0
-827 -2219 0
-828 -2220 0
-826 -2887 0
-827 -2888 0
-828 -2889 0
-826 -2323 0
-827 -2324 0
-828 -2325 0
-829 -1750 0
-830 -1751 0
-831 -1752 0
-829 -1705 0
-830 -1706 0
-831 -1707 0
-829 -1612 0
-830 -1613 0
-831 -1614 0
-829 -1882 0
-830 -1883 0
-831 -1884 0
-832 -1231 0
-833 -1232 0
-834 -1233 0
-832 -1267 0
-833 -1268 0
-834 -1269 0
-832 -1099 0
-833 -1100 0
-834 -1101 0
-835 -1234 0
-836 -1235 0
-837 -1236 0
-835 -967 0
-836 -968 0
-837 -969 0
-835 -1102 0
-836 -1103 0
-837 -1104 0
-838 -841 0
-839 -842 0
-840 -843 0
-838 -3766 0
-839 -3767 0
-840 -3768 0
-838 -3457 0
-839 -3458 0
-840 -3459 0
-841 -1237 0
-842 -1238 0
-843 -1239 0
-841 -1240 0
-842 -1241 0
-843 -1242 0
-841 -976 0
-842 -977 0
-843 -978 0
-841 -1105 0
-842 -1106 0
-843 -1107 0
-844 -1243 0
-845 -1244 0
-846 -1245 0
-844 -1108 0
-845 -1109 0
-846 -1110 0
-847 -2299 0
-848 -2300 0
-849 -2301 0
-847 -2641 0
-848 -2642 0
-849 -2643 0
-847 -1687 0
-848 -1688 0
-849 -1689 0
-847 -1732 0
-848 -1733 0
-849 -1734 0
-850 -3781 0
-851 -3782 0
-852 -3783 0
-850 -2764 0
-851 -2765 0
-852 -2766 0
-850 -2350 0
-851 -2351 0
-852 -2352 0
-850 -1294 0
-851 -1295 0
-852 -1296 0
-853 -2980 0
-854 -2981 0
-855 -2982 0
-853 -1000 0
-854 -1001 0
-855 -1002 0
-853 -1738 0
-854 -1739 0
-855 -1740 0
-853 -1507 0
-854 -1508 0
-855 -1509 0
-856 -2503 0
-857 -2504 0
-858 -2505 0
-856 -2386 0
-857 -2387 0
-858 -2388 0
-856 -1003 0
-857 -1004 0
-858 -1005 0
-856 -2713 0
-857 -2714 0
-858 -2715 0
-859 -2929 0
-860 -2930 0
-861 -2931 0
-859 -3412 0
-860 -3413 0
-861 -3414 0
-859 -2815 0
-860 -2816 0
-861 -2817 0
-859 -1717 0
-860 -1718 0
-861 -1719 0
-859 -2353 0
-860 -2354 0
-861 -2355 0
-859 -1657 0
-860 -1658 0
-861 -1659 0
-859 -1063 0
-860 -1064 0
-861 -1065 0
-859 -2296 0
-860 -2297 0
-861 -2298 0
-859 -1669 0
-860 -1670 0
-861 -1671 0
-862 -2173 0
-863 -2174 0
-864 -2175 0
-862 -2206 0
-863 -2207 0
-864 -2208 0
-862 -2179 0
-863 -2180 0
-864 -2181 0
-862 -2311 0
-863 -2312 0
-864 -2313 0
-862 -1066 0
-863 -1067 0
-864 -1068 0
-862 -2857 0
-863 -2858 0
-864 -2859 0
-862 -2314 0
-863 -2315 0
-864 -2316 0
-865 -2629 0
-866 -2630 0
-867 -2631 0
-865 -1246 0
-866 -1247 0
-867 -1248 0
-865 -2620 0
-866 -2621 0
-867 -2622 0
-865 -2623 0
-866 -2624 0
-867 -2625 0
-868 -1261 0
-869 -1262 0
-870 -1263 0
-868 -2515 0
-869 -2516 0
-870 -2517 0
-868 -1522 0
-869 -1523 0
-870 -1524 0
-871 -3553 0
-872 -3554 0
-873 -3555 0
-871 -2215 0
-872 -2216 0
-873 -2217 0
-871 -1621 0
-872 -1622 0
-873 -1623 0
-871 -1627 0
-872 -1628 0
-873 -1629 0
-871 -1066 0
-872 -1067 0
-873 -1068 0
-871 -2713 0
-872 -2714 0
-873 -2715 0
-871 -2830 0
-872 -2831 0
-873 -2832 0
-871 -2170 0
-872 -2171 0
-873 -2172 0
-871 -2323 0
-872 -2324 0
-873 -2325 0
-874 -1705 0
-875 -1706 0
-876 -1707 0
-874 -2590 0
-875 -2591 0
-876 -2592 0
-874 -1996 0
-875 -1997 0
-876 -1998 0
-874 -2449 0
-875 -2450 0
-876 -2451 0
-874 -1840 0
-875 -1841 0
-876 -1842 0
-874 -1789 0
-875 -1790 0
-876 -1791 0
-874 -1063 0
-875 -1064 0
-876 -1065 0
-874 -3520 0
-875 -3521 0
-876 -3522 0
-874 -2545 0
-875 -2546 0
-876 -2547 0
-874 -1690 0
-875 -1691 0
-876 -1692 0
-874 -1693 0
-875 -1694 0
-876 -1695 0
-874 -1738 0
-875 -1739 0
-876 -1740 0
-877 -1792 0
-878 -1793 0
-879 -1794 0
-877 -1081 0
-878 -1082 0
-879 -1083 0
-877 -1807 0
-878 -1808 0
-879 -1809 0
-880 -2179 0
-881 -2180 0
-882 -2181 0
-880 -1024 0
-881 -1025 0
-882 -1026 0
-880 -2623 0
-881 -2624 0
-882 -2625 0
-880 -3616 0
-881 -3617 0
-882 -3618 0
-883 -2296 0
-884 -2297 0
-885 -2298 0
-883 -1027 0
-884 -1028 0
-885 -1029 0
-883 -1510 0
-884 -1511 0
-885 -1512 0
-886 -2197 0
-887 -2198 0
-888 -2199 0
-886 -2578 0
-887 -2579 0
-888 -2580 0
-886 -3802 0
-887 -3803 0
-888 -3804 0
-886 -3055 0
-887 -3056 0
-888 -3057 0
-886 -2458 0
-887 -2459 0
-888 -2460 0
-886 -1219 0
-887 -1220 0
-888 -1221 0
-886 -2824 0
-887 -2825 0
-888 -2826 0
-889 -3199 0
-890 -3200 0
-891 -3201 0
-889 -3712 0
-890 -3713 0
-891 -3714 0
-889 -1222 0
-890 -1223 0
-891 -1224 0
-889 -3208 0
-890 -3209 0
-891 -3210 0
-889 -2506 0
-890 -2507 0
-891 -2508 0
-889 -3325 0
-890 -3326 0
-891 -3327 0
-889 -1528 0
-890 -1529 0
-891 -1530 0
-889 -3340 0
-890 -3341 0
-891 -3342 0
-889 -3352 0
-890 -3353 0
-891 -3354 0
-889 -2143 0
-890 -2144 0
-891 -2145 0
-892 -2197 0
-893 -2198 0
-894 -2199 0
-892 -2974 0
-893 -2975 0
-894 -2976 0
-892 -1219 0
-893 -1220 0
-894 -1221 0
-892 -1975 0
-893 -1976 0
-894 -1977 0
-895 -3346 0
-896 -3347 0
-897 -3348 0
-895 -2488 0
-896 -2489 0
-897 -2490 0
-895 -2695 0
-896 -2696 0
-897 -2697 0
-895 -2230 0
-896 -2231 0
-897 -2232 0
-895 -1975 0
-896 -1976 0
-897 -1977 0
-895 -1585 0
-896 -1586 0
-897 -1587 0
-895 -1225 0
-896 -1226 0
-897 -1227 0
-895 -3259 0
-896 -3260 0
-897 -3261 0
-895 -1948 0
-896 -1949 0
-897 -1950 0
-898 -3277 0
-899 -3278 0
-900 -3279 0
-898 -3349 0
-899 -3350 0
-900 -3351 0
-898 -1618 0
-899 -1619 0
-900 -1620 0
-898 -1819 0
-899 -1820 0
-900 -1821 0
-898 -3295 0
-899 -3296 0
-900 -3297 0
-898 -2542 0
-899 -2543 0
-900 -2544 0
-898 -1660 0
-899 -1661 0
-900 -1662 0
-898 -3301 0
-899 -3302 0
-900 -3303 0
-898 -3256 0
-899 -3257 0
-900 -3258 0
-898 -2317 0
-899 -2318 0
-900 -2319 0
-898 -1228 0
-899 -1229 0
-900 -1230 0
-898 -1795 0
-899 -1796 0
-900 -1797 0
-898 -2425 0
-899 -2426 0
-900 -2427 0
-901 -3739 0
-902 -3740 0
-903 -3741 0
-901 -3460 0
-902 -3461 0
-903 -3462 0
-901 -1066 0
-902 -1067 0
-903 -1068 0
-901 -2830 0
-902 -2831 0
-903 -2832 0
-901 -2479 0
-902 -2480 0
-903 -2481 0
-901 -2833 0
-902 -2834 0
-903 -2835 0
-904 -2173 0
-905 -2174 0
-906 -2175 0
-904 -1771 0
-905 -1772 0
-906 -1773 0
-904 -1555 0
-905 -1556 0
-906 -1557 0
-904 -1066 0
-905 -1067 0
-906 -1068 0
-907 -1147 0
-908 -1148 0
-909 -1149 0
-907 -2638 0
-908 -2639 0
-909 -2640 0
-907 -1576 0
-908 -1577 0
-909 -1578 0
-907 -1795 0
-908 -1796 0
-909 -1797 0
-907 -2482 0
-908 -2483 0
-909 -2484 0
-910 -3736 0
-911 -3737 0
-912 -3738 0
-910 -1774 0
-911 -1775 0
-912 -1776 0
-910 -1150 0
-911 -1151 0
-912 -1152 0
-910 -2695 0
-911 -2696 0
-912 -2697 0
-910 -3109 0
-911 -3110 0
-912 -3111 0
-913 -1150 0
-914 -1151 0
-915 -1152 0
-913 -1867 0
-914 -1868 0
-915 -1869 0
-913 -1876 0
-914 -1877 0
-915 -1878 0
-916 -2506 0
-917 -2507 0
-918 -2508 0
-916 -1777 0
-917 -1778 0
-918 -1779 0
-916 -3274 0
-917 -3275 0
-918 -3276 0
-916 -1582 0
-917 -1583 0
-918 -1584 0
-916 -1156 0
-917 -1157 0
-918 -1158 0
-919 -1315 0
-920 -1316 0
-921 -1317 0
-919 -2617 0
-920 -2618 0
-921 -2619 0
-919 -2767 0
-920 -2768 0
-921 -2769 0
-922 -3373 0
-923 -3374 0
-924 -3375 0
-922 -1357 0
-923 -1358 0
-924 -1359 0
-922 -2428 0
-923 -2429 0
-924 -2430 0
-922 -1558 0
-923 -1559 0
-924 -1560 0
-922 -2389 0
-923 -2390 0
-924 -2391 0
-922 -2269 0
-923 -2270 0
-924 -2271 0
-925 -3640 0
-926 -3641 0
-927 -3642 0
-925 -1360 0
-926 -1361 0
-927 -1362 0
-925 -1780 0
-926 -1781 0
-927 -1782 0
-925 -2698 0
-926 -2699 0
-927 -2700 0
-925 -3076 0
-926 -3077 0
-927 -3078 0
-925 -1993 0
-926 -1994 0
-927 -1995 0
-925 -1732 0
-926 -1733 0
-927 -1734 0
-928 -2761 0
-929 -2762 0
-930 -2763 0
-928 -1261 0
-929 -1262 0
-930 -1263 0
-928 -2755 0
-929 -2756 0
-930 -2757 0
-931 -1360 0
-932 -1361 0
-933 -1362 0
-931 -2050 0
-932 -2051 0
-933 -2052 0
-931 -1624 0
-932 -1625 0
-933 -1626 0
-931 -3517 0
-932 -3518 0
-933 -3519 0
-931 -1597 0
-932 -1598 0
-933 -1599 0
-931 -1663 0
-932 -1664 0
-933 -1665 0
-931 -2101 0
-932 -2102 0
-933 -2103 0
-931 -2104 0
-932 -2105 0
-933 -2106 0
-931 -2383 0
-932 -2384 0
-933 -2385 0
-931 -1666 0
-932 -1667 0
-933 -1668 0
-934 -2254 0
-935 -2255 0
-936 -2256 0
-934 -1357 0
-935 -1358 0
-936 -1359 0
-934 -2002 0
-935 -2003 0
-936 -2004 0
-934 -2038 0
-935 -2039 0
-936 -2040 0
-934 -2350 0
-935 -2351 0
-936 -2352 0
-934 -2410 0
-935 -2411 0
-936 -2412 0
-934 -3229 0
-935 -3230 0
-936 -3231 0
-934 -3205 0
-935 -3206 0
-936 -3207 0
-937 -2761 0
-938 -2762 0
-939 -2763 0
-937 -1723 0
-938 -1724 0
-939 -1725 0
-937 -3358 0
-938 -3359 0
-939 -3360 0
-937 -1261 0
-938 -1262 0
-939 -1263 0
-940 -1615 0
-941 -1616 0
-942 -1617 0
-940 -1558 0
-941 -1559 0
-942 -1560 0
-940 -1264 0
-941 -1265 0
-942 -1266 0
-943 -1387 0
-944 -1388 0
-945 -1389 0
-943 -1282 0
-944 -1283 0
-945 -1284 0
-943 -1138 0
-944 -1139 0
-945 -1140 0
-943 -958 0
-944 -959 0
-945 -960 0
-943 -976 0
-944 -977 0
-945 -978 0
-946 -1384 0
-947 -1385 0
-948 -1386 0
-946 -1285 0
-947 -1286 0
-948 -1287 0
-946 -1429 0
-947 -1430 0
-948 -1431 0
-946 -1141 0
-947 -1142 0
-948 -1143 0
-946 -955 0
-947 -956 0
-948 -957 0
-949 -3409 0
-950 -3410 0
-951 -3411 0
-949 -3535 0
-950 -3536 0
-951 -3537 0
-949 -2275 0
-950 -2276 0
-951 -2277 0
-949 -1840 0
-950 -1841 0
-951 -1842 0
-949 -1789 0
-950 -1790 0
-951 -1791 0
-949 -1849 0
-950 -1850 0
-951 -1851 0
-949 -1858 0
-950 -1859 0
-951 -1860 0
-949 -1588 0
-950 -1589 0
-951 -1590 0
-949 -1894 0
-950 -1895 0
-951 -1896 0
-949 -964 0
-950 -965 0
-951 -966 0
-949 -1609 0
-950 -1610 0
-951 -1611 0
-952 -2812 0
-953 -2813 0
-954 -2814 0
-952 -2182 0
-953 -2183 0
-954 -2184 0
-952 -2704 0
-953 -2705 0
-954 -2706 0
-952 -1621 0
-953 -1622 0
-954 -1623 0
-952 -2710 0
-953 -2711 0
-954 -2712 0
-952 -961 0
-953 -962 0
-954 -963 0
-952 -2830 0
-953 -2831 0
-954 -2832 0
-955 -2926 0
-956 -2927 0
-957 -2928 0
-955 -2173 0
-956 -2174 0
-957 -2175 0
-955 -2218 0
-956 -2219 0
-957 -2220 0
-955 -1939 0
-956 -1940 0
-957 -1941 0
-958 -2548 0
-959 -2549 0
-960 -2550 0
-958 -1747 0
-959 -1748 0
-960 -1749 0
-958 -1645 0
-959 -1646 0
-960 -1647 0
-958 -2815 0
-959 -2816 0
-960 -2817 0
-958 -1717 0
-959 -1718 0
-960 -1719 0
-958 -1612 0
-959 -1613 0
-960 -1614 0
-961 -1288 0
-962 -1289 0
-963 -1290 0
-964 -1291 0
-965 -1292 0
-966 -1293 0
-964 -1393 0
-965 -1394 0
-966 -1395 0
-964 -1144 0
-965 -1145 0
-966 -1146 0
-964 -967 0
-965 -968 0
-966 -969 0
-964 -1279 0
-965 -1280 0
-966 -1281 0
-967 -2047 0
-968 -2048 0
-969 -2049 0
-967 -3415 0
-968 -3416 0
-969 -3417 0
-967 -1813 0
-968 -1814 0
-969 -1815 0
-970 -2047 0
-971 -2048 0
-972 -2049 0
-970 -1162 0
-971 -1163 0
-972 -1164 0
-970 -3520 0
-971 -3521 0
-972 -3522 0
-970 -2065 0
-971 -2066 0
-972 -2067 0
-973 -1549 0
-974 -1550 0
-975 -1551 0
-973 -2929 0
-974 -2930 0
-975 -2931 0
-973 -1180 0
-974 -1181 0
-975 -1182 0
-973 -2377 0
-974 -2378 0
-975 -2379 0
-976 -2377 0
-977 -2378 0
-978 -2379 0
-976 -2380 0
-977 -2381 0
-978 -2382 0
-979 -1798 0
-980 -1799 0
-981 -1800 0
-979 -2302 0
-980 -2303 0
-981 -2304 0
-979 -1228 0
-980 -1229 0
-981 -1230 0
-982 -2839 0
-983 -2840 0
-984 -2841 0
-982 -1873 0
-983 -1874 0
-984 -1875 0
-982 -1222 0
-983 -1223 0
-984 -1224 0
-982 -3733 0
-983 -3734 0
-984 -3735 0
-982 -1528 0
-983 -1529 0
-984 -1530 0
-985 -2836 0
-986 -2837 0
-987 -2838 0
-985 -1219 0
-986 -1220 0
-987 -1221 0
-985 -2824 0
-986 -2825 0
-987 -2826 0
-988 -3139 0
-989 -3140 0
-990 -3141 0
-988 -1318 0
-989 -1319 0
-990 -1320 0
-988 -2224 0
-989 -2225 0
-990 -2226 0
-988 -2158 0
-989 -2159 0
-990 -2160 0
-991 -1315 0
-992 -1316 0
-993 -1317 0
-991 -2617 0
-992 -2618 0
-993 -2619 0
-991 -2293 0
-992 -2294 0
-993 -2295 0
-994 -1318 0
-995 -1319 0
-996 -1320 0
-994 -2221 0
-995 -2222 0
-996 -2223 0
-994 -3730 0
-995 -3731 0
-996 -3732 0
-994 -2158 0
-995 -2159 0
-996 -2160 0
-997 -1321 0
-998 -1322 0
-999 -1323 0
-1000 -1390 0
-1001 -1391 0
-1002 -1392 0
-1000 -1015 0
-1001 -1016 0
-1002 -1017 0
-1000 -1021 0
-1001 -1022 0
-1002 -1023 0
-1000 -1144 0
-1001 -1145 0
-1002 -1146 0
-1003 -1018 0
-1004 -1019 0
-1005 -1020 0
-1003 -1408 0
-1004 -1409 0
-1005 -1410 0
-1006 -2176 0
-1007 -2177 0
-1008 -2178 0
-1006 -1027 0
-1007 -1028 0
-1008 -1029 0
-1006 -2185 0
-1007 -2186 0
-1008 -2187 0
-1006 -3694 0
-1007 -3695 0
-1008 -3696 0
-1006 -3766 0
-1007 -3767 0
-1008 -3768 0
-1006 -2296 0
-1007 -2297 0
-1008 -2298 0
-1009 -2926 0
-1010 -2927 0
-1011 -2928 0
-1009 -3304 0
-1010 -3305 0
-1011 -3306 0
-1009 -2179 0
-1010 -2180 0
-1011 -2181 0
-1009 -2053 0
-1010 -2054 0
-1011 -2055 0
-1009 -1024 0
-1010 -1025 0
-1011 -1026 0
-1012 -1027 0
-1013 -1028 0
-1014 -1029 0
-1012 -3331 0
-1013 -3332 0
-1014 -3333 0
-1012 -2938 0
-1013 -2939 0
-1014 -2940 0
-1012 -1945 0
-1013 -1946 0
-1014 -1947 0
-1015 -1699 0
-1016 -1700 0
-1017 -1701 0
-1015 -1855 0
-1016 -1856 0
-1017 -1857 0
-1015 -3607 0
-1016 -3608 0
-1017 -3609 0
-1018 -2710 0
-1019 -2711 0
-1020 -2712 0
-1018 -2713 0
-1019 -2714 0
-1020 -2715 0
-1018 -1567 0
-1019 -1568 0
-1020 -1569 0
-1021 -1588 0
-1022 -1589 0
-1023 -1590 0
-1021 -3409 0
-1022 -3410 0
-1023 -3411 0
-1021 -3442 0
-1022 -3443 0
-1023 -3444 0
-1021 -1738 0
-1022 -1739 0
-1023 -1740 0
-1024 -1141 0
-1025 -1142 0
-1026 -1143 0
-1024 -1411 0
-1025 -1412 0
-1026 -1413 0
-1027 -1138 0
-1028 -1139 0
-1029 -1140 0
-1027 -1414 0
-1028 -1415 0
-1029 -1416 0
-1030 -1162 0
-1031 -1163 0
-1032 -1164 0
-1030 -3289 0
-1031 -3290 0
-1032 -3291 0
-1030 -3160 0
-1031 -3161 0
-1032 -3162 0
-1030 -2065 0
-1031 -2066 0
-1032 -2067 0
-1033 -2380 0
-1034 -2381 0
-1035 -2382 0
-1033 -2509 0
-1034 -2510 0
-1035 -2511 0
-1033 -1228 0
-1034 -1229 0
-1035 -1230 0
-1033 -2485 0
-1034 -2486 0
-1035 -2487 0
-1036 -2461 0
-1037 -2462 0
-1038 -2463 0
-1036 -1054 0
-1037 -1055 0
-1038 -1056 0
-1036 -1783 0
-1037 -1784 0
-1038 -1785 0
-1039 -1768 0
-1040 -1769 0
-1041 -1770 0
-1039 -1360 0
-1040 -1361 0
-1041 -1362 0
-1039 -2050 0
-1040 -2051 0
-1041 -2052 0
-1039 -2074 0
-1040 -2075 0
-1041 -2076 0
-1039 -2116 0
-1040 -2117 0
-1041 -2118 0
-1042 -3172 0
-1043 -3173 0
-1044 -3174 0
-1042 -1765 0
-1043 -1766 0
-1044 -1767 0
-1042 -1588 0
-1043 -1589 0
-1044 -1590 0
-1042 -2305 0
-1043 -2306 0
-1044 -2307 0
-1042 -1552 0
-1043 -1553 0
-1044 -1554 0
-1042 -1063 0
-1043 -1064 0
-1044 -1065 0
-1042 -1729 0
-1043 -1730 0
-1044 -1731 0
-1042 -1738 0
-1043 -1739 0
-1044 -1740 0
-1045 -1066 0
-1046 -1067 0
-1047 -1068 0
-1045 -3238 0
-1046 -3239 0
-1047 -3240 0
-1045 -2713 0
-1046 -2714 0
-1047 -2715 0
-1045 -3721 0
-1046 -3722 0
-1047 -3723 0
-1045 -2272 0
-1046 -2273 0
-1047 -2274 0
-1048 -3553 0
-1049 -3554 0
-1050 -3555 0
-1048 -2404 0
-1049 -2405 0
-1050 -2406 0
-1048 -3397 0
-1049 -3398 0
-1050 -3399 0
-1048 -1066 0
-1049 -1067 0
-1050 -1068 0
-1048 -3721 0
-1049 -3722 0
-1050 -3723 0
-1051 -2305 0
-1052 -2306 0
-1053 -2307 0
-1051 -2527 0
-1052 -2528 0
-1053 -2529 0
-1051 -1063 0
-1052 -1064 0
-1053 -1065 0
-1051 -2545 0
-1052 -2546 0
-1053 -2547 0
-1054 -1405 0
-1055 -1406 0
-1056 -1407 0
-1054 -1072 0
-1055 -1073 0
-1056 -1074 0
-1054 -1075 0
-1055 -1076 0
-1056 -1077 0
-1054 -1336 0
-1055 -1337 0
-1056 -1338 0
-1054 -1270 0
-1055 -1271 0
-1056 -1272 0
-1054 -1108 0
-1055 -1109 0
-1056 -1110 0
-1057 -1453 0
-1058 -1454 0
-1059 -1455 0
-1057 -1069 0
-1058 -1070 0
-1059 -1071 0
-1057 -1078 0
-1058 -1079 0
-1059 -1080 0
-1057 -1339 0
-1058 -1340 0
-1059 -1341 0
-1057 -1354 0
-1058 -1355 0
-1059 -1356 0
-1057 -1276 0
-1058 -1277 0
-1059 -1278 0
-1057 -1105 0
-1058 -1106 0
-1059 -1107 0
-1060 -1081 0
-1061 -1082 0
-1062 -1083 0
-1060 -2491 0
-1061 -2492 0
-1062 -2493 0
-1060 -1792 0
-1061 -1793 0
-1062 -1794 0
-1063 -1456 0
-1064 -1457 0
-1065 -1458 0
-1063 -1087 0
-1064 -1088 0
-1065 -1089 0
-1063 -1096 0
-1064 -1097 0
-1065 -1098 0
-1063 -1369 0
-1064 -1370 0
-1065 -1371 0
-1063 -1426 0
-1064 -1427 0
-1065 -1428 0
-1066 -1459 0
-1067 -1460 0
-1068 -1461 0
-1066 -1090 0
-1067 -1091 0
-1068 -1092 0
-1066 -1093 0
-1067 -1094 0
-1068 -1095 0
-1066 -1351 0
-1067 -1352 0
-1068 -1353 0
-1066 -1273 0
-1067 -1274 0
-1068 -1275 0
-1069 -2053 0
-1070 -2054 0
-1071 -2055 0
-1069 -2515 0
-1070 -2516 0
-1071 -2517 0
-1072 -1573 0
-1073 -1574 0
-1074 -1575 0
-1075 -2947 0
-1076 -2948 0
-1077 -2949 0
-1075 -1540 0
-1076 -1541 0
-1077 -1542 0
-1078 -2527 0
-1079 -2528 0
-1080 -2529 0
-1078 -3241 0
-1079 -3242 0
-1080 -3243 0
-1081 -1417 0
-1082 -1418 0
-1083 -1419 0
-1081 -1363 0
-1082 -1364 0
-1083 -1365 0
-1081 -1270 0
-1082 -1271 0
-1083 -1272 0
-1081 -1102 0
-1082 -1103 0
-1083 -1104 0
-1084 -1420 0
-1085 -1421 0
-1086 -1422 0
-1084 -1366 0
-1085 -1367 0
-1086 -1368 0
-1084 -1099 0
-1085 -1100 0
-1086 -1101 0
-1084 -1276 0
-1085 -1277 0
-1086 -1278 0
-1084 -1381 0
-1085 -1382 0
-1086 -1383 0
-1087 -2257 0
-1088 -2258 0
-1089 -2259 0
-1087 -1657 0
-1088 -1658 0
-1089 -1659 0
-1087 -2011 0
-1088 -2012 0
-1089 -2013 0
-1087 -2077 0
-1088 -2078 0
-1089 -2079 0
-1087 -3820 0
-1088 -3821 0
-1089 -3822 0
-1090 -3628 0
-1091 -3629 0
-1092 -3630 0
-1090 -2215 0
-1091 -2216 0
-1092 -2217 0
-1090 -2944 0
-1091 -2945 0
-1092 -2946 0
-1090 -3445 0
-1091 -3446 0
-1092 -3447 0
-1090 -2857 0
-1091 -2858 0
-1092 -2859 0
-1090 -3061 0
-1091 -3062 0
-1092 -3063 0
-1090 -3634 0
-1091 -3635 0
-1092 -3636 0
-1093 -3628 0
-1094 -3629 0
-1095 -3630 0
-1093 -3490 0
-1094 -3491 0
-1095 -3492 0
-1093 -2179 0
-1094 -2180 0
-1095 -2181 0
-1093 -3202 0
-1094 -3203 0
-1095 -3204 0
-1093 -2833 0
-1094 -2834 0
-1095 -2835 0
-1096 -1513 0
-1097 -1514 0
-1098 -1515 0
-1096 -3493 0
-1097 -3494 0
-1098 -3495 0
-1096 -2077 0
-1097 -2078 0
-1098 -2079 0
-1096 -2296 0
-1097 -2297 0
-1098 -2298 0
-1096 -2917 0
-1097 -2918 0
-1098 -2919 0
-1099 -3265 0
-1100 -3266 0
-1101 -3267 0
-1099 -1846 0
-1100 -1847 0
-1101 -1848 0
-1099 -2227 0
-1100 -2228 0
-1101 -2229 0
-1099 -3058 0
-1100 -3059 0
-1101 -3060 0
-1099 -2248 0
-1100 -2249 0
-1101 -2250 0
-1099 -2425 0
-1100 -2426 0
-1101 -2427 0
-1102 -2593 0
-1103 -2594 0
-1104 -2595 0
-1102 -2488 0
-1103 -2489 0
-1104 -2490 0
-1102 -2635 0
-1103 -2636 0
-1104 -2637 0
-1102 -2494 0
-1103 -2495 0
-1104 -2496 0
-1102 -2932 0
-1103 -2933 0
-1104 -2934 0
-1102 -2230 0
-1103 -2231 0
-1104 -2232 0
-1102 -2701 0
-1103 -2702 0
-1104 -2703 0
-1102 -2923 0
-1103 -2924 0
-1104 -2925 0
-1105 -2278 0
-1106 -2279 0
-1107 -2280 0
-1105 -3757 0
-1106 -3758 0
-1107 -3759 0
-1105 -3220 0
-1106 -3221 0
-1107 -3222 0
-1105 -3199 0
-1106 -3200 0
-1107 -3201 0
-1105 -1528 0
-1106 -1529 0
-1107 -1530 0
-1108 -3688 0
-1109 -3689 0
-1110 -3690 0
-1108 -2935 0
-1109 -2936 0
-1110 -2937 0
-1108 -2572 0
-1109 -2573 0
-1110 -2574 0
-1108 -2095 0
-1109 -2096 0
-1110 -2097 0
-1108 -2458 0
-1109 -2459 0
-1110 -2460 0
-1108 -2824 0
-1109 -2825 0
-1110 -2826 0
-1108 -2080 0
-1109 -2081 0
-1110 -2082 0
-1108 -2113 0
-1109 -2114 0
-1110 -2115 0
-1111 -2590 0
-1112 -2591 0
-1113 -2592 0
-1111 -3838 0
-1112 -3839 0
-1113 -3840 0
-1111 -1804 0
-1112 -1805 0
-1113 -1806 0
-1111 -1261 0
-1112 -1262 0
-1113 -1263 0
-1114 -2521 0
-1115 -2522 0
-1116 -2523 0
-1114 -1264 0
-1115 -1265 0
-1116 -1266 0
-1114 -2719 0
-1115 -2720 0
-1116 -2721 0
-1117 -3781 0
-1118 -3782 0
-1119 -3783 0
-1117 -3556 0
-1118 -3557 0
-1119 -3558 0
-1117 -1294 0
-1118 -1295 0
-1119 -1296 0
-1120 -2554 0
-1121 -2555 0
-1122 -2556 0
-1120 -1711 0
-1121 -1712 0
-1122 -1713 0
-1120 -1690 0
-1121 -1691 0
-1122 -1692 0
-1120 -2707 0
-1121 -2708 0
-1122 -2709 0
-1120 -1687 0
-1121 -1688 0
-1122 -1689 0
-1120 -2524 0
-1121 -2525 0
-1122 -2526 0
-1123 -2347 0
-1124 -2348 0
-1125 -2349 0
-1123 -2167 0
-1124 -2168 0
-1125 -2169 0
-1126 -2965 0
-1127 -2966 0
-1128 -2967 0
-1126 -1918 0
-1127 -1919 0
-1128 -1920 0
-1126 -3805 0
-1127 -3806 0
-1128 -3807 0
-1126 -2644 0
-1127 -2645 0
-1128 -2646 0
-1126 -1261 0
-1127 -1262 0
-1128 -1263 0
-1129 -1951 0
-1130 -1952 0
-1131 -1953 0
-1129 -1249 0
-1130 -1250 0
-1131 -1251 0
-1132 -1150 0
-1133 -1151 0
-1134 -1152 0
-1132 -2569 0
-1133 -2570 0
-1134 -2571 0
-1132 -2494 0
-1133 -2495 0
-1134 -2496 0
-1132 -1879 0
-1133 -1880 0
-1134 -1881 0
-1132 -2695 0
-1133 -2696 0
-1134 -2697 0
-1132 -1585 0
-1133 -1586 0
-1134 -1587 0
-1135 -1147 0
-1136 -1148 0
-1137 -1149 0
-1135 -3808 0
-1136 -3809 0
-1137 -3810 0
-1135 -1819 0
-1136 -1820 0
-1137 -1821 0
-1135 -1795 0
-1136 -1796 0
-1137 -1797 0
-1138 -1720 0
-1139 -1721 0
-1140 -1722 0
-1138 -1552 0
-1139 -1553 0
-1140 -1554 0
-1138 -1729 0
-1139 -1730 0
-1140 -1731 0
-1141 -3157 0
-1142 -3158 0
-1143 -3159 0
-1141 -2272 0
-1142 -2273 0
-1143 -2274 0
-1144 -3496 0
-1145 -3497 0
-1146 -3498 0
-1144 -1534 0
-1145 -1535 0
-1146 -1536 0
-1144 -2917 0
-1145 -2918 0
-1146 -2919 0
-1147 -1423 0
-1148 -1424 0
-1149 -1425 0
-1147 -1339 0
-1148 -1340 0
-1149 -1341 0
-1147 -1351 0
-1148 -1352 0
-1149 -1353 0
-1147 -1366 0
-1148 -1367 0
-1149 -1368 0
-1150 -1447 0
-1151 -1448 0
-1152 -1449 0
-1150 -1336 0
-1151 -1337 0
-1152 -1338 0
-1150 -1363 0
-1151 -1364 0
-1152 -1365 0
-1150 -1279 0
-1151 -1280 0
-1152 -1281 0
-1153 -1360 0
-1154 -1361 0
-1155 -1362 0
-1153 -2188 0
-1154 -2189 0
-1155 -2190 0
-1153 -3076 0
-1154 -3077 0
-1155 -3078 0
-1153 -1876 0
-1154 -1877 0
-1155 -1878 0
-1153 -3241 0
-1154 -3242 0
-1155 -3243 0
-1156 -1423 0
-1157 -1424 0
-1158 -1425 0
-1156 -1354 0
-1157 -1355 0
-1158 -1356 0
-1156 -1369 0
-1157 -1370 0
-1158 -1371 0
-1156 -1381 0
-1157 -1382 0
-1158 -1383 0
-1159 -1288 0
-1160 -1289 0
-1161 -1290 0
-1159 -1174 0
-1160 -1175 0
-1161 -1176 0
-1162 -1291 0
-1163 -1292 0
-1164 -1293 0
-1162 -1450 0
-1163 -1451 0
-1164 -1452 0
-1162 -1171 0
-1163 -1172 0
-1164 -1173 0
-1162 -1177 0
-1163 -1178 0
-1164 -1179 0
-1165 -1183 0
-1166 -1184 0
-1167 -1185 0
-1165 -2020 0
-1166 -2021 0
-1167 -2022 0
-1165 -2038 0
-1166 -2039 0
-1167 -2040 0
-1165 -2041 0
-1166 -2042 0
-1167 -2043 0
-1165 -3649 0
-1166 -3650 0
-1167 -3651 0
-1165 -1972 0
-1166 -1973 0
-1167 -1974 0
-1168 -2773 0
-1169 -2774 0
-1170 -2775 0
-1168 -1531 0
-1169 -1532 0
-1170 -1533 0
-1168 -1180 0
-1169 -1181 0
-1170 -1182 0
-1168 -1837 0
-1169 -1838 0
-1170 -1839 0
-1168 -2050 0
-1169 -2051 0
-1170 -2052 0
-1168 -2116 0
-1169 -2117 0
-1170 -2118 0
-1168 -1624 0
-1169 -1625 0
-1170 -1626 0
-1168 -3331 0
-1169 -3332 0
-1170 -3333 0
-1171 -1906 0
-1172 -1907 0
-1173 -1908 0
-1171 -1828 0
-1172 -1829 0
-1173 -1830 0
-1171 -1780 0
-1172 -1781 0
-1173 -1782 0
-1171 -1963 0
-1172 -1964 0
-1173 -1965 0
-1171 -1852 0
-1172 -1853 0
-1173 -1854 0
-1171 -3160 0
-1172 -3161 0
-1173 -3162 0
-1171 -3367 0
-1172 -3368 0
-1173 -3369 0
-1171 -1699 0
-1172 -1700 0
-1173 -1701 0
-1171 -1714 0
-1172 -1715 0
-1173 -1716 0
-1171 -1822 0
-1172 -1823 0
-1173 -1824 0
-1174 -3370 0
-1175 -3371 0
-1176 -3372 0
-1174 -2428 0
-1175 -2429 0
-1176 -2430 0
-1174 -2944 0
-1175 -2945 0
-1176 -2946 0
-1174 -2056 0
-1175 -2057 0
-1176 -2058 0
-1174 -3583 0
-1175 -3584 0
-1176 -3585 0
-1174 -2389 0
-1175 -2390 0
-1176 -2391 0
-1174 -2110 0
-1175 -2111 0
-1176 -2112 0
-1174 -2014 0
-1175 -2015 0
-1176 -2016 0
-1177 -1498 0
-1178 -1499 0
-1179 -1500 0
-1177 -3289 0
-1178 -3290 0
-1179 -3291 0
-1177 -3442 0
-1178 -3443 0
-1179 -3444 0
-1180 -1282 0
-1181 -1283 0
-1182 -1284 0
-1183 -1285 0
-1184 -1286 0
-1185 -1287 0
-1186 -1321 0
-1187 -1322 0
-1188 -1323 0
-1189 -2554 0
-1190 -2555 0
-1191 -2556 0
-1189 -1360 0
-1190 -1361 0
-1191 -1362 0
-1189 -2698 0
-1190 -2699 0
-1191 -2700 0
-1189 -1693 0
-1190 -1694 0
-1191 -1695 0
-1189 -3337 0
-1190 -3338 0
-1191 -3339 0
-1192 -2836 0
-1193 -2837 0
-1194 -2838 0
-1192 -3826 0
-1193 -3827 0
-1194 -3828 0
-1192 -1219 0
-1193 -1220 0
-1194 -1221 0
-1192 -3235 0
-1193 -3236 0
-1194 -3237 0
-1195 -2587 0
-1196 -2588 0
-1197 -2589 0
-1195 -1720 0
-1196 -1721 0
-1197 -1722 0
-1195 -3400 0
-1196 -3401 0
-1197 -3402 0
-1195 -1660 0
-1196 -1661 0
-1197 -1662 0
-1195 -1228 0
-1196 -1229 0
-1197 -1230 0
-1195 -3676 0
-1196 -3677 0
-1197 -3678 0
-1198 -3232 0
-1199 -3233 0
-1200 -3234 0
-1198 -2611 0
-1199 -2612 0
-1200 -2613 0
-1198 -3163 0
-1199 -3164 0
-1200 -3165 0
-1198 -1474 0
-1199 -1475 0
-1200 -1476 0
-1201 -1477 0
-1202 -1478 0
-1203 -1479 0
-1201 -2068 0
-1202 -2069 0
-1203 -2070 0
-1201 -2416 0
-1202 -2417 0
-1203 -2418 0
-1201 -2146 0
-1202 -2147 0
-1203 -2148 0
-1204 -1756 0
-1205 -1757 0
-1206 -1758 0
-1204 -1684 0
-1205 -1685 0
-1206 -1686 0
-1204 -1969 0
-1205 -1970 0
-1206 -1971 0
-1204 -1489 0
-1205 -1490 0
-1206 -1491 0
-1207 -1534 0
-1208 -1535 0
-1209 -1536 0
-1207 -1966 0
-1208 -1967 0
-1209 -1968 0
-1207 -1219 0
-1208 -1220 0
-1209 -1221 0
-1210 -1537 0
-1211 -1538 0
-1212 -1539 0
-1210 -2746 0
-1211 -2747 0
-1212 -2748 0
-1210 -1222 0
-1211 -1223 0
-1212 -1224 0
-1213 -1804 0
-1214 -1805 0
-1215 -1806 0
-1213 -1879 0
-1214 -1880 0
-1215 -1881 0
-1213 -1225 0
-1214 -1226 0
-1215 -1227 0
-1213 -2626 0
-1214 -2627 0
-1215 -2628 0
-1216 -1798 0
-1217 -1799 0
-1218 -1800 0
-1216 -2719 0
-1217 -2720 0
-1218 -2721 0
-1216 -1228 0
-1217 -1229 0
-1218 -1230 0
-1222 -1237 0
-1223 -1238 0
-1224 -1239 0
-1222 -1417 0
-1223 -1418 0
-1224 -1419 0
-1222 -1420 0
-1223 -1421 0
-1224 -1422 0
-1225 -1390 0
-1226 -1391 0
-1227 -1392 0
-1225 -1447 0
-1226 -1448 0
-1227 -1449 0
-1225 -1234 0
-1226 -1235 0
-1227 -1236 0
-1225 -1243 0
-1226 -1244 0
-1227 -1245 0
-1228 -1231 0
-1229 -1232 0
-1230 -1233 0
-1228 -1240 0
-1229 -1241 0
-1230 -1242 0
-1228 -1405 0
-1229 -1406 0
-1230 -1407 0
-1231 -2587 0
-1232 -2588 0
-1233 -2589 0
-1231 -2302 0
-1232 -2303 0
-1233 -2304 0
-1231 -2308 0
-1232 -2309 0
-1233 -2310 0
-1231 -1795 0
-1232 -1796 0
-1233 -1797 0
-1234 -2065 0
-1235 -2066 0
-1236 -2067 0
-1234 -1561 0
-1235 -1562 0
-1236 -1563 0
-1234 -2695 0
-1235 -2696 0
-1236 -2697 0
-1234 -3529 0
-1235 -3530 0
-1236 -3531 0
-1237 -1549 0
-1238 -1550 0
-1239 -1551 0
-1237 -2506 0
-1238 -2507 0
-1239 -2508 0
-1237 -1873 0
-1238 -1874 0
-1239 -1875 0
-1237 -3439 0
-1238 -3440 0
-1239 -3441 0
-1240 -3757 0
-1241 -3758 0
-1242 -3759 0
-1240 -3223 0
-1241 -3224 0
-1242 -3225 0
-1240 -2521 0
-1241 -2522 0
-1242 -2523 0
-1240 -3256 0
-1241 -3257 0
-1242 -3258 0
-1240 -2719 0
-1241 -2720 0
-1242 -2721 0
-1243 -3259 0
-1244 -3260 0
-1245 -3261 0
-1243 -1804 0
-1244 -1805 0
-1245 -1806 0
-1243 -1813 0
-1244 -1814 0
-1245 -1815 0
-1246 -1384 0
-1247 -1385 0
-1248 -1386 0
-1246 -1411 0
-1247 -1412 0
-1248 -1413 0
-1249 -1387 0
-1250 -1388 0
-1251 -1389 0
-1249 -1414 0
-1250 -1415 0
-1251 -1416 0
-1249 -1258 0
-1250 -1259 0
-1251 -1260 0
-1252 -1264 0
-1253 -1265 0
-1254 -1266 0
-1252 -3397 0
-1253 -3398 0
-1254 -3399 0
-1252 -2056 0
-1253 -2057 0
-1254 -2058 0
-1252 -1558 0
-1253 -1559 0
-1254 -1560 0
-1252 -2509 0
-1253 -2510 0
-1254 -2511 0
-1252 -2947 0
-1253 -2948 0
-1254 -2949 0
-1255 -1261 0
-1256 -1262 0
-1257 -1263 0
-1255 -1714 0
-1256 -1715 0
-1257 -1716 0
-1255 -3838 0
-1256 -3839 0
-1257 -3840 0
-1258 -1531 0
-1259 -1532 0
-1260 -1533 0
-1258 -3517 0
-1259 -3518 0
-1260 -3519 0
-1258 -1807 0
-1259 -1808 0
-1260 -1809 0
-1258 -1792 0
-1259 -1793 0
-1260 -1794 0
-1261 -1393 0
-1262 -1394 0
-1263 -1395 0
-1261 -1450 0
-1262 -1451 0
-1263 -1452 0
-1261 -1426 0
-1262 -1427 0
-1263 -1428 0
-1264 -1408 0
-1265 -1409 0
-1266 -1410 0
-1264 -1267 0
-1265 -1268 0
-1266 -1269 0
-1267 -2503 0
-1268 -2504 0
-1269 -2505 0
-1267 -2521 0
-1268 -2522 0
-1269 -2523 0
-1270 -2026 0
-1271 -2027 0
-1272 -2028 0
-1270 -2635 0
-1271 -2636 0
-1272 -2637 0
-1270 -2080 0
-1271 -2081 0
-1272 -2082 0
-1273 -2332 0
-1274 -2333 0
-1275 -2334 0
-1273 -1621 0
-1274 -1622 0
-1275 -1623 0
-1273 -2272 0
-1274 -2273 0
-1275 -2274 0
-1276 -2278 0
-1277 -2279 0
-1278 -2280 0
-1276 -1501 0
-1277 -1502 0
-1278 -1503 0
-1276 -3058 0
-1277 -3059 0
-1278 -3060 0
-1276 -2860 0
-1277 -2861 0
-1278 -2862 0
-1279 -3496 0
-1280 -3497 0
-1281 -3498 0
-1279 -3109 0
-1280 -3110 0
-1281 -3111 0
-1282 -1702 0
-1283 -1703 0
-1284 -1704 0
-1282 -1645 0
-1283 -1646 0
-1284 -1647 0
-1285 -1972 0
-1286 -1973 0
-1287 -1974 0
-1285 -1543 0
-1286 -1544 0
-1287 -1545 0
-1285 -2914 0
-1286 -2915 0
-1287 -2916 0
-1288 -1984 0
-1289 -1985 0
-1290 -1986 0
-1288 -2014 0
-1289 -2015 0
-1290 -2016 0
-1288 -2062 0
-1289 -2063 0
-1290 -2064 0
-1291 -1906 0
-1292 -1907 0
-1293 -1908 0
-1291 -2275 0
-1292 -2276 0
-1293 -2277 0
-1291 -2029 0
-1292 -2030 0
-1293 -2031 0
-1291 -2161 0
-1292 -2162 0
-1293 -2163 0
-1294 -1297 0
-1295 -1298 0
-1296 -1299 0
-1297 -1987 0
-1298 -1988 0
-1299 -1989 0
-1297 -3556 0
-1298 -3557 0
-1299 -3558 0
-1297 -2845 0
-1298 -2846 0
-1299 -2847 0
-1300 -1648 0
-1301 -1649 0
-1302 -1650 0
-1300 -3667 0
-1301 -3668 0
-1302 -3669 0
-1300 -1633 0
-1301 -1634 0
-1302 -1635 0
-1300 -2671 0
-1301 -2672 0
-1302 -2673 0
-1303 -1315 0
-1304 -1316 0
-1305 -1317 0
-1303 -3631 0
-1304 -3632 0
-1305 -3633 0
-1303 -1651 0
-1304 -1652 0
-1305 -1653 0
-1303 -3400 0
-1304 -3401 0
-1305 -3402 0
-1303 -1504 0
-1304 -1505 0
-1305 -1506 0
-1306 -1318 0
-1307 -1319 0
-1308 -1320 0
-1306 -2725 0
-1307 -2726 0
-1308 -2727 0
-1306 -2221 0
-1307 -2222 0
-1308 -2223 0
-1306 -2164 0
-1307 -2165 0
-1308 -2166 0
-1309 -2722 0
-1310 -2723 0
-1311 -2724 0
-1309 -1315 0
-1310 -1316 0
-1311 -1317 0
-1309 -3799 0
-1310 -3800 0
-1311 -3801 0
-1309 -1651 0
-1310 -1652 0
-1311 -1653 0
-1309 -1834 0
-1310 -1835 0
-1311 -1836 0
-1309 -2767 0
-1310 -2768 0
-1311 -2769 0
-1312 -3343 0
-1313 -3344 0
-1314 -3345 0
-1312 -1318 0
-1313 -1319 0
-1314 -1320 0
-1312 -2224 0
-1313 -2225 0
-1314 -2226 0
-1312 -2164 0
-1313 -2165 0
-1314 -2166 0
-1321 -1873 0
-1322 -1874 0
-1323 -1875 0
-1321 -1879 0
-1322 -1880 0
-1323 -1881 0
-1324 -2674 0
-1325 -2675 0
-1326 -2676 0
-1324 -1480 0
-1325 -1481 0
-1326 -1482 0
-1324 -2032 0
-1325 -2033 0
-1326 -2034 0
-1324 -3169 0
-1325 -3170 0
-1326 -3171 0
-1324 -2863 0
-1325 -2864 0
-1326 -2865 0
-1327 -1483 0
-1328 -1484 0
-1329 -1485 0
-1327 -2452 0
-1328 -2453 0
-1329 -2454 0
-1327 -3655 0
-1328 -3656 0
-1329 -3657 0
-1327 -3658 0
-1328 -3659 0
-1329 -3660 0
-1327 -2512 0
-1328 -2513 0
-1329 -2514 0
-1327 -3121 0
-1328 -3122 0
-1329 -3123 0
-1327 -3166 0
-1328 -3167 0
-1329 -3168 0
-1330 -2842 0
-1331 -2843 0
-1332 -2844 0
-1330 -2632 0
-1331 -2633 0
-1332 -2634 0
-1330 -2032 0
-1331 -2033 0
-1332 -2034 0
-1330 -1480 0
-1331 -1481 0
-1332 -1482 0
-1333 -3115 0
-1334 -3116 0
-1335 -3117 0
-1333 -1483 0
-1334 -1484 0
-1335 -1485 0
-1333 -2596 0
-1334 -2597 0
-1335 -2598 0
-1333 -2452 0
-1334 -2453 0
-1335 -2454 0
-1336 -2113 0
-1337 -2114 0
-1338 -2115 0
-1336 -3721 0
-1337 -3722 0
-1338 -3723 0
-1339 -2305 0
-1340 -2306 0
-1341 -2307 0
-1339 -2527 0
-1340 -2528 0
-1341 -2529 0
-1342 -3172 0
-1343 -3173 0
-1344 -3174 0
-1342 -1360 0
-1343 -1361 0
-1344 -1362 0
-1342 -2188 0
-1343 -2189 0
-1344 -2190 0
-1342 -2581 0
-1343 -2582 0
-1344 -2583 0
-1342 -1663 0
-1343 -1664 0
-1344 -1665 0
-1342 -1858 0
-1343 -1859 0
-1344 -1860 0
-1345 -1357 0
-1346 -1358 0
-1347 -1359 0
-1345 -2410 0
-1346 -2411 0
-1347 -2412 0
-1345 -2893 0
-1346 -2894 0
-1347 -2895 0
-1348 -3487 0
-1349 -3488 0
-1350 -3489 0
-1348 -1360 0
-1349 -1361 0
-1350 -1362 0
-1348 -1801 0
-1349 -1802 0
-1350 -1803 0
-1348 -3517 0
-1349 -3518 0
-1350 -3519 0
-1348 -1861 0
-1349 -1862 0
-1350 -1863 0
-1351 -1576 0
-1352 -1577 0
-1353 -1578 0
-1351 -2950 0
-1352 -2951 0
-1353 -2952 0
-1351 -3238 0
-1352 -3239 0
-1353 -3240 0
-1354 -2839 0
-1355 -2840 0
-1356 -2841 0
-1354 -2188 0
-1355 -2189 0
-1356 -2190 0
-1354 -3241 0
-1355 -3242 0
-1356 -3243 0
-1357 -1429 0
-1358 -1430 0
-1359 -1431 0
-1357 -1453 0
-1358 -1454 0
-1359 -1455 0
-1357 -1459 0
-1358 -1460 0
-1359 -1461 0
-1357 -1375 0
-1358 -1376 0
-1359 -1377 0
-1360 -1495 0
-1361 -1496 0
-1362 -1497 0
-1360 -1456 0
-1361 -1457 0
-1362 -1458 0
-1360 -1372 0
-1361 -1373 0
-1362 -1374 0
-1360 -1378 0
-1361 -1379 0
-1362 -1380 0
-1363 -1876 0
-1364 -1877 0
-1365 -1878 0
-1363 -2626 0
-1364 -2627 0
-1365 -2628 0
-1366 -1798 0
-1367 -1799 0
-1368 -1800 0
-1366 -3745 0
-1367 -3746 0
-1368 -3747 0
-1366 -2950 0
-1367 -2951 0
-1368 -2952 0
-1369 -2527 0
-1370 -2528 0
-1371 -2529 0
-1372 -3820 0
-1373 -3821 0
-1374 -3822 0
-1372 -2074 0
-1373 -2075 0
-1374 -2076 0
-1375 -3373 0
-1376 -3374 0
-1377 -3375 0
-1375 -3745 0
-1376 -3746 0
-1377 -3747 0
-1375 -3586 0
-1376 -3587 0
-1377 -3588 0
-1375 -2950 0
-1376 -2951 0
-1377 -2952 0
-1375 -3205 0
-1376 -3206 0
-1377 -3207 0
-1375 -2422 0
-1376 -2423 0
-1377 -2424 0
-1378 -3487 0
-1379 -3488 0
-1380 -3489 0
-1378 -2548 0
-1379 -2549 0
-1380 -2550 0
-1378 -3811 0
-1379 -3812 0
-1380 -3813 0
-1378 -1876 0
-1379 -1877 0
-1380 -1878 0
-1378 -2101 0
-1379 -2102 0
-1380 -2103 0
-1381 -3628 0
-1382 -3629 0
-1383 -3630 0
-1381 -1846 0
-1382 -1847 0
-1383 -1848 0
-1381 -2263 0
-1382 -2264 0
-1383 -2265 0
-1384 -2629 0
-1385 -2630 0
-1386 -2631 0
-1384 -3235 0
-1385 -3236 0
-1386 -3237 0
-1387 -3019 0
-1388 -3020 0
-1389 -3021 0
-1387 -2413 0
-1388 -2414 0
-1389 -2415 0
-1390 -3415 0
-1391 -3416 0
-1392 -3417 0
-1390 -1813 0
-1391 -1814 0
-1392 -1815 0
-1393 -1894 0
-1394 -1895 0
-1395 -1896 0
-1393 -1960 0
-1394 -1961 0
-1395 -1962 0
-1393 -1804 0
-1394 -1805 0
-1395 -1806 0
-1393 -1813 0
-1394 -1814 0
-1395 -1815 0
-1396 -1891 0
-1397 -1892 0
-1398 -1893 0
-1396 -1648 0
-1397 -1649 0
-1398 -1650 0
-1396 -2530 0
-1397 -2531 0
-1398 -2532 0
-1396 -1474 0
-1397 -1475 0
-1398 -1476 0
-1399 -2374 0
-1400 -2375 0
-1401 -2376 0
-1399 -1486 0
-1400 -1487 0
-1401 -1488 0
-1399 -1981 0
-1400 -1982 0
-1401 -1983 0
-1399 -2419 0
-1400 -2420 0
-1401 -2421 0
-1402 -2329 0
-1403 -2330 0
-1404 -2331 0
-1402 -1489 0
-1403 -1490 0
-1404 -1491 0
-1402 -2290 0
-1403 -2291 0
-1404 -2292 0
-1405 -2185 0
-1406 -2186 0
-1407 -2187 0
-1405 -2947 0
-1406 -2948 0
-1407 -2949 0
-1408 -2326 0
-1409 -2327 0
-1410 -2328 0
-1408 -2071 0
-1409 -2072 0
-1410 -2073 0
-1408 -2083 0
-1409 -2084 0
-1410 -2085 0
-1411 -3304 0
-1412 -3305 0
-1413 -3306 0
-1411 -2068 0
-1412 -2069 0
-1413 -2070 0
-1411 -2455 0
-1412 -2456 0
-1413 -2457 0
-1411 -3226 0
-1412 -3227 0
-1413 -3228 0
-1411 -2083 0
-1412 -2084 0
-1413 -2085 0
-1414 -1672 0
-1415 -1673 0
-1416 -1674 0
-1414 -2611 0
-1415 -2612 0
-1416 -2613 0
-1414 -3694 0
-1415 -3695 0
-1416 -3696 0
-1414 -2821 0
-1415 -2822 0
-1416 -2823 0
-1417 -1567 0
-1418 -1568 0
-1419 -1569 0
-1417 -1807 0
-1418 -1808 0
-1419 -1809 0
-1420 -3265 0
-1421 -3266 0
-1422 -3267 0
-1420 -3325 0
-1421 -3326 0
-1422 -3327 0
-1420 -3247 0
-1421 -3248 0
-1422 -3249 0
-1423 -2452 0
-1424 -2453 0
-1425 -2454 0
-1423 -3808 0
-1424 -3809 0
-1425 -3810 0
-1423 -2266 0
-1424 -2267 0
-1425 -2268 0
-1426 -2590 0
-1427 -2591 0
-1428 -2592 0
-1426 -3805 0
-1427 -3806 0
-1428 -3807 0
-1426 -2707 0
-1427 -2708 0
-1428 -2709 0
-1429 -3229 0
-1430 -3230 0
-1431 -3231 0
-1432 -1480 0
-1433 -1481 0
-1434 -1482 0
-1432 -2632 0
-1433 -2633 0
-1434 -2634 0
-1432 -2164 0
-1433 -2165 0
-1434 -2166 0
-1435 -1891 0
-1436 -1892 0
-1437 -1893 0
-1435 -2611 0
-1436 -2612 0
-1437 -2613 0
-1435 -1474 0
-1436 -1475 0
-1437 -1476 0
-1438 -2071 0
-1439 -2072 0
-1440 -2073 0
-1438 -1486 0
-1439 -1487 0
-1440 -1488 0
-1438 -2419 0
-1439 -2420 0
-1440 -2421 0
-1438 -2398 0
-1439 -2399 0
-1440 -2400 0
-1441 -2329 0
-1442 -2330 0
-1443 -2331 0
-1441 -1756 0
-1442 -1757 0
-1443 -1758 0
-1441 -1489 0
-1442 -1490 0
-1443 -1491 0
-1441 -2716 0
-1442 -2717 0
-1443 -2718 0
-1444 -2674 0
-1445 -2675 0
-1446 -2676 0
-1444 -2725 0
-1445 -2726 0
-1446 -2727 0
-1444 -2677 0
-1445 -2678 0
-1446 -2679 0
-1444 -2686 0
-1445 -2687 0
-1446 -2688 0
-1444 -1480 0
-1445 -1481 0
-1446 -1482 0
-1444 -3478 0
-1445 -3479 0
-1446 -3480 0
-1444 -2164 0
-1445 -2165 0
-1446 -2166 0
-1447 -3139 0
-1448 -3140 0
-1449 -3141 0
-1447 -1879 0
-1448 -1880 0
-1449 -1881 0
-1450 -1801 0
-1451 -1802 0
-1452 -1803 0
-1450 -1861 0
-1451 -1862 0
-1452 -1863 0
-1450 -1822 0
-1451 -1823 0
-1452 -1824 0
-1453 -2950 0
-1454 -2951 0
-1455 -2952 0
-1453 -3238 0
-1454 -3239 0
-1455 -3240 0
-1456 -3172 0
-1457 -3173 0
-1458 -3174 0
-1456 -2353 0
-1457 -2354 0
-1458 -2355 0
-1456 -2383 0
-1457 -2384 0
-1458 -2385 0
-1456 -1687 0
-1457 -1688 0
-1458 -1689 0
-1456 -3820 0
-1457 -3821 0
-1458 -3822 0
-1456 -1693 0
-1457 -1694 0
-1458 -1695 0
-1456 -1696 0
-1457 -1697 0
-1458 -1698 0
-1459 -3781 0
-1460 -3782 0
-1461 -3783 0
-1459 -2332 0
-1460 -2333 0
-1461 -2334 0
-1459 -3445 0
-1460 -3446 0
-1461 -3447 0
-1459 -2167 0
-1460 -2168 0
-1461 -2169 0
-1459 -2269 0
-1460 -2270 0
-1461 -2271 0
-1462 -1489 0
-1463 -1490 0
-1464 -1491 0
-1462 -1969 0
-1463 -1970 0
-1464 -1971 0
-1462 -2290 0
-1463 -2291 0
-1464 -2292 0
-1465 -1648 0
-1466 -1649 0
-1467 -1650 0
-1465 -3232 0
-1466 -3233 0
-1467 -3234 0
-1465 -1735 0
-1466 -1736 0
-1467 -1737 0
-1465 -1474 0
-1466 -1475 0
-1467 -1476 0
-1468 -1477 0
-1469 -1478 0
-1470 -1479 0
-1468 -2740 0
-1469 -2741 0
-1470 -2742 0
-1468 -1987 0
-1469 -1988 0
-1470 -1989 0
-1468 -2845 0
-1469 -2846 0
-1470 -2847 0
-1468 -2416 0
-1469 -2417 0
-1470 -2418 0
-1471 -2059 0
-1472 -2060 0
-1473 -2061 0
-1471 -1810 0
-1472 -1811 0
-1473 -1812 0
-1471 -2392 0
-1472 -2393 0
-1473 -2394 0
-1477 -1492 0
-1478 -1493 0
-1479 -1494 0
-1492 -1546 0
-1493 -1547 0
-1494 -1548 0
-1492 -2845 0
-1493 -2846 0
-1494 -2847 0
-1495 -1624 0
-1496 -1625 0
-1497 -1626 0
-1495 -1861 0
-1496 -1862 0
-1497 -1863 0
-1495 -1822 0
-1496 -1823 0
-1497 -1824 0
-1495 -2116 0
-1496 -2117 0
-1497 -2118 0
-1498 -3217 0
-1499 -3218 0
-1500 -3219 0
-1498 -3313 0
-1499 -3314 0
-1500 -3315 0
-1501 -3814 0
-1502 -3815 0
-1503 -3816 0
-1501 -3091 0
-1502 -3092 0
-1503 -3093 0
-1501 -2470 0
-1502 -2471 0
-1503 -2472 0
-1501 -2536 0
-1502 -2537 0
-1503 -2538 0
-1501 -1630 0
-1502 -1631 0
-1503 -1632 0
-1501 -3715 0
-1502 -3716 0
-1503 -3717 0
-1504 -3598 0
-1505 -3599 0
-1506 -3600 0
-1510 -3145 0
-1511 -3146 0
-1512 -3147 0
-1510 -2434 0
-1511 -2435 0
-1512 -2436 0
-1513 -2884 0
-1514 -2885 0
-1515 -2886 0
-1513 -3031 0
-1514 -3032 0
-1515 -3033 0
-1513 -2986 0
-1514 -2987 0
-1515 -2988 0
-1516 -3106 0
-1517 -3107 0
-1518 -3108 0
-1519 -3151 0
-1520 -3152 0
-1521 -3153 0
-1519 -3664 0
-1520 -3665 0
-1521 -3666 0
-1519 -3187 0
-1520 -3188 0
-1521 -3189 0
-1525 -2791 0
-1526 -2792 0
-1527 -2793 0
-1528 -2884 0
-1529 -2885 0
-1530 -2886 0
-1528 -2827 0
-1529 -2828 0
-1530 -2829 0
-1528 -2905 0
-1529 -2906 0
-1530 -2907 0
-1528 -3454 0
-1529 -3455 0
-1530 -3456 0
-1528 -2434 0
-1529 -2435 0
-1530 -2436 0
-1531 -3361 0
-1532 -3362 0
-1533 -3363 0
-1531 -2149 0
-1532 -2150 0
-1533 -2151 0
-1531 -2152 0
-1532 -2153 0
-1533 -2154 0
-1534 -3034 0
-1535 -3035 0
-1536 -3036 0
-1534 -3391 0
-1535 -3392 0
-1536 -3393 0
-1537 -3100 0
-1538 -3101 0
-1539 -3102 0
-1543 -1636 0
-1544 -1637 0
-1545 -1638 0
-1552 -3751 0
-1553 -3752 0
-1554 -3753 0
-1552 -3724 0
-1553 -3725 0
-1554 -3726 0
-1552 -3319 0
-1553 -3320 0
-1554 -3321 0
-1552 -2356 0
-1553 -2357 0
-1554 -2358 0
-1558 -3298 0
-1559 -3299 0
-1560 -3300 0
-1558 -2431 0
-1559 -2432 0
-1560 -2433 0
-1561 -2659 0
-1562 -2660 0
-1563 -2661 0
-1561 -2782 0
-1562 -2783 0
-1563 -2784 0
-1570 -2941 0
-1571 -2942 0
-1572 -2943 0
-1570 -3679 0
-1571 -3680 0
-1572 -3681 0
-1570 -3262 0
-1571 -3263 0
-1572 -3264 0
-1579 -2800 0
-1580 -2801 0
-1581 -2802 0
-1582 -3817 0
-1583 -3818 0
-1584 -3819 0
-1582 -2599 0
-1583 -2600 0
-1584 -2601 0
-1585 -3106 0
-1586 -3107 0
-1587 -3108 0
-1588 -2896 0
-1589 -2897 0
-1590 -2898 0
-1591 -2023 0
-1592 -2024 0
-1593 -2025 0
-1591 -2311 0
-1592 -2312 0
-1593 -2313 0
-1594 -1621 0
-1595 -1622 0
-1596 -1623 0
-1594 -1627 0
-1595 -1628 0
-1596 -1629 0
-1594 -2431 0
-1595 -2432 0
-1596 -2433 0
-1597 -2251 0
-1598 -2252 0
-1599 -2253 0
-1597 -2149 0
-1598 -2150 0
-1599 -2151 0
-1597 -2152 0
-1598 -2153 0
-1599 -2154 0
-1597 -1612 0
-1598 -1613 0
-1599 -1614 0
-1600 -2020 0
-1601 -2021 0
-1602 -2022 0
-1600 -2899 0
-1601 -2900 0
-1602 -2901 0
-1603 -2281 0
-1604 -2282 0
-1605 -2283 0
-1603 -2212 0
-1604 -2213 0
-1605 -2214 0
-1603 -3544 0
-1604 -3545 0
-1605 -3546 0
-1603 -1624 0
-1604 -1625 0
-1605 -1626 0
-1603 -1666 0
-1604 -1667 0
-1605 -1668 0
-1606 -2209 0
-1607 -2210 0
-1608 -2211 0
-1609 -1708 0
-1610 -1709 0
-1611 -1710 0
-1609 -2209 0
-1610 -2210 0
-1611 -2211 0
-1609 -1732 0
-1610 -1733 0
-1611 -1734 0
-1609 -2737 0
-1610 -2738 0
-1611 -2739 0
-1612 -2212 0
-1613 -2213 0
-1614 -2214 0
-1612 -1633 0
-1613 -1634 0
-1614 -1635 0
-1612 -3718 0
-1613 -3719 0
-1614 -3720 0
-1615 -2941 0
-1616 -2942 0
-1617 -2943 0
-1618 -2956 0
-1619 -2957 0
-1620 -2958 0
-1618 -3271 0
-1619 -3272 0
-1620 -3273 0
-1621 -1981 0
-1622 -1982 0
-1623 -1983 0
-1624 -2152 0
-1625 -2153 0
-1626 -2154 0
-1624 -2689 0
-1625 -2690 0
-1626 -2691 0
-1624 -2155 0
-1625 -2156 0
-1626 -2157 0
-1624 -1735 0
-1625 -1736 0
-1626 -1737 0
-1627 -1978 0
-1628 -1979 0
-1629 -1980 0
-1627 -1927 0
-1628 -1928 0
-1629 -1929 0
-1627 -1936 0
-1628 -1937 0
-1629 -1938 0
-1630 -3007 0
-1631 -3008 0
-1632 -3009 0
-1633 -1882 0
-1634 -1883 0
-1635 -1884 0
-1633 -2938 0
-1634 -2939 0
-1635 -2940 0
-1636 -1909 0
-1637 -1910 0
-1638 -1911 0
-1636 -1972 0
-1637 -1973 0
-1638 -1974 0
-1639 -1645 0
-1640 -1646 0
-1641 -1647 0
-1639 -1864 0
-1640 -1865 0
-1641 -1866 0
-1642 -1966 0
-1643 -1967 0
-1644 -1968 0
-1642 -1975 0
-1643 -1976 0
-1644 -1977 0
-1645 -2035 0
-1646 -2036 0
-1647 -2037 0
-1645 -1648 0
-1646 -1649 0
-1647 -1650 0
-1645 -2530 0
-1646 -2531 0
-1647 -2532 0
-1648 -1837 0
-1649 -1838 0
-1650 -1839 0
-1648 -3814 0
-1649 -3815 0
-1650 -3816 0
-1651 -2437 0
-1652 -2438 0
-1653 -2439 0
-1651 -2278 0
-1652 -2279 0
-1653 -2280 0
-1651 -3646 0
-1652 -3647 0
-1653 -3648 0
-1651 -3058 0
-1652 -3059 0
-1653 -3060 0
-1654 -2953 0
-1655 -2954 0
-1656 -2955 0
-1654 -3412 0
-1655 -3413 0
-1656 -3414 0
-1657 -3196 0
-1658 -3197 0
-1659 -3198 0
-1657 -3331 0
-1658 -3332 0
-1659 -3333 0
-1657 -1897 0
-1658 -1898 0
-1659 -1899 0
-1657 -1945 0
-1658 -1946 0
-1659 -1947 0
-1660 -3706 0
-1661 -3707 0
-1662 -3708 0
-1660 -3007 0
-1661 -3008 0
-1662 -3009 0
-1660 -2245 0
-1661 -2246 0
-1662 -2247 0
-1663 -3001 0
-1664 -3002 0
-1665 -3003 0
-1663 -2689 0
-1664 -2690 0
-1665 -2691 0
-1663 -3019 0
-1664 -3020 0
-1665 -3021 0
-1663 -2680 0
-1664 -2681 0
-1665 -2682 0
-1666 -1744 0
-1667 -1745 0
-1668 -1746 0
-1666 -1726 0
-1667 -1727 0
-1668 -1728 0
-1666 -2680 0
-1667 -2681 0
-1668 -2682 0
-1666 -3538 0
-1667 -3539 0
-1668 -3540 0
-1669 -1672 0
-1670 -1673 0
-1671 -1674 0
-1669 -3331 0
-1670 -3332 0
-1671 -3333 0
-1672 -3412 0
-1673 -3413 0
-1674 -3414 0
-1672 -1675 0
-1673 -1676 0
-1674 -1677 0
-1672 -2665 0
-1673 -2666 0
-1674 -2667 0
-1672 -1696 0
-1673 -1697 0
-1674 -1698 0
-1675 -2134 0
-1676 -2135 0
-1677 -2136 0
-1675 -1678 0
-1676 -1679 0
-1677 -1680 0
-1678 -1747 0
-1679 -1748 0
-1680 -1749 0
-1678 -2149 0
-1679 -2150 0
-1680 -2151 0
-1678 -1753 0
-1679 -1754 0
-1680 -1755 0
-1678 -2815 0
-1679 -2816 0
-1680 -2817 0
-1678 -2359 0
-1679 -2360 0
-1680 -2361 0
-1681 -3637 0
-1682 -3638 0
-1683 -3639 0
-1681 -2449 0
-1682 -2450 0
-1683 -2451 0
-1681 -3010 0
-1682 -3011 0
-1683 -3012 0
-1681 -1687 0
-1682 -1688 0
-1683 -1689 0
-1681 -1690 0
-1682 -1691 0
-1683 -1692 0
-1684 -1840 0
-1685 -1841 0
-1686 -1842 0
-1684 -1858 0
-1685 -1859 0
-1686 -1860 0
-1684 -1693 0
-1685 -1694 0
-1686 -1695 0
-1687 -2788 0
-1688 -2789 0
-1689 -2790 0
-1687 -2851 0
-1688 -2852 0
-1689 -2853 0
-1687 -1741 0
-1688 -1742 0
-1689 -1743 0
-1687 -1900 0
-1688 -1901 0
-1689 -1902 0
-1690 -1699 0
-1691 -1700 0
-1692 -1701 0
-1693 -1756 0
-1694 -1757 0
-1695 -1758 0
-1693 -2797 0
-1694 -2798 0
-1695 -2799 0
-1693 -3118 0
-1694 -3119 0
-1695 -3120 0
-1693 -1900 0
-1694 -1901 0
-1695 -1902 0
-1696 -1744 0
-1697 -1745 0
-1698 -1746 0
-1696 -2968 0
-1697 -2969 0
-1698 -2970 0
-1696 -3037 0
-1697 -3038 0
-1698 -3039 0
-1699 -2524 0
-1700 -2525 0
-1701 -2526 0
-1699 -2545 0
-1700 -2546 0
-1701 -2547 0
-1702 -1912 0
-1703 -1913 0
-1704 -1914 0
-1702 -2035 0
-1703 -2036 0
-1704 -2037 0
-1702 -3646 0
-1703 -3647 0
-1704 -3648 0
-1702 -1903 0
-1703 -1904 0
-1704 -1905 0
-1705 -2962 0
-1706 -2963 0
-1707 -2964 0
-1705 -1828 0
-1706 -1829 0
-1707 -1830 0
-1705 -3718 0
-1706 -3719 0
-1707 -3720 0
-1708 -1855 0
-1709 -1856 0
-1710 -1857 0
-1708 -3535 0
-1709 -3536 0
-1710 -3537 0
-1711 -3376 0
-1712 -3377 0
-1713 -3378 0
-1711 -3073 0
-1712 -3074 0
-1713 -3075 0
-1711 -1963 0
-1712 -1964 0
-1713 -1965 0
-1711 -1900 0
-1712 -1901 0
-1713 -1902 0
-1714 -2122 0
-1715 -2123 0
-1716 -2124 0
-1717 -2281 0
-1718 -2282 0
-1719 -2283 0
-1717 -3448 0
-1718 -3449 0
-1719 -3450 0
-1717 -2212 0
-1718 -2213 0
-1719 -2214 0
-1717 -1897 0
-1718 -1898 0
-1719 -1899 0
-1717 -2608 0
-1718 -2609 0
-1719 -2610 0
-1720 -2356 0
-1721 -2357 0
-1722 -2358 0
-1723 -3211 0
-1724 -3212 0
-1725 -3213 0
-1726 -3751 0
-1727 -3752 0
-1728 -3753 0
-1726 -3502 0
-1727 -3503 0
-1728 -3504 0
-1726 -3031 0
-1727 -3032 0
-1728 -3033 0
-1726 -2104 0
-1727 -2105 0
-1728 -2106 0
-1726 -3136 0
-1727 -3137 0
-1728 -3138 0
-1729 -2737 0
-1730 -2738 0
-1731 -2739 0
-1732 -1894 0
-1733 -1895 0
-1734 -1896 0
-1732 -2371 0
-1733 -2372 0
-1734 -2373 0
-1732 -1741 0
-1733 -1742 0
-1734 -1743 0
-1735 -1837 0
-1736 -1838 0
-1737 -1839 0
-1735 -2101 0
-1736 -2102 0
-1737 -2103 0
-1738 -2209 0
-1739 -2210 0
-1740 -2211 0
-1738 -2776 0
-1739 -2777 0
-1740 -2778 0
-1738 -2983 0
-1739 -2984 0
-1740 -2985 0
-1738 -2737 0
-1739 -2738 0
-1740 -2739 0
-1741 -2554 0
-1742 -2555 0
-1743 -2556 0
-1741 -2794 0
-1742 -2795 0
-1743 -2796 0
-1741 -2803 0
-1742 -2804 0
-1743 -2805 0
-1741 -2605 0
-1742 -2606 0
-1743 -2607 0
-1741 -2698 0
-1742 -2699 0
-1743 -2700 0
-1741 -2809 0
-1742 -2810 0
-1743 -2811 0
-1744 -3751 0
-1745 -3752 0
-1746 -3753 0
-1744 -2383 0
-1745 -2384 0
-1746 -2385 0
-1744 -3334 0
-1745 -3335 0
-1746 -3336 0
-1747 -1951 0
-1748 -1952 0
-1749 -1953 0
-1747 -2035 0
-1748 -2036 0
-1749 -2037 0
-1750 -2212 0
-1751 -2213 0
-1752 -2214 0
-1750 -3376 0
-1751 -3377 0
-1752 -3378 0
-1753 -1954 0
-1754 -1955 0
-1755 -1956 0
-1753 -1903 0
-1754 -1904 0
-1755 -1905 0
-1756 -3433 0
-1757 -3434 0
-1758 -3435 0
-1756 -2449 0
-1757 -2450 0
-1758 -2451 0
-1756 -2698 0
-1757 -2699 0
-1758 -2700 0
-1759 -3190 0
-1760 -3191 0
-1761 -3192 0
-1765 -3751 0
-1766 -3752 0
-1767 -3753 0
-1765 -2983 0
-1766 -2984 0
-1767 -2985 0
-1768 -2440 0
-1769 -2441 0
-1770 -2442 0
-1768 -3184 0
-1769 -3185 0
-1770 -3186 0
-1768 -3532 0
-1769 -3533 0
-1770 -3534 0
-1774 -2656 0
-1775 -2657 0
-1776 -2658 0
-1774 -3043 0
-1775 -3044 0
-1776 -3045 0
-1777 -1897 0
-1778 -1898 0
-1779 -1899 0
-1780 -3382 0
-1781 -3383 0
-1782 -3384 0
-1780 -2122 0
-1781 -2123 0
-1782 -2124 0
-1780 -3385 0
-1781 -3386 0
-1782 -3387 0
-1780 -3697 0
-1781 -3698 0
-1782 -3699 0
-1780 -2131 0
-1781 -2132 0
-1782 -2133 0
-1783 -3028 0
-1784 -3029 0
-1785 -3030 0
-1783 -2779 0
-1784 -2780 0
-1785 -2781 0
-1786 -3580 0
-1787 -3581 0
-1788 -3582 0
-1789 -2962 0
-1790 -2963 0
-1791 -2964 0
-1789 -2209 0
-1790 -2210 0
-1791 -2211 0
-1789 -3025 0
-1790 -3026 0
-1791 -3027 0
-1789 -3118 0
-1790 -3119 0
-1791 -3120 0
-1789 -3043 0
-1790 -3044 0
-1791 -3045 0
-1795 -3007 0
-1796 -3008 0
-1797 -3009 0
-1795 -2758 0
-1796 -2759 0
-1797 -2760 0
-1801 -3625 0
-1802 -3626 0
-1803 -3627 0
-1804 -3406 0
-1805 -3407 0
-1806 -3408 0
-1804 -2605 0
-1805 -2606 0
-1806 -2607 0
-1810 -3112 0
-1811 -3113 0
-1812 -3114 0
-1819 -3589 0
-1820 -3590 0
-1821 -3591 0
-1822 -2806 0
-1823 -2807 0
-1824 -2808 0
-1825 -1996 0
-1826 -1997 0
-1827 -1998 0
-1825 -1840 0
-1826 -1841 0
-1827 -1842 0
-1825 -1849 0
-1826 -1850 0
-1827 -1851 0
-1825 -2122 0
-1826 -2123 0
-1827 -2124 0
-1825 -2359 0
-1826 -2360 0
-1827 -2361 0
-1825 -2131 0
-1826 -2132 0
-1827 -2133 0
-1828 -3217 0
-1829 -3218 0
-1830 -3219 0
-1828 -2545 0
-1829 -2546 0
-1830 -2547 0
-1828 -1882 0
-1829 -1883 0
-1830 -1884 0
-1831 -3505 0
-1832 -3506 0
-1833 -3507 0
-1831 -2953 0
-1832 -2954 0
-1833 -2955 0
-1834 -2968 0
-1835 -2969 0
-1836 -2970 0
-1834 -1846 0
-1835 -1847 0
-1836 -1848 0
-1834 -2263 0
-1835 -2264 0
-1836 -2265 0
-1834 -2248 0
-1835 -2249 0
-1836 -2250 0
-1840 -2287 0
-1841 -2288 0
-1842 -2289 0
-1840 -2584 0
-1841 -2585 0
-1842 -2586 0
-1840 -2737 0
-1841 -2738 0
-1842 -2739 0
-1843 -3190 0
-1844 -3191 0
-1845 -3192 0
-1843 -2872 0
-1844 -2873 0
-1845 -2874 0
-1843 -2866 0
-1844 -2867 0
-1845 -2868 0
-1846 -2143 0
-1847 -2144 0
-1848 -2145 0
-1846 -2911 0
-1847 -2912 0
-1848 -2913 0
-1849 -2443 0
-1850 -2444 0
-1851 -2445 0
-1849 -1918 0
-1850 -1919 0
-1851 -1920 0
-1852 -1888 0
-1853 -1889 0
-1854 -1890 0
-1852 -1864 0
-1853 -1865 0
-1854 -1866 0
-1855 -3421 0
-1856 -3422 0
-1857 -3423 0
-1855 -2524 0
-1856 -2525 0
-1857 -2526 0
-1858 -2284 0
-1859 -2285 0
-1860 -2286 0
-1858 -1918 0
-1859 -1919 0
-1860 -1920 0
-1858 -3118 0
-1859 -3119 0
-1860 -3120 0
-1858 -1969 0
-1859 -1970 0
-1860 -1971 0
-1861 -3682 0
-1862 -3683 0
-1863 -3684 0
-1861 -2155 0
-1862 -2156 0
-1863 -2157 0
-1864 -1906 0
-1865 -1907 0
-1866 -1908 0
-1864 -2029 0
-1865 -2030 0
-1866 -2031 0
-1864 -3034 0
-1865 -3035 0
-1866 -3036 0
-1870 -3193 0
-1871 -3194 0
-1872 -3195 0
-1870 -2599 0
-1871 -2600 0
-1872 -2601 0
-1873 -2827 0
-1874 -2828 0
-1875 -2829 0
-1873 -3286 0
-1874 -3287 0
-1875 -3288 0
-1873 -3106 0
-1874 -3107 0
-1875 -3108 0
-1876 -2608 0
-1877 -2609 0
-1878 -2610 0
-1876 -2683 0
-1877 -2684 0
-1878 -2685 0
-1882 -1906 0
-1883 -1907 0
-1884 -1908 0
-1882 -2035 0
-1883 -2036 0
-1884 -2037 0
-1882 -2161 0
-1883 -2162 0
-1884 -2163 0
-1885 -2500 0
-1886 -2501 0
-1887 -2502 0
-1888 -1915 0
-1889 -1916 0
-1890 -1917 0
-1888 -2794 0
-1889 -2795 0
-1890 -2796 0
-1888 -3034 0
-1889 -3035 0
-1890 -3036 0
-1891 -2929 0
-1892 -2930 0
-1893 -2931 0
-1891 -3532 0
-1892 -3533 0
-1893 -3534 0
-1894 -2299 0
-1895 -2300 0
-1896 -2301 0
-1894 -3748 0
-1895 -3749 0
-1896 -3750 0
-1894 -2605 0
-1895 -2606 0
-1896 -2607 0
-1894 -2287 0
-1895 -2288 0
-1896 -2289 0
-1897 -2257 0
-1898 -2258 0
-1899 -2259 0
-1900 -3211 0
-1901 -3212 0
-1902 -3213 0
-1900 -1996 0
-1901 -1997 0
-1902 -1998 0
-1900 -3124 0
-1901 -3125 0
-1902 -3126 0
-1906 -2290 0
-1907 -2291 0
-1908 -2292 0
-1906 -2365 0
-1907 -2366 0
-1908 -2367 0
-1909 -1984 0
-1910 -1985 0
-1911 -1986 0
-1909 -3526 0
-1910 -3527 0
-1911 -3528 0
-1912 -2356 0
-1913 -2357 0
-1914 -2358 0
-1915 -2017 0
-1916 -2018 0
-1917 -2019 0
-1915 -3142 0
-1916 -3143 0
-1917 -3144 0
-1915 -3619 0
-1916 -3620 0
-1917 -3621 0
-1918 -3637 0
-1919 -3638 0
-1920 -3639 0
-1918 -3523 0
-1919 -3524 0
-1920 -3525 0
-1918 -2320 0
-1919 -2321 0
-1920 -2322 0
-1921 -3625 0
-1922 -3626 0
-1923 -3627 0
-1921 -3010 0
-1922 -3011 0
-1923 -3012 0
-1921 -2320 0
-1922 -2321 0
-1923 -2322 0
-1924 -2089 0
-1925 -2090 0
-1926 -2091 0
-1924 -2119 0
-1925 -2120 0
-1926 -2121 0
-1924 -2656 0
-1925 -2657 0
-1926 -2658 0
-1924 -2098 0
-1925 -2099 0
-1926 -2100 0
-1930 -1984 0
-1931 -1985 0
-1932 -1986 0
-1930 -3100 0
-1931 -3101 0
-1932 -3102 0
-1930 -2014 0
-1931 -2015 0
-1932 -2016 0
-1930 -3049 0
-1931 -3050 0
-1932 -3051 0
-1933 -2026 0
-1934 -2027 0
-1935 -2028 0
-1933 -3046 0
-1934 -3047 0
-1935 -3048 0
-1933 -2683 0
-1934 -2684 0
-1935 -2685 0
-1933 -2080 0
-1934 -2081 0
-1935 -2082 0
-1936 -2347 0
-1937 -2348 0
-1938 -2349 0
-1936 -2167 0
-1937 -2168 0
-1938 -2169 0
-1939 -1999 0
-1940 -2000 0
-1941 -2001 0
-1939 -2236 0
-1940 -2237 0
-1941 -2238 0
-1939 -2002 0
-1940 -2003 0
-1941 -2004 0
-1939 -2410 0
-1940 -2411 0
-1941 -2412 0
-1942 -1984 0
-1943 -1985 0
-1944 -1986 0
-1942 -2812 0
-1943 -2813 0
-1944 -2814 0
-1942 -2704 0
-1943 -2705 0
-1944 -2706 0
-1945 -2011 0
-1946 -2012 0
-1947 -2013 0
-1945 -2866 0
-1946 -2867 0
-1947 -2868 0
-1948 -3280 0
-1949 -3281 0
-1950 -3282 0
-1948 -2032 0
-1949 -2033 0
-1950 -2034 0
-1948 -2656 0
-1949 -2657 0
-1950 -2658 0
-1948 -2557 0
-1949 -2558 0
-1950 -2559 0
-1948 -2107 0
-1949 -2108 0
-1950 -2109 0
-1951 -2548 0
-1952 -2549 0
-1953 -2550 0
-1951 -3136 0
-1952 -3137 0
-1953 -3138 0
-1954 -2665 0
-1955 -2666 0
-1956 -2667 0
-1954 -3361 0
-1955 -3362 0
-1956 -3363 0
-1954 -3136 0
-1955 -3137 0
-1956 -3138 0
-1957 -3703 0
-1958 -3704 0
-1959 -3705 0
-1957 -2203 0
-1958 -2204 0
-1959 -2205 0
-1957 -3574 0
-1958 -3575 0
-1959 -3576 0
-1960 -2299 0
-1961 -2300 0
-1962 -2301 0
-1960 -3124 0
-1961 -3125 0
-1962 -3126 0
-1963 -2365 0
-1964 -2366 0
-1965 -2367 0
-1963 -2524 0
-1964 -2525 0
-1965 -2526 0
-1963 -3382 0
-1964 -3383 0
-1965 -3384 0
-1966 -2089 0
-1967 -2090 0
-1968 -2091 0
-1966 -3046 0
-1967 -3047 0
-1968 -3048 0
-1969 -2995 0
-1970 -2996 0
-1971 -2997 0
-1969 -1993 0
-1970 -1994 0
-1971 -1995 0
-1969 -3082 0
-1970 -3083 0
-1971 -3084 0
-1972 -2740 0
-1973 -2741 0
-1974 -2742 0
-1972 -1987 0
-1973 -1988 0
-1974 -1989 0
-1972 -3292 0
-1973 -3293 0
-1974 -3294 0
-1972 -2005 0
-1973 -2006 0
-1974 -2007 0
-1975 -2032 0
-1976 -2033 0
-1977 -2034 0
-1975 -2044 0
-1976 -2045 0
-1977 -2046 0
-1978 -2311 0
-1979 -2312 0
-1980 -2313 0
-1978 -2314 0
-1979 -2315 0
-1980 -2316 0
-1978 -2170 0
-1979 -2171 0
-1980 -2172 0
-1981 -2812 0
-1982 -2813 0
-1983 -2814 0
-1981 -2215 0
-1982 -2216 0
-1983 -2217 0
-1984 -2437 0
-1985 -2438 0
-1986 -2439 0
-1987 -2971 0
-1988 -2972 0
-1989 -2973 0
-1990 -2335 0
-1991 -2336 0
-1992 -2337 0
-1993 -2614 0
-1994 -2615 0
-1995 -2616 0
-1993 -2371 0
-1994 -2372 0
-1995 -2373 0
-1996 -2017 0
-1997 -2018 0
-1998 -2019 0
-1996 -2335 0
-1997 -2336 0
-1998 -2337 0
-1996 -3073 0
-1997 -3074 0
-1998 -3075 0
-1999 -2914 0
-2000 -2915 0
-2001 -2916 0
-1999 -2023 0
-2000 -2024 0
-2001 -2025 0
-1999 -3262 0
-2000 -3263 0
-2001 -3264 0
-2002 -2941 0
-2003 -2942 0
-2004 -2943 0
-2002 -2407 0
-2003 -2408 0
-2004 -2409 0
-2002 -2218 0
-2003 -2219 0
-2004 -2220 0
-2005 -2020 0
-2006 -2021 0
-2007 -2022 0
-2005 -2914 0
-2006 -2915 0
-2007 -2916 0
-2008 -3280 0
-2009 -3281 0
-2010 -3282 0
-2008 -2140 0
-2009 -2141 0
-2010 -2142 0
-2008 -2914 0
-2009 -2915 0
-2010 -2916 0
-2011 -2251 0
-2012 -2252 0
-2013 -2253 0
-2011 -2878 0
-2012 -2879 0
-2013 -2880 0
-2014 -3052 0
-2015 -3053 0
-2016 -3054 0
-2014 -2140 0
-2015 -2141 0
-2016 -2142 0
-2014 -2374 0
-2015 -2375 0
-2016 -2376 0
-2017 -3622 0
-2018 -3623 0
-2019 -3624 0
-2017 -3520 0
-2018 -3521 0
-2019 -3522 0
-2020 -2242 0
-2021 -2243 0
-2022 -2244 0
-2023 -2137 0
-2024 -2138 0
-2025 -2139 0
-2023 -2236 0
-2024 -2237 0
-2025 -2238 0
-2026 -2200 0
-2027 -2201 0
-2028 -2202 0
-2026 -2995 0
-2027 -2996 0
-2028 -2997 0
-2026 -2971 0
-2027 -2972 0
-2028 -2973 0
-2026 -2239 0
-2027 -2240 0
-2028 -2241 0
-2029 -2443 0
-2030 -2444 0
-2031 -2445 0
-2029 -2668 0
-2030 -2669 0
-2031 -2670 0
-2029 -3619 0
-2030 -3620 0
-2031 -3621 0
-2032 -2197 0
-2033 -2198 0
-2034 -2199 0
-2032 -3433 0
-2033 -3434 0
-2034 -3435 0
-2032 -2602 0
-2033 -2603 0
-2034 -2604 0
-2035 -2878 0
-2036 -2879 0
-2037 -2880 0
-2038 -3565 0
-2039 -3566 0
-2040 -3567 0
-2041 -2941 0
-2042 -2942 0
-2043 -2943 0
-2041 -2692 0
-2042 -2693 0
-2043 -2694 0
-2044 -2158 0
-2045 -2159 0
-2046 -2160 0
-2050 -2149 0
-2051 -2150 0
-2052 -2151 0
-2056 -3673 0
-2057 -3674 0
-2058 -3675 0
-2062 -2140 0
-2063 -2141 0
-2064 -2142 0
-2065 -2875 0
-2066 -2876 0
-2067 -2877 0
-2068 -2254 0
-2069 -2255 0
-2070 -2256 0
-2068 -2602 0
-2069 -2603 0
-2070 -2604 0
-2068 -2314 0
-2069 -2315 0
-2070 -2316 0
-2071 -3022 0
-2072 -3023 0
-2073 -3024 0
-2071 -2269 0
-2072 -2270 0
-2073 -2271 0
-2071 -2170 0
-2072 -2171 0
-2073 -2172 0
-2074 -2152 0
-2075 -2153 0
-2076 -2154 0
-2074 -2155 0
-2075 -2156 0
-2076 -2157 0
-2077 -3421 0
-2078 -3422 0
-2079 -3423 0
-2077 -2770 0
-2078 -2771 0
-2079 -2772 0
-2080 -3010 0
-2081 -3011 0
-2082 -3012 0
-2080 -3013 0
-2081 -3014 0
-2082 -3015 0
-2080 -2164 0
-2081 -2165 0
-2082 -2166 0
-2083 -2332 0
-2084 -2333 0
-2085 -2334 0
-2086 -3028 0
-2087 -3029 0
-2088 -3030 0
-2086 -3040 0
-2087 -3041 0
-2088 -3042 0
-2089 -2602 0
-2090 -2603 0
-2091 -2604 0
-2089 -3178 0
-2090 -3179 0
-2091 -3180 0
-2089 -3322 0
-2090 -3323 0
-2091 -3324 0
-2092 -3433 0
-2093 -3434 0
-2094 -3435 0
-2092 -2260 0
-2093 -2261 0
-2094 -2262 0
-2092 -2191 0
-2093 -2192 0
-2094 -2193 0
-2095 -2221 0
-2096 -2222 0
-2097 -2223 0
-2095 -3010 0
-2096 -3011 0
-2097 -3012 0
-2098 -2224 0
-2099 -2225 0
-2100 -2226 0
-2101 -2785 0
-2102 -2786 0
-2103 -2787 0
-2101 -3232 0
-2102 -3233 0
-2103 -3234 0
-2104 -3232 0
-2105 -3233 0
-2106 -3234 0
-2104 -3604 0
-2105 -3605 0
-2106 -3606 0
-2107 -2365 0
-2108 -2366 0
-2109 -2367 0
-2107 -3577 0
-2108 -3578 0
-2109 -3579 0
-2107 -2158 0
-2108 -2159 0
-2109 -2160 0
-2110 -2347 0
-2111 -2348 0
-2112 -2349 0
-2110 -3703 0
-2111 -3704 0
-2112 -3705 0
-2110 -2431 0
-2111 -2432 0
-2112 -2433 0
-2110 -2407 0
-2111 -2408 0
-2112 -2409 0
-2110 -2323 0
-2111 -2324 0
-2112 -2325 0
-2113 -3577 0
-2114 -3578 0
-2115 -3579 0
-2113 -2221 0
-2114 -2222 0
-2115 -2223 0
-2116 -2440 0
-2117 -2441 0
-2118 -2442 0
-2116 -2806 0
-2117 -2807 0
-2118 -2808 0
-2119 -2779 0
-2120 -2780 0
-2121 -2781 0
-2122 -2584 0
-2123 -2585 0
-2124 -2586 0
-2122 -2755 0
-2123 -2756 0
-2124 -2757 0
-2125 -2407 0
-2126 -2408 0
-2127 -2409 0
-2128 -2134 0
-2129 -2135 0
-2130 -2136 0
-2128 -2476 0
-2129 -2477 0
-2130 -2478 0
-2131 -3073 0
-2132 -3074 0
-2133 -3075 0
-2131 -2287 0
-2132 -2288 0
-2133 -2289 0
-2131 -2734 0
-2132 -2735 0
-2133 -2736 0
-2137 -3154 0
-2138 -3155 0
-2139 -3156 0
-2137 -3262 0
-2138 -3263 0
-2139 -3264 0
-2143 -2227 0
-2144 -2228 0
-2145 -2229 0
-2143 -3088 0
-2144 -3089 0
-2145 -3090 0
-2146 -2332 0
-2147 -2333 0
-2148 -2334 0
-2146 -2692 0
-2147 -2693 0
-2148 -2694 0
-2152 -2761 0
-2153 -2762 0
-2154 -2763 0
-2152 -3544 0
-2153 -3545 0
-2154 -3546 0
-2155 -3517 0
-2156 -3518 0
-2157 -3519 0
-2158 -3793 0
-2159 -3794 0
-2160 -3795 0
-2158 -2851 0
-2159 -2852 0
-2160 -2853 0
-2158 -2518 0
-2159 -2519 0
-2160 -2520 0
-2164 -2635 0
-2165 -2636 0
-2166 -2637 0
-2164 -3085 0
-2165 -3086 0
-2166 -3087 0
-2164 -2668 0
-2165 -2669 0
-2166 -2670 0
-2164 -2701 0
-2165 -2702 0
-2166 -2703 0
-2167 -2326 0
-2168 -2327 0
-2169 -2328 0
-2170 -2326 0
-2171 -2327 0
-2172 -2328 0
-2170 -2341 0
-2171 -2342 0
-2172 -2343 0
-2173 -2899 0
-2174 -2900 0
-2175 -2901 0
-2173 -3187 0
-2174 -3188 0
-2175 -3189 0
-2176 -3775 0
-2177 -3776 0
-2178 -3777 0
-2182 -3133 0
-2183 -3134 0
-2184 -3135 0
-2182 -3127 0
-2183 -3128 0
-2184 -3129 0
-2182 -3754 0
-2183 -3755 0
-2184 -3756 0
-2188 -3118 0
-2189 -3119 0
-2190 -3120 0
-2188 -3508 0
-2189 -3509 0
-2190 -3510 0
-2191 -3664 0
-2192 -3665 0
-2193 -3666 0
-2191 -2446 0
-2192 -2447 0
-2193 -2448 0
-2191 -2497 0
-2192 -2498 0
-2193 -2499 0
-2194 -2659 0
-2195 -2660 0
-2196 -2661 0
-2194 -2458 0
-2195 -2459 0
-2196 -2460 0
-2197 -3664 0
-2198 -3665 0
-2199 -3666 0
-2197 -2446 0
-2198 -2447 0
-2199 -2448 0
-2197 -2653 0
-2198 -2654 0
-2199 -2655 0
-2197 -2518 0
-2198 -2519 0
-2199 -2520 0
-2197 -2863 0
-2198 -2864 0
-2199 -2865 0
-2200 -2701 0
-2201 -2702 0
-2202 -2703 0
-2200 -2923 0
-2201 -2924 0
-2202 -2925 0
-2203 -2437 0
-2204 -2438 0
-2205 -2439 0
-2203 -2395 0
-2204 -2396 0
-2205 -2397 0
-2206 -3754 0
-2207 -3755 0
-2208 -3756 0
-2206 -2899 0
-2207 -2900 0
-2208 -2901 0
-2212 -2296 0
-2213 -2297 0
-2214 -2298 0
-2212 -3538 0
-2213 -3539 0
-2214 -3540 0
-2215 -2419 0
-2216 -2420 0
-2217 -2421 0
-2218 -2350 0
-2219 -2351 0
-2220 -2352 0
-2221 -2851 0
-2222 -2852 0
-2223 -2853 0
-2221 -2497 0
-2222 -2498 0
-2223 -2499 0
-2221 -3481 0
-2222 -3482 0
-2223 -3483 0
-2224 -3793 0
-2225 -3794 0
-2226 -3795 0
-2224 -2932 0
-2225 -2933 0
-2226 -2934 0
-2224 -3772 0
-2225 -3773 0
-2226 -3774 0
-2227 -3631 0
-2228 -3632 0
-2229 -3633 0
-2227 -3712 0
-2228 -3713 0
-2229 -3714 0
-2230 -2677 0
-2231 -2678 0
-2232 -2679 0
-2230 -2686 0
-2231 -2687 0
-2232 -2688 0
-2233 -2791 0
-2234 -2792 0
-2235 -2793 0
-2233 -3091 0
-2234 -3092 0
-2235 -3093 0
-2236 -3565 0
-2237 -3566 0
-2238 -3567 0
-2239 -2998 0
-2240 -2999 0
-2241 -3000 0
-2239 -2635 0
-2240 -2636 0
-2241 -2637 0
-2242 -2344 0
-2243 -2345 0
-2244 -2346 0
-2245 -3022 0
-2246 -3023 0
-2247 -3024 0
-2245 -2542 0
-2246 -2543 0
-2247 -2544 0
-2245 -3676 0
-2246 -3677 0
-2247 -3678 0
-2248 -2665 0
-2249 -2666 0
-2250 -2667 0
-2251 -2383 0
-2252 -2384 0
-2253 -2385 0
-2254 -2455 0
-2255 -2456 0
-2256 -2457 0
-2254 -3046 0
-2255 -3047 0
-2256 -3048 0
-2257 -2878 0
-2258 -2879 0
-2259 -2880 0
-2260 -2998 0
-2261 -2999 0
-2262 -3000 0
-2263 -2722 0
-2264 -2723 0
-2265 -2724 0
-2263 -3103 0
-2264 -3104 0
-2265 -3105 0
-2266 -3052 0
-2267 -3053 0
-2268 -3054 0
-2266 -2293 0
-2267 -2294 0
-2268 -2295 0
-2266 -2317 0
-2267 -2318 0
-2268 -2319 0
-2269 -3298 0
-2270 -3299 0
-2271 -3300 0
-2269 -2362 0
-2270 -2363 0
-2271 -2364 0
-2269 -2398 0
-2270 -2399 0
-2271 -2400 0
-2272 -3133 0
-2273 -3134 0
-2274 -3135 0
-2275 -2290 0
-2276 -2291 0
-2277 -2292 0
-2275 -2443 0
-2276 -2444 0
-2277 -2445 0
-2275 -2896 0
-2276 -2897 0
-2277 -2898 0
-2278 -2884 0
-2279 -2885 0
-2280 -2886 0
-2278 -2722 0
-2279 -2723 0
-2280 -2724 0
-2278 -2536 0
-2279 -2537 0
-2280 -2538 0
-2278 -3574 0
-2279 -3575 0
-2280 -3576 0
-2281 -2566 0
-2282 -2567 0
-2283 -2568 0
-2281 -2689 0
-2282 -2690 0
-2283 -2691 0
-2281 -2539 0
-2282 -2540 0
-2283 -2541 0
-2281 -2680 0
-2282 -2681 0
-2283 -2682 0
-2284 -3625 0
-2285 -3626 0
-2286 -3627 0
-2284 -2581 0
-2285 -2582 0
-2286 -2583 0
-2284 -3523 0
-2285 -3524 0
-2286 -3525 0
-2287 -2590 0
-2288 -2591 0
-2289 -2592 0
-2287 -2371 0
-2288 -2372 0
-2289 -2373 0
-2287 -3697 0
-2288 -3698 0
-2289 -3699 0
-2290 -3535 0
-2291 -3536 0
-2292 -3537 0
-2290 -2995 0
-2291 -2996 0
-2292 -2997 0
-2293 -2968 0
-2294 -2969 0
-2295 -2970 0
-2296 -3031 0
-2297 -3032 0
-2298 -3033 0
-2296 -3145 0
-2297 -3146 0
-2298 -3147 0
-2302 -3598 0
-2303 -3599 0
-2304 -3600 0
-2305 -3319 0
-2306 -3320 0
-2307 -3321 0
-2308 -3040 0
-2309 -3041 0
-2310 -3042 0
-2311 -3328 0
-2312 -3329 0
-2313 -3330 0
-2314 -3226 0
-2315 -3227 0
-2316 -3228 0
-2317 -2452 0
-2318 -2453 0
-2319 -2454 0
-2317 -2878 0
-2318 -2879 0
-2319 -2880 0
-2317 -2758 0
-2318 -2759 0
-2319 -2760 0
-2320 -2788 0
-2321 -2789 0
-2322 -2790 0
-2320 -2614 0
-2321 -2615 0
-2322 -2616 0
-2320 -2644 0
-2321 -2645 0
-2322 -2646 0
-2320 -3253 0
-2321 -3254 0
-2322 -3255 0
-2320 -2668 0
-2321 -2669 0
-2322 -2670 0
-2320 -3064 0
-2321 -3065 0
-2322 -3066 0
-2323 -2341 0
-2324 -2342 0
-2325 -2343 0
-2326 -2332 0
-2327 -2333 0
-2328 -2334 0
-2326 -3574 0
-2327 -3575 0
-2328 -3576 0
-2329 -3520 0
-2330 -3521 0
-2331 -3522 0
-2332 -3226 0
-2333 -3227 0
-2334 -3228 0
-2335 -3412 0
-2336 -3413 0
-2337 -3414 0
-2335 -2449 0
-2336 -2450 0
-2337 -2451 0
-2338 -2341 0
-2339 -2342 0
-2340 -2343 0
-2338 -3364 0
-2339 -3365 0
-2340 -3366 0
-2344 -3328 0
-2345 -3329 0
-2346 -3330 0
-2347 -3370 0
-2348 -3371 0
-2349 -3372 0
-2350 -2455 0
-2351 -2456 0
-2352 -2457 0
-2350 -2887 0
-2351 -2888 0
-2352 -2889 0
-2353 -2608 0
-2354 -2609 0
-2355 -2610 0
-2353 -2611 0
-2354 -2612 0
-2355 -2613 0
-2356 -2476 0
-2357 -2477 0
-2358 -2478 0
-2359 -2734 0
-2360 -2735 0
-2361 -2736 0
-2362 -2404 0
-2363 -2405 0
-2364 -2406 0
-2362 -2890 0
-2363 -2891 0
-2364 -2892 0
-2365 -3793 0
-2366 -3794 0
-2367 -3795 0
-2365 -2569 0
-2366 -2570 0
-2367 -2571 0
-2365 -2575 0
-2366 -2576 0
-2367 -2577 0
-2365 -3376 0
-2366 -3377 0
-2367 -3378 0
-2365 -3769 0
-2366 -3770 0
-2367 -3771 0
-2368 -2587 0
-2369 -2588 0
-2370 -2589 0
-2368 -2380 0
-2369 -2381 0
-2370 -2382 0
-2368 -2413 0
-2369 -2414 0
-2370 -2415 0
-2371 -2776 0
-2372 -2777 0
-2373 -2778 0
-2371 -2641 0
-2372 -2642 0
-2373 -2643 0
-2371 -2809 0
-2372 -2810 0
-2373 -2811 0
-2371 -2737 0
-2372 -2738 0
-2373 -2739 0
-2374 -2812 0
-2375 -2813 0
-2376 -2814 0
-2374 -3715 0
-2375 -3716 0
-2376 -3717 0
-2383 -2611 0
-2384 -2612 0
-2385 -2613 0
-2389 -2431 0
-2390 -2432 0
-2391 -2433 0
-2392 -2692 0
-2393 -2693 0
-2394 -2694 0
-2398 -2428 0
-2399 -2429 0
-2400 -2430 0
-2398 -2944 0
-2399 -2945 0
-2400 -2946 0
-2398 -2890 0
-2399 -2891 0
-2400 -2892 0
-2401 -3100 0
-2402 -3101 0
-2403 -3102 0
-2401 -2944 0
-2402 -2945 0
-2403 -2946 0
-2404 -3250 0
-2405 -3251 0
-2406 -3252 0
-2404 -3298 0
-2405 -3299 0
-2406 -3300 0
-2404 -3526 0
-2405 -3527 0
-2406 -3528 0
-2410 -3796 0
-2411 -3797 0
-2412 -3798 0
-2410 -3565 0
-2411 -3566 0
-2412 -3567 0
-2413 -3604 0
-2414 -3605 0
-2415 -3606 0
-2416 -2971 0
-2417 -2972 0
-2418 -2973 0
-2416 -3229 0
-2417 -3230 0
-2418 -3231 0
-2416 -3205 0
-2417 -3206 0
-2418 -3207 0
-2419 -2944 0
-2420 -2945 0
-2421 -2946 0
-2422 -3364 0
-2423 -3365 0
-2424 -3366 0
-2422 -3049 0
-2423 -3050 0
-2424 -3051 0
-2425 -2551 0
-2426 -2552 0
-2427 -2553 0
-2425 -2596 0
-2426 -2597 0
-2427 -2598 0
-2425 -2473 0
-2426 -2474 0
-2427 -2475 0
-2425 -2911 0
-2426 -2912 0
-2427 -2913 0
-2428 -3394 0
-2429 -3395 0
-2430 -3396 0
-2431 -3070 0
-2432 -3071 0
-2433 -3072 0
-2434 -2872 0
-2435 -2873 0
-2436 -2874 0
-2437 -2752 0
-2438 -2753 0
-2439 -2754 0
-2437 -3049 0
-2438 -3050 0
-2439 -3051 0
-2437 -3115 0
-2438 -3116 0
-2439 -3117 0
-2437 -2905 0
-2438 -2906 0
-2439 -2907 0
-2437 -2767 0
-2438 -2768 0
-2439 -2769 0
-2437 -3559 0
-2438 -3560 0
-2439 -3561 0
-2437 -2884 0
-2438 -2885 0
-2439 -2886 0
-2437 -3841 0
-2438 -3842 0
-2439 -3843 0
-2437 -2893 0
-2438 -2894 0
-2439 -2895 0
-2437 -2665 0
-2438 -2666 0
-2439 -2667 0
-2440 -3196 0
-2441 -3197 0
-2442 -3198 0
-2443 -2653 0
-2444 -2654 0
-2445 -2655 0
-2446 -3055 0
-2447 -3056 0
-2448 -3057 0
-2449 -3025 0
-2450 -3026 0
-2451 -3027 0
-2452 -2866 0
-2453 -2867 0
-2454 -2868 0
-2452 -3022 0
-2453 -3023 0
-2454 -3024 0
-2452 -3832 0
-2453 -3833 0
-2454 -3834 0
-2452 -3352 0
-2453 -3353 0
-2454 -3354 0
-2455 -3781 0
-2456 -3782 0
-2457 -3783 0
-2455 -3436 0
-2456 -3437 0
-2457 -3438 0
-2458 -2863 0
-2459 -2864 0
-2460 -2865 0
-2461 -2779 0
-2462 -2780 0
-2463 -2781 0
-2461 -2782 0
-2462 -2783 0
-2463 -2784 0
-2464 -3178 0
-2465 -3179 0
-2466 -3180 0
-2470 -3595 0
-2471 -3596 0
-2472 -3597 0
-2470 -3508 0
-2471 -3509 0
-2472 -3510 0
-2470 -3058 0
-2471 -3059 0
-2472 -3060 0
-2473 -2827 0
-2474 -2828 0
-2475 -2829 0
-2473 -3103 0
-2474 -3104 0
-2475 -3105 0
-2473 -3349 0
-2474 -3350 0
-2475 -3351 0
-2473 -3454 0
-2474 -3455 0
-2475 -3456 0
-2482 -2758 0
-2483 -2759 0
-2484 -2760 0
-2488 -2659 0
-2489 -2660 0
-2490 -2661 0
-2488 -3310 0
-2489 -3311 0
-2490 -3312 0
-2494 -2770 0
-2495 -2771 0
-2496 -2772 0
-2494 -3391 0
-2495 -3392 0
-2496 -3393 0
-2497 -3406 0
-2498 -3407 0
-2499 -3408 0
-2500 -3640 0
-2501 -3641 0
-2502 -3642 0
-2500 -2902 0
-2501 -2903 0
-2502 -2904 0
-2506 -2827 0
-2507 -2828 0
-2508 -2829 0
-2506 -3499 0
-2507 -3500 0
-2508 -3501 0
-2512 -3643 0
-2513 -3644 0
-2514 -3645 0
-2518 -3292 0
-2519 -3293 0
-2520 -3294 0
-2518 -2770 0
-2519 -2771 0
-2520 -2772 0
-2524 -2851 0
-2525 -2852 0
-2526 -2853 0
-2524 -3769 0
-2525 -3770 0
-2526 -3771 0
-2530 -2929 0
-2531 -2930 0
-2532 -2931 0
-2530 -2815 0
-2531 -2816 0
-2532 -2817 0
-2533 -3199 0
-2534 -3200 0
-2535 -3201 0
-2533 -3208 0
-2534 -3209 0
-2535 -3210 0
-2536 -2956 0
-2537 -2957 0
-2538 -2958 0
-2536 -2785 0
-2537 -2786 0
-2538 -2787 0
-2539 -2977 0
-2540 -2978 0
-2541 -2979 0
-2542 -2956 0
-2543 -2957 0
-2544 -2958 0
-2545 -3607 0
-2546 -3608 0
-2547 -3609 0
-2545 -3043 0
-2546 -3044 0
-2547 -3045 0
-2545 -2584 0
-2546 -2585 0
-2547 -2586 0
-2548 -3232 0
-2549 -3233 0
-2550 -3234 0
-2548 -2608 0
-2549 -2609 0
-2550 -2610 0
-2551 -2800 0
-2552 -2801 0
-2553 -2802 0
-2551 -3295 0
-2552 -3296 0
-2553 -3297 0
-2551 -3058 0
-2552 -3059 0
-2553 -3060 0
-2554 -2908 0
-2555 -2909 0
-2556 -2910 0
-2560 -2563 0
-2561 -2564 0
-2562 -2565 0
-2560 -3346 0
-2561 -3347 0
-2562 -3348 0
-2560 -3379 0
-2561 -3380 0
-2562 -3381 0
-2563 -2971 0
-2564 -2972 0
-2565 -2973 0
-2563 -3079 0
-2564 -3080 0
-2565 -3081 0
-2563 -2782 0
-2564 -2783 0
-2565 -2784 0
-2566 -3307 0
-2567 -3308 0
-2568 -3309 0
-2569 -2875 0
-2570 -2876 0
-2571 -2877 0
-2572 -2674 0
-2573 -2675 0
-2574 -2676 0
-2572 -2863 0
-2573 -2864 0
-2574 -2865 0
-2575 -2650 0
-2576 -2651 0
-2577 -2652 0
-2578 -2632 0
-2579 -2633 0
-2580 -2634 0
-2578 -2653 0
-2579 -2654 0
-2580 -2655 0
-2581 -3691 0
-2582 -3692 0
-2583 -3693 0
-2581 -3253 0
-2582 -3254 0
-2583 -3255 0
-2581 -2668 0
-2582 -2669 0
-2583 -2670 0
-2584 -3697 0
-2585 -3698 0
-2586 -3699 0
-2587 -3007 0
-2588 -3008 0
-2589 -3009 0
-2590 -2776 0
-2591 -2777 0
-2592 -2778 0
-2590 -3073 0
-2591 -3074 0
-2592 -3075 0
-2593 -2632 0
-2594 -2633 0
-2595 -2634 0
-2593 -3391 0
-2594 -3392 0
-2595 -3393 0
-2596 -3265 0
-2597 -3266 0
-2598 -3267 0
-2596 -3817 0
-2597 -3818 0
-2598 -3819 0
-2599 -3613 0
-2600 -3614 0
-2601 -3615 0
-2602 -3268 0
-2603 -3269 0
-2604 -3270 0
-2602 -2653 0
-2603 -2654 0
-2604 -2655 0
-2602 -2656 0
-2603 -2657 0
-2604 -2658 0
-2602 -2848 0
-2603 -2849 0
-2604 -2850 0
-2605 -3472 0
-2606 -3473 0
-2607 -3474 0
-2605 -3409 0
-2606 -3410 0
-2607 -3411 0
-2611 -3412 0
-2612 -3413 0
-2613 -3414 0
-2611 -3130 0
-2612 -3131 0
-2613 -3132 0
-2611 -2866 0
-2612 -2867 0
-2613 -2868 0
-2614 -2983 0
-2615 -2984 0
-2616 -2985 0
-2614 -2986 0
-2615 -2987 0
-2616 -2988 0
-2617 -3547 0
-2618 -3548 0
-2619 -3549 0
-2626 -3406 0
-2627 -3407 0
-2628 -3408 0
-2626 -2683 0
-2627 -2684 0
-2628 -2685 0
-2632 -3568 0
-2633 -3569 0
-2634 -3570 0
-2632 -2668 0
-2633 -2669 0
-2634 -2670 0
-2635 -3154 0
-2636 -3155 0
-2637 -3156 0
-2635 -2677 0
-2636 -2678 0
-2637 -2679 0
-2638 -3028 0
-2639 -3029 0
-2640 -3030 0
-2638 -3040 0
-2639 -3041 0
-2640 -3042 0
-2641 -2788 0
-2642 -2789 0
-2643 -2790 0
-2641 -3064 0
-2642 -3065 0
-2643 -3066 0
-2644 -2776 0
-2645 -2777 0
-2646 -2778 0
-2644 -2809 0
-2645 -2810 0
-2646 -2811 0
-2647 -2650 0
-2648 -2651 0
-2649 -2652 0
-2647 -2875 0
-2648 -2876 0
-2649 -2877 0
-2650 -2995 0
-2651 -2996 0
-2652 -2997 0
-2653 -2974 0
-2654 -2975 0
-2655 -2976 0
-2653 -3568 0
-2654 -3569 0
-2655 -3570 0
-2653 -3313 0
-2654 -3314 0
-2655 -3315 0
-2653 -2896 0
-2654 -2897 0
-2655 -2898 0
-2653 -3619 0
-2654 -3620 0
-2655 -3621 0
-2656 -2695 0
-2657 -2696 0
-2658 -2697 0
-2659 -3379 0
-2660 -3380 0
-2661 -3381 0
-2659 -2695 0
-2660 -2696 0
-2661 -2697 0
-2662 -2764 0
-2663 -2765 0
-2664 -2766 0
-2662 -2731 0
-2663 -2732 0
-2664 -2733 0
-2665 -2800 0
-2666 -2801 0
-2667 -2802 0
-2665 -3058 0
-2666 -3059 0
-2667 -3060 0
-2665 -3037 0
-2666 -3038 0
-2667 -3039 0
-2665 -3694 0
-2666 -3695 0
-2667 -3696 0
-2665 -2860 0
-2666 -2861 0
-2667 -2862 0
-2668 -3625 0
-2669 -3626 0
-2670 -3627 0
-2668 -3709 0
-2669 -3710 0
-2670 -3711 0
-2668 -2749 0
-2669 -2750 0
-2670 -2751 0
-2668 -3154 0
-2669 -3155 0
-2670 -3156 0
-2668 -3013 0
-2669 -3014 0
-2670 -3015 0
-2671 -2968 0
-2672 -2969 0
-2673 -2970 0
-2671 -3331 0
-2672 -3332 0
-2673 -3333 0
-2671 -2938 0
-2672 -2939 0
-2673 -2940 0
-2674 -3346 0
-2675 -3347 0
-2676 -3348 0
-2674 -3193 0
-2675 -3194 0
-2676 -3195 0
-2674 -3085 0
-2675 -3086 0
-2676 -3087 0
-2674 -3259 0
-2675 -3260 0
-2676 -3261 0
-2677 -3346 0
-2678 -3347 0
-2679 -3348 0
-2680 -3448 0
-2681 -3449 0
-2682 -3450 0
-2680 -3334 0
-2681 -3335 0
-2682 -3336 0
-2680 -2977 0
-2681 -2978 0
-2682 -2979 0
-2683 -2971 0
-2684 -2972 0
-2685 -2973 0
-2686 -3514 0
-2687 -3515 0
-2688 -3516 0
-2686 -3601 0
-2687 -3602 0
-2688 -3603 0
-2686 -2701 0
-2687 -2702 0
-2688 -2703 0
-2686 -3259 0
-2687 -3260 0
-2688 -3261 0
-2689 -2773 0
-2690 -2774 0
-2691 -2775 0
-2689 -3307 0
-2690 -3308 0
-2691 -3309 0
-2695 -2875 0
-2696 -2876 0
-2697 -2877 0
-2698 -3763 0
-2699 -3764 0
-2700 -3765 0
-2698 -2998 0
-2699 -2999 0
-2700 -3000 0
-2704 -3373 0
-2705 -3374 0
-2706 -3375 0
-2707 -3142 0
-2708 -3143 0
-2709 -3144 0
-2707 -3073 0
-2708 -3074 0
-2709 -3075 0
-2710 -3151 0
-2711 -3152 0
-2712 -3153 0
-2713 -3127 0
-2714 -3128 0
-2715 -3129 0
-2716 -3112 0
-2717 -3113 0
-2718 -3114 0
-2722 -3016 0
-2723 -3017 0
-2724 -3018 0
-2725 -3514 0
-2726 -3515 0
-2727 -3516 0
-2725 -3481 0
-2726 -3482 0
-2727 -3483 0
-2728 -3229 0
-2729 -3230 0
-2730 -3231 0
-2728 -3181 0
-2729 -3182 0
-2730 -3183 0
-2731 -3796 0
-2732 -3797 0
-2733 -3798 0
-2737 -2917 0
-2738 -2918 0
-2739 -2919 0
-2740 -3229 0
-2741 -3230 0
-2742 -3231 0
-2743 -3067 0
-2744 -3068 0
-2745 -3069 0
-2743 -3592 0
-2744 -3593 0
-2745 -3594 0
-2746 -2968 0
-2747 -2969 0
-2748 -2970 0
-2746 -3175 0
-2747 -3176 0
-2748 -3177 0
-2752 -3466 0
-2753 -3467 0
-2754 -3468 0
-2758 -2866 0
-2759 -2867 0
-2760 -2868 0
-2758 -2989 0
-2759 -2990 0
-2760 -2991 0
-2764 -2887 0
-2765 -2888 0
-2766 -2889 0
-2767 -2992 0
-2768 -2993 0
-2769 -2994 0
-2767 -3016 0
-2768 -3017 0
-2769 -3018 0
-2767 -3244 0
-2768 -3245 0
-2769 -3246 0
-2770 -3793 0
-2771 -3794 0
-2772 -3795 0
-2773 -3652 0
-2774 -3653 0
-2775 -3654 0
-2773 -3361 0
-2774 -3362 0
-2775 -3363 0
-2776 -3064 0
-2777 -3065 0
-2778 -3066 0
-2782 -3379 0
-2783 -3380 0
-2784 -3381 0
-2782 -3670 0
-2783 -3671 0
-2784 -3672 0
-2782 -3529 0
-2783 -3530 0
-2784 -3531 0
-2785 -3130 0
-2786 -3131 0
-2787 -3132 0
-2785 -2872 0
-2786 -2873 0
-2787 -2874 0
-2785 -3097 0
-2786 -3098 0
-2787 -3099 0
-2785 -3733 0
-2786 -3734 0
-2787 -3735 0
-2785 -3715 0
-2786 -3716 0
-2787 -3717 0
-2788 -3124 0
-2789 -3125 0
-2790 -3126 0
-2788 -2986 0
-2789 -2987 0
-2790 -2988 0
-2788 -3511 0
-2789 -3512 0
-2790 -3513 0
-2788 -2809 0
-2789 -2810 0
-2790 -2811 0
-2791 -2860 0
-2792 -2861 0
-2793 -2862 0
-2794 -3142 0
-2795 -3143 0
-2796 -3144 0
-2794 -2908 0
-2795 -2909 0
-2796 -2910 0
-2794 -3358 0
-2795 -3359 0
-2796 -3360 0
-2797 -3112 0
-2798 -3113 0
-2799 -3114 0
-2797 -3211 0
-2798 -3212 0
-2799 -3213 0
-2797 -3337 0
-2798 -3338 0
-2799 -3339 0
-2800 -3829 0
-2801 -3830 0
-2802 -3831 0
-2803 -3142 0
-2804 -3143 0
-2805 -3144 0
-2803 -2851 0
-2804 -2852 0
-2805 -2853 0
-2806 -3367 0
-2807 -3368 0
-2808 -3369 0
-2809 -3805 0
-2810 -3806 0
-2811 -3807 0
-2809 -2917 0
-2810 -2918 0
-2811 -2919 0
-2812 -3151 0
-2813 -3152 0
-2814 -3153 0
-2821 -3685 0
-2822 -3686 0
-2823 -3687 0
-2824 -3403 0
-2825 -3404 0
-2826 -3405 0
-2824 -3013 0
-2825 -3014 0
-2826 -3015 0
-2827 -2992 0
-2828 -2993 0
-2829 -2994 0
-2827 -3271 0
-2828 -3272 0
-2829 -3273 0
-2827 -3547 0
-2828 -3548 0
-2829 -3549 0
-2827 -3016 0
-2828 -3017 0
-2829 -3018 0
-2827 -2911 0
-2828 -2912 0
-2829 -2913 0
-2827 -3613 0
-2828 -3614 0
-2829 -3615 0
-2830 -3127 0
-2831 -3128 0
-2832 -3129 0
-2833 -3100 0
-2834 -3101 0
-2835 -3102 0
-2839 -3508 0
-2840 -3509 0
-2841 -3510 0
-2842 -3322 0
-2843 -3323 0
-2844 -3324 0
-2842 -3568 0
-2843 -3569 0
-2844 -3570 0
-2848 -3562 0
-2849 -3563 0
-2850 -3564 0
-2848 -3061 0
-2849 -3062 0
-2850 -3063 0
-2848 -2857 0
-2849 -2858 0
-2850 -2859 0
-2851 -3577 0
-2852 -3578 0
-2853 -3579 0
-2851 -3826 0
-2852 -3827 0
-2853 -3828 0
-2851 -3292 0
-2852 -3293 0
-2853 -3294 0
-2851 -3511 0
-2852 -3512 0
-2853 -3513 0
-2854 -3556 0
-2855 -3557 0
-2856 -3558 0
-2857 -3187 0
-2858 -3188 0
-2859 -3189 0
-2860 -2884 0
-2861 -2885 0
-2862 -2886 0
-2860 -3091 0
-2861 -3092 0
-2862 -3093 0
-2866 -3196 0
-2867 -3197 0
-2868 -3198 0
-2866 -3526 0
-2867 -3527 0
-2868 -3528 0
-2866 -3778 0
-2867 -3779 0
-2868 -3780 0
-2866 -3163 0
-2867 -3164 0
-2868 -3165 0
-2866 -3166 0
-2867 -3167 0
-2868 -3168 0
-2869 -3601 0
-2870 -3602 0
-2871 -3603 0
-2872 -3661 0
-2873 -3662 0
-2874 -3663 0
-2872 -3274 0
-2873 -3275 0
-2874 -3276 0
-2875 -3094 0
-2876 -3095 0
-2877 -3096 0
-2878 -3643 0
-2879 -3644 0
-2880 -3645 0
-2878 -3022 0
-2879 -3023 0
-2880 -3024 0
-2878 -3256 0
-2879 -3257 0
-2880 -3258 0
-2881 -3052 0
-2882 -3053 0
-2883 -3054 0
-2881 -3247 0
-2882 -3248 0
-2883 -3249 0
-2881 -3466 0
-2882 -3467 0
-2883 -3468 0
-2884 -3493 0
-2885 -3494 0
-2886 -3495 0
-2884 -3325 0
-2885 -3326 0
-2886 -3327 0
-2884 -3016 0
-2885 -3017 0
-2886 -3018 0
-2890 -3673 0
-2891 -3674 0
-2892 -3675 0
-2893 -3262 0
-2894 -3263 0
-2895 -3264 0
-2896 -3442 0
-2897 -3443 0
-2898 -3444 0
-2899 -2926 0
-2900 -2927 0
-2901 -2928 0
-2899 -2959 0
-2900 -2960 0
-2901 -2961 0
-2902 -2965 0
-2903 -2966 0
-2904 -2967 0
-2902 -3004 0
-2903 -3005 0
-2904 -3006 0
-2905 -2992 0
-2906 -2993 0
-2907 -2994 0
-2905 -3340 0
-2906 -3341 0
-2907 -3342 0
-2908 -3337 0
-2909 -3338 0
-2910 -3339 0
-2911 -3088 0
-2912 -3089 0
-2913 -3090 0
-2911 -3301 0
-2912 -3302 0
-2913 -3303 0
-2914 -3085 0
-2915 -3086 0
-2916 -3087 0
-2917 -3421 0
-2918 -3422 0
-2919 -3423 0
-2917 -2986 0
-2918 -2987 0
-2919 -2988 0
-2917 -3034 0
-2918 -3035 0
-2919 -3036 0
-2923 -3055 0
-2924 -3056 0
-2925 -3057 0
-2926 -3436 0
-2927 -3437 0
-2928 -3438 0
-2932 -3154 0
-2933 -3155 0
-2934 -3156 0
-2932 -3310 0
-2933 -3311 0
-2934 -3312 0
-2935 -3577 0
-2936 -3578 0
-2937 -3579 0
-2938 -3319 0
-2939 -3320 0
-2940 -3321 0
-2944 -3673 0
-2945 -3674 0
-2946 -3675 0
-2953 -3001 0
-2954 -3002 0
-2955 -3003 0
-2953 -3544 0
-2954 -3545 0
-2955 -3546 0
-2953 -3145 0
-2954 -3146 0
-2955 -3147 0
-2962 -3430 0
-2963 -3431 0
-2964 -3432 0
-2962 -3409 0
-2963 -3410 0
-2964 -3411 0
-2962 -3472 0
-2963 -3473 0
-2964 -3474 0
-2962 -3217 0
-2963 -3218 0
-2964 -3219 0
-2962 -3523 0
-2963 -3524 0
-2964 -3525 0
-2965 -3082 0
-2966 -3083 0
-2967 -3084 0
-2965 -3523 0
-2966 -3524 0
-2967 -3525 0
-2968 -3052 0
-2969 -3053 0
-2970 -3054 0
-2968 -3820 0
-2969 -3821 0
-2970 -3822 0
-2971 -2998 0
-2972 -2999 0
-2973 -3000 0
-2971 -3529 0
-2972 -3530 0
-2973 -3531 0
-2974 -3463 0
-2975 -3464 0
-2976 -3465 0
-2974 -3484 0
-2975 -3485 0
-2976 -3486 0
-2974 -3391 0
-2975 -3392 0
-2976 -3393 0
-2977 -2998 0
-2978 -2999 0
-2979 -3000 0
-2977 -3418 0
-2978 -3419 0
-2979 -3420 0
-2980 -3637 0
-2981 -3638 0
-2982 -3639 0
-2980 -2983 0
-2981 -2984 0
-2982 -2985 0
-2983 -3064 0
-2984 -3065 0
-2985 -3066 0
-2986 -3214 0
-2987 -3215 0
-2988 -3216 0
-2989 -3778 0
-2990 -3779 0
-2991 -3780 0
-2992 -3067 0
-2993 -3068 0
-2994 -3069 0
-2992 -3286 0
-2993 -3287 0
-2994 -3288 0
-2992 -3592 0
-2993 -3593 0
-2994 -3594 0
-2992 -3088 0
-2993 -3089 0
-2994 -3090 0
-2995 -3046 0
-2996 -3047 0
-2997 -3048 0
-2998 -3787 0
-2999 -3788 0
-3000 -3789 0
-2998 -3082 0
-2999 -3083 0
-3000 -3084 0
-3001 -3130 0
-3002 -3131 0
-3003 -3132 0
-3004 -3142 0
-3005 -3143 0
-3006 -3144 0
-3004 -3076 0
-3005 -3077 0
-3006 -3078 0
-3004 -3082 0
-3005 -3083 0
-3006 -3084 0
-3010 -3085 0
-3011 -3086 0
-3012 -3087 0
-3010 -3481 0
-3011 -3482 0
-3012 -3483 0
-3010 -3064 0
-3011 -3065 0
-3012 -3066 0
-3013 -3490 0
-3014 -3491 0
-3015 -3492 0
-3013 -3202 0
-3014 -3203 0
-3015 -3204 0
-3016 -3103 0
-3017 -3104 0
-3018 -3105 0
-3016 -3316 0
-3017 -3317 0
-3018 -3318 0
-3019 -3307 0
-3020 -3308 0
-3021 -3309 0
-3022 -3706 0
-3023 -3707 0
-3024 -3708 0
-3022 -3250 0
-3023 -3251 0
-3024 -3252 0
-3022 -3121 0
-3023 -3122 0
-3024 -3123 0
-3022 -3298 0
-3023 -3299 0
-3024 -3300 0
-3025 -3637 0
-3026 -3638 0
-3027 -3639 0
-3025 -3523 0
-3026 -3524 0
-3027 -3525 0
-3031 -3427 0
-3032 -3428 0
-3033 -3429 0
-3031 -3538 0
-3032 -3539 0
-3033 -3540 0
-3034 -3619 0
-3035 -3620 0
-3036 -3621 0
-3037 -3172 0
-3038 -3173 0
-3039 -3174 0
-3037 -3505 0
-3038 -3506 0
-3039 -3507 0
-3037 -3334 0
-3038 -3335 0
-3039 -3336 0
-3043 -3217 0
-3044 -3218 0
-3045 -3219 0
-3043 -3313 0
-3044 -3314 0
-3045 -3315 0
-3043 -3109 0
-3044 -3110 0
-3045 -3111 0
-3046 -3586 0
-3047 -3587 0
-3048 -3588 0
-3046 -3178 0
-3047 -3179 0
-3048 -3180 0
-3046 -3205 0
-3047 -3206 0
-3048 -3207 0
-3052 -3370 0
-3053 -3371 0
-3054 -3372 0
-3052 -3808 0
-3053 -3809 0
-3054 -3810 0
-3055 -3379 0
-3056 -3380 0
-3057 -3381 0
-3061 -3280 0
-3062 -3281 0
-3063 -3282 0
-3061 -3679 0
-3062 -3680 0
-3063 -3681 0
-3064 -3637 0
-3065 -3638 0
-3066 -3639 0
-3067 -3661 0
-3068 -3662 0
-3069 -3663 0
-3067 -3271 0
-3068 -3272 0
-3069 -3273 0
-3067 -3325 0
-3068 -3326 0
-3069 -3327 0
-3067 -3247 0
-3068 -3248 0
-3069 -3249 0
-3067 -3208 0
-3068 -3209 0
-3069 -3210 0
-3073 -3622 0
-3074 -3623 0
-3075 -3624 0
-3073 -3541 0
-3074 -3542 0
-3075 -3543 0
-3073 -3382 0
-3074 -3383 0
-3075 -3384 0
-3076 -3622 0
-3077 -3623 0
-3078 -3624 0
-3076 -3382 0
-3077 -3383 0
-3078 -3384 0
-3079 -3292 0
-3080 -3293 0
-3081 -3294 0
-3082 -3805 0
-3083 -3806 0
-3084 -3807 0
-3082 -3418 0
-3083 -3419 0
-3084 -3420 0
-3085 -3343 0
-3086 -3344 0
-3087 -3345 0
-3085 -3181 0
-3086 -3182 0
-3087 -3183 0
-3085 -3262 0
-3086 -3263 0
-3087 -3264 0
-3088 -3325 0
-3089 -3326 0
-3090 -3327 0
-3088 -3244 0
-3089 -3245 0
-3090 -3246 0
-3094 -3322 0
-3095 -3323 0
-3096 -3324 0
-3097 -3823 0
-3098 -3824 0
-3099 -3825 0
-3097 -3145 0
-3098 -3146 0
-3099 -3147 0
-3100 -3460 0
-3101 -3461 0
-3102 -3462 0
-3103 -3469 0
-3104 -3470 0
-3105 -3471 0
-3109 -3463 0
-3110 -3464 0
-3111 -3465 0
-3109 -3484 0
-3110 -3485 0
-3111 -3486 0
-3112 -3607 0
-3113 -3608 0
-3114 -3609 0
-3115 -3265 0
-3116 -3266 0
-3117 -3267 0
-3115 -3325 0
-3116 -3326 0
-3117 -3327 0
-3115 -3340 0
-3116 -3341 0
-3117 -3342 0
-3121 -3580 0
-3122 -3581 0
-3123 -3582 0
-3124 -3214 0
-3125 -3215 0
-3126 -3216 0
-3124 -3376 0
-3125 -3377 0
-3126 -3378 0
-3127 -3550 0
-3128 -3551 0
-3129 -3552 0
-3130 -3145 0
-3131 -3146 0
-3132 -3147 0
-3130 -3424 0
-3131 -3425 0
-3132 -3426 0
-3133 -3157 0
-3134 -3158 0
-3135 -3159 0
-3136 -3646 0
-3137 -3647 0
-3138 -3648 0
-3136 -3184 0
-3137 -3185 0
-3138 -3186 0
-3142 -3622 0
-3143 -3623 0
-3144 -3624 0
-3145 -3412 0
-3146 -3413 0
-3147 -3414 0
-3145 -3457 0
-3146 -3458 0
-3147 -3459 0
-3148 -3631 0
-3149 -3632 0
-3150 -3633 0
-3151 -3283 0
-3152 -3284 0
-3153 -3285 0
-3154 -3304 0
-3155 -3305 0
-3156 -3306 0
-3154 -3226 0
-3155 -3227 0
-3156 -3228 0
-3157 -3754 0
-3158 -3755 0
-3159 -3756 0
-3160 -3790 0
-3161 -3791 0
-3162 -3792 0
-3160 -3217 0
-3161 -3218 0
-3162 -3219 0
-3160 -3385 0
-3161 -3386 0
-3162 -3387 0
-3163 -3388 0
-3164 -3389 0
-3165 -3390 0
-3166 -3190 0
-3167 -3191 0
-3168 -3192 0
-3169 -3193 0
-3170 -3194 0
-3171 -3195 0
-3169 -3433 0
-3170 -3434 0
-3171 -3435 0
-3172 -3724 0
-3173 -3725 0
-3174 -3726 0
-3172 -3691 0
-3173 -3692 0
-3174 -3693 0
-3175 -3271 0
-3176 -3272 0
-3177 -3273 0
-3175 -3208 0
-3176 -3209 0
-3177 -3210 0
-3178 -3403 0
-3179 -3404 0
-3180 -3405 0
-3178 -3835 0
-3179 -3836 0
-3180 -3837 0
-3181 -3760 0
-3182 -3761 0
-3183 -3762 0
-3181 -3355 0
-3182 -3356 0
-3183 -3357 0
-3184 -3652 0
-3185 -3653 0
-3186 -3654 0
-3184 -3361 0
-3185 -3362 0
-3186 -3363 0
-3187 -3562 0
-3188 -3563 0
-3189 -3564 0
-3193 -3343 0
-3194 -3344 0
-3195 -3345 0
-3196 -3532 0
-3197 -3533 0
-3198 -3534 0
-3199 -3658 0
-3200 -3659 0
-3201 -3660 0
-3211 -3358 0
-3212 -3359 0
-3213 -3360 0
-3217 -3742 0
-3218 -3743 0
-3219 -3744 0
-3220 -3466 0
-3221 -3467 0
-3222 -3468 0
-3220 -3454 0
-3221 -3455 0
-3222 -3456 0
-3223 -3775 0
-3224 -3776 0
-3225 -3777 0
-3226 -3781 0
-3227 -3782 0
-3228 -3783 0
-3232 -3814 0
-3233 -3815 0
-3234 -3816 0
-3232 -3388 0
-3233 -3389 0
-3234 -3390 0
-3235 -3436 0
-3236 -3437 0
-3237 -3438 0
-3244 -3808 0
-3245 -3809 0
-3246 -3810 0
-3247 -3286 0
-3248 -3287 0
-3249 -3288 0
-3247 -3715 0
-3248 -3716 0
-3249 -3717 0
-3250 -3553 0
-3251 -3554 0
-3252 -3555 0
-3253 -3790 0
-3254 -3791 0
-3255 -3792 0
-3253 -3511 0
-3254 -3512 0
-3255 -3513 0
-3256 -3655 0
-3257 -3656 0
-3258 -3657 0
-3259 -3280 0
-3260 -3281 0
-3261 -3282 0
-3262 -3355 0
-3263 -3356 0
-3264 -3357 0
-3265 -3559 0
-3266 -3560 0
-3267 -3561 0
-3268 -3310 0
-3269 -3311 0
-3270 -3312 0
-3271 -3277 0
-3272 -3278 0
-3273 -3279 0
-3271 -3499 0
-3272 -3500 0
-3273 -3501 0
-3274 -3832 0
-3275 -3833 0
-3276 -3834 0
-3274 -3499 0
-3275 -3500 0
-3276 -3501 0
-3277 -3829 0
-3278 -3830 0
-3279 -3831 0
-3280 -3562 0
-3281 -3563 0
-3282 -3564 0
-3280 -3433 0
-3281 -3434 0
-3282 -3435 0
-3280 -3601 0
-3281 -3602 0
-3282 -3603 0
-3283 -3775 0
-3284 -3776 0
-3285 -3777 0
-3283 -3700 0
-3284 -3701 0
-3285 -3702 0
-3286 -3439 0
-3287 -3440 0
-3288 -3441 0
-3289 -3790 0
-3290 -3791 0
-3291 -3792 0
-3292 -3649 0
-3293 -3650 0
-3294 -3651 0
-3295 -3829 0
-3296 -3830 0
-3297 -3831 0
-3295 -3655 0
-3296 -3656 0
-3297 -3657 0
-3298 -3397 0
-3299 -3398 0
-3300 -3399 0
-3298 -3445 0
-3299 -3446 0
-3300 -3447 0
-3301 -3706 0
-3302 -3707 0
-3303 -3708 0
-3301 -3547 0
-3302 -3548 0
-3303 -3549 0
-3301 -3589 0
-3302 -3590 0
-3303 -3591 0
-3304 -3709 0
-3305 -3710 0
-3306 -3711 0
-3304 -3436 0
-3305 -3437 0
-3306 -3438 0
-3310 -3772 0
-3311 -3773 0
-3312 -3774 0
-3313 -3463 0
-3314 -3464 0
-3315 -3465 0
-3313 -3442 0
-3314 -3443 0
-3315 -3444 0
-3313 -3607 0
-3314 -3608 0
-3315 -3609 0
-3316 -3589 0
-3317 -3590 0
-3318 -3591 0
-3316 -3541 0
-3317 -3542 0
-3318 -3543 0
-3316 -3547 0
-3317 -3548 0
-3318 -3549 0
-3316 -3685 0
-3317 -3686 0
-3318 -3687 0
-3316 -3538 0
-3317 -3539 0
-3318 -3540 0
-3322 -3670 0
-3323 -3671 0
-3324 -3672 0
-3322 -3529 0
-3323 -3530 0
-3324 -3531 0
-3334 -3427 0
-3335 -3428 0
-3336 -3429 0
-3340 -3526 0
-3341 -3527 0
-3342 -3528 0
-3343 -3772 0
-3344 -3773 0
-3345 -3774 0
-3349 -3547 0
-3350 -3548 0
-3351 -3549 0
-3352 -3526 0
-3353 -3527 0
-3354 -3528 0
-3355 -3565 0
-3356 -3566 0
-3357 -3567 0
-3358 -3622 0
-3359 -3623 0
-3360 -3624 0
-3364 -3373 0
-3365 -3374 0
-3366 -3375 0
-3373 -3394 0
-3374 -3395 0
-3375 -3396 0
-3382 -3784 0
-3383 -3785 0
-3384 -3786 0
-3385 -3640 0
-3386 -3641 0
-3387 -3642 0
-3385 -3748 0
-3386 -3749 0
-3387 -3750 0
-3388 -3604 0
-3389 -3605 0
-3390 -3606 0
-3391 -3496 0
-3392 -3497 0
-3393 -3498 0
-3391 -3568 0
-3392 -3569 0
-3393 -3570 0
-3394 -3583 0
-3395 -3584 0
-3396 -3585 0
-3397 -3673 0
-3398 -3674 0
-3399 -3675 0
-3400 -3598 0
-3401 -3599 0
-3402 -3600 0
-3403 -3688 0
-3404 -3689 0
-3405 -3690 0
-3403 -3616 0
-3404 -3617 0
-3405 -3618 0
-3406 -3514 0
-3407 -3515 0
-3408 -3516 0
-3406 -3481 0
-3407 -3482 0
-3408 -3483 0
-3421 -3769 0
-3422 -3770 0
-3423 -3771 0
-3424 -3448 0
-3425 -3449 0
-3426 -3450 0
-3427 -3505 0
-3428 -3506 0
-3429 -3507 0
-3430 -3718 0
-3431 -3719 0
-3432 -3720 0
-3433 -3763 0
-3434 -3764 0
-3435 -3765 0
-3433 -3784 0
-3434 -3785 0
-3435 -3786 0
-3433 -3664 0
-3434 -3665 0
-3435 -3666 0
-3433 -3607 0
-3434 -3608 0
-3435 -3609 0
-3439 -3715 0
-3440 -3716 0
-3441 -3717 0
-3445 -3679 0
-3446 -3680 0
-3447 -3681 0
-3445 -3793 0
-3446 -3794 0
-3447 -3795 0
-3448 -3538 0
-3449 -3539 0
-3450 -3540 0
-3451 -3595 0
-3452 -3596 0
-3453 -3597 0
-3454 -3712 0
-3455 -3713 0
-3456 -3714 0
-3454 -3610 0
-3455 -3611 0
-3456 -3612 0
-3457 -3823 0
-3458 -3824 0
-3459 -3825 0
-3460 -3778 0
-3461 -3779 0
-3462 -3780 0
-3460 -3526 0
-3461 -3527 0
-3462 -3528 0
-3466 -3559 0
-3467 -3560 0
-3468 -3561 0
-3472 -3742 0
-3473 -3743 0
-3474 -3744 0
-3472 -3811 0
-3473 -3812 0
-3474 -3813 0
-3475 -3502 0
-3476 -3503 0
-3477 -3504 0
-3475 -3652 0
-3476 -3653 0
-3477 -3654 0
-3478 -3481 0
-3479 -3482 0
-3480 -3483 0
-3481 -3835 0
-3482 -3836 0
-3483 -3837 0
-3484 -3496 0
-3485 -3497 0
-3486 -3498 0
-3487 -3625 0
-3488 -3626 0
-3489 -3627 0
-3487 -3646 0
-3488 -3647 0
-3489 -3648 0
-3487 -3682 0
-3488 -3683 0
-3489 -3684 0
-3490 -3709 0
-3491 -3710 0
-3492 -3711 0
-3493 -3700 0
-3494 -3701 0
-3495 -3702 0
-3493 -3841 0
-3494 -3842 0
-3495 -3843 0
-3499 -3661 0
-3500 -3662 0
-3501 -3663 0
-3499 -3829 0
-3500 -3830 0
-3501 -3831 0
-3502 -3646 0
-3503 -3647 0
-3504 -3648 0
-3505 -3724 0
-3506 -3725 0
-3507 -3726 0
-3508 -3733 0
-3509 -3734 0
-3510 -3735 0
-3508 -3715 0
-3509 -3716 0
-3510 -3717 0
-3511 -3691 0
-3512 -3692 0
-3513 -3693 0
-3511 -3769 0
-3512 -3770 0
-3513 -3771 0
-3514 -3742 0
-3515 -3743 0
-3516 -3744 0
-3517 -3604 0
-3518 -3605 0
-3519 -3606 0
-3541 -3784 0
-3542 -3785 0
-3543 -3786 0
-3556 -3793 0
-3557 -3794 0
-3558 -3795 0
-3556 -3649 0
-3557 -3650 0
-3558 -3651 0
-3559 -3817 0
-3560 -3818 0
-3561 -3819 0
-3565 -3760 0
-3566 -3761 0
-3567 -3762 0
-3568 -3670 0
-3569 -3671 0
-3570 -3672 0
-3571 -3679 0
-3572 -3680 0
-3573 -3681 0
-3574 -3646 0
-3575 -3647 0
-3576 -3648 0
-3577 -3721 0
-3578 -3722 0
-3579 -3723 0
-3580 -3799 0
-3581 -3800 0
-3582 -3801 0
-3580 -3655 0
-3581 -3656 0
-3582 -3657 0
-3583 -3703 0
-3584 -3704 0
-3585 -3705 0
-3589 -3628 0
-3590 -3629 0
-3591 -3630 0
-3589 -3808 0
-3590 -3809 0
-3591 -3810 0
-3592 -3613 0
-3593 -3614 0
-3594 -3615 0
-3595 -3814 0
-3596 -3815 0
-3597 -3816 0
-3595 -3676 0
-3596 -3677 0
-3597 -3678 0
-3601 -3742 0
-3602 -3743 0
-3603 -3744 0
-3643 -3706 0
-3644 -3707 0
-3645 -3708 0
-3643 -3655 0
-3644 -3656 0
-3645 -3657 0
-3646 -3799 0
-3647 -3800 0
-3648 -3801 0
-3646 -3655 0
-3647 -3656 0
-3648 -3657 0
-3655 -3757 0
-3656 -3758 0
-3657 -3759 0
-3655 -3832 0
-3656 -3833 0
-3657 -3834 0
-3658 -3757 0
-3659 -3758 0
-3660 -3759 0
-3661 -3715 0
-3662 -3716 0
-3663 -3717 0
-3667 -3814 0
-3668 -3815 0
-3669 -3816 0
-3667 -3685 0
-3668 -3686 0
-3669 -3687 0
-3670 -3802 0
-3671 -3803 0
-3672 -3804 0
-3682 -3742 0
-3683 -3743 0
-3684 -3744 0
-3685 -3784 0
-3686 -3785 0
-3687 -3786 0
-3688 -3835 0
-3689 -3836 0
-3690 -3837 0
-3691 -3787 0
-3692 -3788 0
-3693 -3789 0
-3694 -3841 0
-3695 -3842 0
-3696 -3843 0
-3697 -3748 0
-3698 -3749 0
-3699 -3750 0
-3700 -3766 0
-3701 -3767 0
-3702 -3768 0
-3733 -3823 0
-3734 -3824 0
-3735 -3825 0
-3760 -3796 0
-3761 -3797 0
-3762 -3798 0
-3763 -3838 0
-3764 -3839 0
-3765 -3840 0
-3766 -3775 0
-3767 -3776 0
-3768 -3777 0
-3766 -3841 0
-3767 -3842 0
-3768 -3843 0
-3769 -3790 0
-3770 -3791 0
-3771 -3792 0
-3781 -3793 0
-3782 -3794 0
-3783 -3795 0
-3829 -3832 0
-3830 -3833 0
-3831 -3834 0
1 0
1826 0
