p cnf 777 2127
1 2 3 0
4 5 6 0
7 8 9 0
10 11 12 0
13 14 15 0
16 17 18 0
19 20 21 0
22 23 24 0
25 26 27 0
28 29 30 0
31 32 33 0
34 35 36 0
37 38 39 0
40 41 42 0
43 44 45 0
46 47 48 0
49 50 51 0
52 53 54 0
55 56 57 0
58 59 60 0
61 62 63 0
64 65 66 0
67 68 69 0
70 71 72 0
73 74 75 0
76 77 78 0
79 80 81 0
82 83 84 0
85 86 87 0
88 89 90 0
91 92 93 0
94 95 96 0
97 98 99 0
100 101 102 0
103 104 105 0
106 107 108 0
109 110 111 0
112 113 114 0
115 116 117 0
118 119 120 0
121 122 123 0
124 125 126 0
127 128 129 0
130 131 132 0
133 134 135 0
136 137 138 0
139 140 141 0
142 143 144 0
145 146 147 0
148 149 150 0
151 152 153 0
154 155 156 0
157 158 159 0
160 161 162 0
163 164 165 0
166 167 168 0
169 170 171 0
172 173 174 0
175 176 177 0
178 179 180 0
181 182 183 0
184 185 186 0
187 188 189 0
190 191 192 0
193 194 195 0
196 197 198 0
199 200 201 0
202 203 204 0
205 206 207 0
208 209 210 0
211 212 213 0
214 215 216 0
217 218 219 0
220 221 222 0
223 224 225 0
226 227 228 0
229 230 231 0
232 233 234 0
235 236 237 0
238 239 240 0
241 242 243 0
244 245 246 0
247 248 249 0
250 251 252 0
253 254 255 0
256 257 258 0
259 260 261 0
262 263 264 0
265 266 267 0
268 269 270 0
271 272 273 0
274 275 276 0
277 278 279 0
280 281 282 0
283 284 285 0
286 287 288 0
289 290 291 0
292 293 294 0
295 296 297 0
298 299 300 0
301 302 303 0
304 305 306 0
307 308 309 0
310 311 312 0
313 314 315 0
316 317 318 0
319 320 321 0
322 323 324 0
325 326 327 0
328 329 330 0
331 332 333 0
334 335 336 0
337 338 339 0
340 341 342 0
343 344 345 0
346 347 348 0
349 350 351 0
352 353 354 0
355 356 357 0
358 359 360 0
361 362 363 0
364 365 366 0
367 368 369 0
370 371 372 0
373 374 375 0
376 377 378 0
379 380 381 0
382 383 384 0
385 386 387 0
388 389 390 0
391 392 393 0
394 395 396 0
397 398 399 0
400 401 402 0
403 404 405 0
406 407 408 0
409 410 411 0
412 413 414 0
415 416 417 0
418 419 420 0
421 422 423 0
424 425 426 0
427 428 429 0
430 431 432 0
433 434 435 0
436 437 438 0
439 440 441 0
442 443 444 0
445 446 447 0
448 449 450 0
451 452 453 0
454 455 456 0
457 458 459 0
460 461 462 0
463 464 465 0
466 467 468 0
469 470 471 0
472 473 474 0
475 476 477 0
478 479 480 0
481 482 483 0
484 485 486 0
487 488 489 0
490 491 492 0
493 494 495 0
496 497 498 0
499 500 501 0
502 503 504 0
505 506 507 0
508 509 510 0
511 512 513 0
514 515 516 0
517 518 519 0
520 521 522 0
523 524 525 0
526 527 528 0
529 530 531 0
532 533 534 0
535 536 537 0
538 539 540 0
541 542 543 0
544 545 546 0
547 548 549 0
550 551 552 0
553 554 555 0
556 557 558 0
559 560 561 0
562 563 564 0
565 566 567 0
568 569 570 0
571 572 573 0
574 575 576 0
577 578 579 0
580 581 582 0
583 584 585 0
586 587 588 0
589 590 591 0
592 593 594 0
595 596 597 0
598 599 600 0
601 602 603 0
604 605 606 0
607 608 609 0
610 611 612 0
613 614 615 0
616 617 618 0
619 620 621 0
622 623 624 0
625 626 627 0
628 629 630 0
631 632 633 0
634 635 636 0
637 638 639 0
640 641 642 0
643 644 645 0
646 647 648 0
649 650 651 0
652 653 654 0
655 656 657 0
658 659 660 0
661 662 663 0
664 665 666 0
667 668 669 0
670 671 672 0
673 674 675 0
676 677 678 0
679 680 681 0
682 683 684 0
685 686 687 0
688 689 690 0
691 692 693 0
694 695 696 0
697 698 699 0
700 701 702 0
703 704 705 0
706 707 708 0
709 710 711 0
712 713 714 0
715 716 717 0
718 719 720 0
721 722 723 0
724 725 726 0
727 728 729 0
730 731 732 0
733 734 735 0
736 737 738 0
739 740 741 0
742 743 744 0
745 746 747 0
748 749 750 0
751 752 753 0
754 755 756 0
757 758 759 0
760 761 762 0
763 764 765 0
766 767 768 0
769 770 771 0
772 773 774 0
775 776 777 0
-1 -679 0
-2 -680 0
-3 -681 0
-1 -454 0
-2 -455 0
-3 -456 0
-1 -82 0
-2 -83 0
-3 -84 0
-1 -64 0
-2 -65 0
-3 -66 0
-4 -472 0
-5 -473 0
-6 -474 0
-4 -82 0
-5 -83 0
-6 -84 0
-4 -496 0
-5 -497 0
-6 -498 0
-4 -91 0
-5 -92 0
-6 -93 0
-7 -82 0
-8 -83 0
-9 -84 0
-7 -100 0
-8 -101 0
-9 -102 0
-7 -619 0
-8 -620 0
-9 -621 0
-7 -478 0
-8 -479 0
-9 -480 0
-10 -91 0
-11 -92 0
-12 -93 0
-10 -109 0
-11 -110 0
-12 -111 0
-10 -556 0
-11 -557 0
-12 -558 0
-13 -550 0
-14 -551 0
-15 -552 0
-13 -454 0
-14 -455 0
-15 -456 0
-13 -559 0
-14 -560 0
-15 -561 0
-13 -649 0
-14 -650 0
-15 -651 0
-13 -127 0
-14 -128 0
-15 -129 0
-13 -511 0
-14 -512 0
-15 -513 0
-13 -91 0
-14 -92 0
-15 -93 0
-16 -82 0
-17 -83 0
-18 -84 0
-16 -730 0
-17 -731 0
-18 -732 0
-16 -160 0
-17 -161 0
-18 -162 0
-16 -583 0
-17 -584 0
-18 -585 0
-19 -676 0
-20 -677 0
-21 -678 0
-19 -589 0
-20 -590 0
-21 -591 0
-19 -115 0
-20 -116 0
-21 -117 0
-22 -451 0
-23 -452 0
-24 -453 0
-22 -517 0
-23 -518 0
-24 -519 0
-22 -646 0
-23 -647 0
-24 -648 0
-22 -529 0
-23 -530 0
-24 -531 0
-25 -109 0
-26 -110 0
-27 -111 0
-25 -772 0
-26 -773 0
-27 -774 0
-25 -742 0
-26 -743 0
-27 -744 0
-28 -109 0
-29 -110 0
-30 -111 0
-28 -646 0
-29 -647 0
-30 -648 0
-28 -772 0
-29 -773 0
-30 -774 0
-31 -241 0
-32 -242 0
-33 -243 0
-31 -742 0
-32 -743 0
-33 -744 0
-31 -475 0
-32 -476 0
-33 -477 0
-31 -478 0
-32 -479 0
-33 -480 0
-31 -40 0
-32 -41 0
-33 -42 0
-34 -244 0
-35 -245 0
-36 -246 0
-34 -553 0
-35 -554 0
-36 -555 0
-34 -628 0
-35 -629 0
-36 -630 0
-34 -40 0
-35 -41 0
-36 -42 0
-37 -451 0
-38 -452 0
-39 -453 0
-37 -706 0
-38 -707 0
-39 -708 0
-37 -286 0
-38 -287 0
-39 -288 0
-37 -724 0
-38 -725 0
-39 -726 0
-37 -733 0
-38 -734 0
-39 -735 0
-37 -40 0
-38 -41 0
-39 -42 0
-40 -58 0
-41 -59 0
-42 -60 0
-40 -289 0
-41 -290 0
-42 -291 0
-40 -217 0
-41 -218 0
-42 -219 0
-40 -163 0
-41 -164 0
-42 -165 0
-40 -43 0
-41 -44 0
-42 -45 0
-40 -196 0
-41 -197 0
-42 -198 0
-40 -211 0
-41 -212 0
-42 -213 0
-40 -151 0
-41 -152 0
-42 -153 0
-40 -154 0
-41 -155 0
-42 -156 0
-40 -220 0
-41 -221 0
-42 -222 0
-43 -550 0
-44 -551 0
-45 -552 0
-43 -670 0
-44 -671 0
-45 -672 0
-43 -292 0
-44 -293 0
-45 -294 0
-46 -487 0
-47 -488 0
-48 -489 0
-46 -238 0
-47 -239 0
-48 -240 0
-46 -64 0
-47 -65 0
-48 -66 0
-49 -652 0
-50 -653 0
-51 -654 0
-49 -469 0
-50 -470 0
-51 -471 0
-49 -67 0
-50 -68 0
-51 -69 0
-52 -166 0
-53 -167 0
-54 -168 0
-52 -556 0
-53 -557 0
-54 -558 0
-52 -520 0
-53 -521 0
-54 -522 0
-55 -484 0
-56 -485 0
-57 -486 0
-55 -238 0
-56 -239 0
-57 -240 0
-55 -82 0
-56 -83 0
-57 -84 0
-55 -661 0
-56 -662 0
-57 -663 0
-58 -553 0
-59 -554 0
-60 -555 0
-58 -637 0
-59 -638 0
-60 -639 0
-58 -595 0
-59 -596 0
-60 -597 0
-58 -724 0
-59 -725 0
-60 -726 0
-58 -334 0
-59 -335 0
-60 -336 0
-61 -676 0
-62 -677 0
-63 -678 0
-61 -490 0
-62 -491 0
-63 -492 0
-61 -481 0
-62 -482 0
-63 -483 0
-61 -115 0
-62 -116 0
-63 -117 0
-61 -202 0
-62 -203 0
-63 -204 0
-64 -289 0
-65 -290 0
-66 -291 0
-64 -70 0
-65 -71 0
-66 -72 0
-64 -193 0
-65 -194 0
-66 -195 0
-64 -139 0
-65 -140 0
-66 -141 0
-64 -181 0
-65 -182 0
-66 -183 0
-64 -247 0
-65 -248 0
-66 -249 0
-67 -289 0
-68 -290 0
-69 -291 0
-67 -142 0
-68 -143 0
-69 -144 0
-70 -292 0
-71 -293 0
-72 -294 0
-70 -511 0
-71 -512 0
-72 -513 0
-70 -667 0
-71 -668 0
-72 -669 0
-73 -454 0
-74 -455 0
-75 -456 0
-73 -640 0
-74 -641 0
-75 -642 0
-73 -505 0
-74 -506 0
-75 -507 0
-73 -160 0
-74 -161 0
-75 -162 0
-73 -547 0
-74 -548 0
-75 -549 0
-73 -481 0
-74 -482 0
-75 -483 0
-73 -685 0
-74 -686 0
-75 -687 0
-76 -82 0
-77 -83 0
-78 -84 0
-76 -274 0
-77 -275 0
-78 -276 0
-76 -655 0
-77 -656 0
-78 -657 0
-79 -286 0
-80 -287 0
-81 -288 0
-79 -82 0
-80 -83 0
-81 -84 0
-79 -709 0
-80 -710 0
-81 -711 0
-79 -712 0
-80 -713 0
-81 -714 0
-82 -289 0
-83 -290 0
-84 -291 0
-82 -235 0
-83 -236 0
-84 -237 0
-82 -331 0
-83 -332 0
-84 -333 0
-82 -130 0
-83 -131 0
-84 -132 0
-82 -199 0
-83 -200 0
-84 -201 0
-85 -718 0
-86 -719 0
-87 -720 0
-85 -241 0
-86 -242 0
-87 -243 0
-85 -727 0
-86 -728 0
-87 -729 0
-85 -538 0
-86 -539 0
-87 -540 0
-85 -763 0
-86 -764 0
-87 -765 0
-85 -100 0
-86 -101 0
-87 -102 0
-85 -583 0
-86 -584 0
-87 -585 0
-88 -652 0
-89 -653 0
-90 -654 0
-88 -262 0
-89 -263 0
-90 -264 0
-88 -91 0
-89 -92 0
-90 -93 0
-91 -349 0
-92 -350 0
-93 -351 0
-91 -94 0
-92 -95 0
-93 -96 0
-91 -205 0
-92 -206 0
-93 -207 0
-91 -208 0
-92 -209 0
-93 -210 0
-91 -214 0
-92 -215 0
-93 -216 0
-91 -289 0
-92 -290 0
-93 -291 0
-91 -145 0
-92 -146 0
-93 -147 0
-94 -451 0
-95 -452 0
-96 -453 0
-94 -457 0
-95 -458 0
-96 -459 0
-94 -517 0
-95 -518 0
-96 -519 0
-94 -706 0
-95 -707 0
-96 -708 0
-94 -292 0
-95 -293 0
-96 -294 0
-94 -634 0
-95 -635 0
-96 -636 0
-94 -571 0
-95 -572 0
-96 -573 0
-97 -160 0
-98 -161 0
-99 -162 0
-97 -202 0
-98 -203 0
-99 -204 0
-97 -775 0
-98 -776 0
-99 -777 0
-97 -544 0
-98 -545 0
-99 -546 0
-100 -223 0
-101 -224 0
-102 -225 0
-100 -289 0
-101 -290 0
-102 -291 0
-103 -244 0
-104 -245 0
-105 -246 0
-103 -703 0
-104 -704 0
-105 -705 0
-103 -115 0
-104 -116 0
-105 -117 0
-106 -259 0
-107 -260 0
-108 -261 0
-106 -649 0
-107 -650 0
-108 -651 0
-106 -112 0
-107 -113 0
-108 -114 0
-109 -289 0
-110 -290 0
-111 -291 0
-112 -289 0
-113 -290 0
-114 -291 0
-112 -343 0
-113 -344 0
-114 -345 0
-112 -355 0
-113 -356 0
-114 -357 0
-115 -289 0
-116 -290 0
-117 -291 0
-115 -346 0
-116 -347 0
-117 -348 0
-115 -121 0
-116 -122 0
-117 -123 0
-118 -502 0
-119 -503 0
-120 -504 0
-118 -127 0
-119 -128 0
-120 -129 0
-118 -262 0
-119 -263 0
-120 -264 0
-118 -508 0
-119 -509 0
-120 -510 0
-121 -322 0
-122 -323 0
-123 -324 0
-121 -505 0
-122 -506 0
-123 -507 0
-121 -481 0
-122 -482 0
-123 -483 0
-121 -715 0
-122 -716 0
-123 -717 0
-124 -499 0
-125 -500 0
-126 -501 0
-124 -451 0
-125 -452 0
-126 -453 0
-124 -454 0
-125 -455 0
-126 -456 0
-124 -688 0
-125 -689 0
-126 -690 0
-124 -286 0
-125 -287 0
-126 -288 0
-124 -127 0
-125 -128 0
-126 -129 0
-127 -352 0
-128 -353 0
-129 -354 0
-127 -289 0
-128 -290 0
-129 -291 0
-127 -361 0
-128 -362 0
-129 -363 0
-127 -226 0
-128 -227 0
-129 -228 0
-127 -379 0
-128 -380 0
-129 -381 0
-130 -679 0
-131 -680 0
-132 -681 0
-130 -502 0
-131 -503 0
-132 -504 0
-130 -364 0
-131 -365 0
-132 -366 0
-130 -508 0
-131 -509 0
-132 -510 0
-133 -202 0
-134 -203 0
-135 -204 0
-133 -754 0
-134 -755 0
-135 -756 0
-133 -775 0
-134 -776 0
-135 -777 0
-136 -166 0
-137 -167 0
-138 -168 0
-136 -703 0
-137 -704 0
-138 -705 0
-136 -244 0
-137 -245 0
-138 -246 0
-136 -490 0
-137 -491 0
-138 -492 0
-139 -454 0
-140 -455 0
-141 -456 0
-139 -640 0
-140 -641 0
-141 -642 0
-139 -511 0
-140 -512 0
-141 -513 0
-142 -373 0
-143 -374 0
-144 -375 0
-142 -739 0
-143 -740 0
-144 -741 0
-142 -529 0
-143 -530 0
-144 -531 0
-145 -649 0
-146 -650 0
-147 -651 0
-145 -364 0
-146 -365 0
-147 -366 0
-145 -634 0
-146 -635 0
-147 -636 0
-148 -166 0
-149 -167 0
-150 -168 0
-148 -682 0
-149 -683 0
-150 -684 0
-148 -745 0
-149 -746 0
-150 -747 0
-148 -730 0
-149 -731 0
-150 -732 0
-148 -262 0
-149 -263 0
-150 -264 0
-151 -601 0
-152 -602 0
-153 -603 0
-151 -625 0
-152 -626 0
-153 -627 0
-151 -694 0
-152 -695 0
-153 -696 0
-151 -397 0
-152 -398 0
-153 -399 0
-154 -664 0
-155 -665 0
-156 -666 0
-154 -601 0
-155 -602 0
-156 -603 0
-154 -733 0
-155 -734 0
-156 -735 0
-154 -736 0
-155 -737 0
-156 -738 0
-154 -400 0
-155 -401 0
-156 -402 0
-157 -238 0
-158 -239 0
-159 -240 0
-157 -604 0
-158 -605 0
-159 -606 0
-157 -631 0
-158 -632 0
-159 -633 0
-157 -733 0
-158 -734 0
-159 -735 0
-157 -187 0
-158 -188 0
-159 -189 0
-160 -268 0
-161 -269 0
-162 -270 0
-160 -271 0
-161 -272 0
-162 -273 0
-160 -289 0
-161 -290 0
-162 -291 0
-160 -370 0
-161 -371 0
-162 -372 0
-163 -547 0
-164 -548 0
-165 -549 0
-163 -532 0
-164 -533 0
-165 -534 0
-163 -403 0
-164 -404 0
-165 -405 0
-166 -289 0
-167 -290 0
-168 -291 0
-166 -304 0
-167 -305 0
-168 -306 0
-166 -169 0
-167 -170 0
-168 -171 0
-169 -682 0
-170 -683 0
-171 -684 0
-169 -292 0
-170 -293 0
-171 -294 0
-169 -520 0
-170 -521 0
-171 -522 0
-172 -766 0
-173 -767 0
-174 -768 0
-172 -190 0
-173 -191 0
-174 -192 0
-172 -691 0
-173 -692 0
-174 -693 0
-175 -589 0
-176 -590 0
-177 -591 0
-175 -592 0
-176 -593 0
-177 -594 0
-175 -253 0
-176 -254 0
-177 -255 0
-175 -631 0
-176 -632 0
-177 -633 0
-175 -541 0
-176 -542 0
-177 -543 0
-175 -514 0
-176 -515 0
-177 -516 0
-175 -187 0
-176 -188 0
-177 -189 0
-178 -190 0
-179 -191 0
-180 -192 0
-178 -649 0
-179 -650 0
-180 -651 0
-178 -259 0
-179 -260 0
-180 -261 0
-178 -658 0
-179 -659 0
-180 -660 0
-181 -598 0
-182 -599 0
-183 -600 0
-181 -487 0
-182 -488 0
-183 -489 0
-181 -391 0
-182 -392 0
-183 -393 0
-184 -664 0
-185 -665 0
-186 -666 0
-184 -733 0
-185 -734 0
-186 -735 0
-184 -187 0
-185 -188 0
-186 -189 0
-184 -277 0
-185 -278 0
-186 -279 0
-187 -289 0
-188 -290 0
-189 -291 0
-190 -328 0
-191 -329 0
-192 -330 0
-190 -289 0
-191 -290 0
-192 -291 0
-193 -640 0
-194 -641 0
-195 -642 0
-193 -457 0
-194 -458 0
-195 -459 0
-193 -403 0
-194 -404 0
-195 -405 0
-196 -550 0
-197 -551 0
-198 -552 0
-196 -454 0
-197 -455 0
-198 -456 0
-196 -694 0
-197 -695 0
-198 -696 0
-196 -547 0
-197 -548 0
-198 -549 0
-196 -742 0
-197 -743 0
-198 -744 0
-199 -583 0
-200 -584 0
-201 -585 0
-199 -712 0
-200 -713 0
-201 -714 0
-199 -400 0
-200 -401 0
-201 -402 0
-202 -289 0
-203 -290 0
-204 -291 0
-202 -409 0
-203 -410 0
-204 -411 0
-205 -556 0
-206 -557 0
-207 -558 0
-205 -565 0
-206 -566 0
-207 -567 0
-208 -559 0
-209 -560 0
-210 -561 0
-208 -565 0
-209 -566 0
-210 -567 0
-211 -484 0
-212 -485 0
-213 -486 0
-211 -637 0
-212 -638 0
-213 -639 0
-211 -424 0
-212 -425 0
-213 -426 0
-214 -472 0
-215 -473 0
-216 -474 0
-214 -706 0
-215 -707 0
-216 -708 0
-214 -460 0
-215 -461 0
-216 -462 0
-217 -457 0
-218 -458 0
-219 -459 0
-217 -706 0
-218 -707 0
-219 -708 0
-217 -430 0
-218 -431 0
-219 -432 0
-220 -472 0
-221 -473 0
-222 -474 0
-220 -436 0
-221 -437 0
-222 -438 0
-220 -496 0
-221 -497 0
-222 -498 0
-220 -670 0
-221 -671 0
-222 -672 0
-223 -592 0
-224 -593 0
-225 -594 0
-223 -478 0
-224 -479 0
-225 -480 0
-223 -715 0
-224 -716 0
-225 -717 0
-226 -622 0
-227 -623 0
-228 -624 0
-226 -754 0
-227 -755 0
-228 -756 0
-226 -400 0
-227 -401 0
-228 -402 0
-229 -238 0
-230 -239 0
-231 -240 0
-229 -568 0
-230 -569 0
-231 -570 0
-229 -262 0
-230 -263 0
-231 -264 0
-232 -241 0
-233 -242 0
-234 -243 0
-232 -730 0
-233 -731 0
-234 -732 0
-232 -583 0
-233 -584 0
-234 -585 0
-232 -262 0
-233 -263 0
-234 -264 0
-235 -424 0
-236 -425 0
-237 -426 0
-235 -745 0
-236 -746 0
-237 -747 0
-235 -730 0
-236 -731 0
-237 -732 0
-238 -289 0
-239 -290 0
-240 -291 0
-238 -382 0
-239 -383 0
-240 -384 0
-241 -289 0
-242 -290 0
-243 -291 0
-241 -442 0
-242 -443 0
-243 -444 0
-241 -295 0
-242 -296 0
-243 -297 0
-241 -256 0
-242 -257 0
-243 -258 0
-241 -283 0
-242 -284 0
-243 -285 0
-244 -289 0
-245 -290 0
-246 -291 0
-244 -385 0
-245 -386 0
-246 -387 0
-247 -472 0
-248 -473 0
-249 -474 0
-247 -436 0
-248 -437 0
-249 -438 0
-247 -460 0
-248 -461 0
-249 -462 0
-250 -499 0
-251 -500 0
-252 -501 0
-250 -286 0
-251 -287 0
-252 -288 0
-250 -253 0
-251 -254 0
-252 -255 0
-250 -514 0
-251 -515 0
-252 -516 0
-253 -418 0
-254 -419 0
-255 -420 0
-253 -289 0
-254 -290 0
-255 -291 0
-253 -358 0
-254 -359 0
-255 -360 0
-256 -310 0
-257 -311 0
-258 -312 0
-256 -739 0
-257 -740 0
-258 -741 0
-259 -289 0
-260 -290 0
-261 -291 0
-259 -298 0
-260 -299 0
-261 -300 0
-262 -289 0
-263 -290 0
-264 -291 0
-262 -301 0
-263 -302 0
-264 -303 0
-262 -265 0
-263 -266 0
-264 -267 0
-265 -523 0
-266 -524 0
-267 -525 0
-265 -682 0
-266 -683 0
-267 -684 0
-265 -292 0
-266 -293 0
-267 -294 0
-268 -580 0
-269 -581 0
-270 -582 0
-268 -685 0
-269 -686 0
-270 -687 0
-268 -397 0
-269 -398 0
-270 -399 0
-271 -757 0
-272 -758 0
-273 -759 0
-271 -622 0
-272 -623 0
-273 -624 0
-271 -538 0
-272 -539 0
-273 -540 0
-271 -580 0
-272 -581 0
-273 -582 0
-271 -583 0
-272 -584 0
-273 -585 0
-271 -400 0
-272 -401 0
-273 -402 0
-274 -289 0
-275 -290 0
-276 -291 0
-274 -316 0
-275 -317 0
-276 -318 0
-277 -289 0
-278 -290 0
-279 -291 0
-277 -307 0
-278 -308 0
-279 -309 0
-277 -319 0
-278 -320 0
-279 -321 0
-277 -280 0
-278 -281 0
-279 -282 0
-280 -664 0
-281 -665 0
-282 -666 0
-280 -292 0
-281 -293 0
-282 -294 0
-280 -541 0
-281 -542 0
-282 -543 0
-283 -562 0
-284 -563 0
-285 -564 0
-283 -475 0
-284 -476 0
-285 -477 0
-286 -427 0
-287 -428 0
-288 -429 0
-286 -289 0
-287 -290 0
-288 -291 0
-286 -394 0
-287 -395 0
-288 -396 0
-289 -430 0
-290 -431 0
-291 -432 0
-289 -436 0
-290 -437 0
-291 -438 0
-289 -292 0
-290 -293 0
-291 -294 0
-289 -403 0
-290 -404 0
-291 -405 0
-289 -364 0
-290 -365 0
-291 -366 0
-289 -310 0
-290 -311 0
-291 -312 0
-289 -373 0
-290 -374 0
-291 -375 0
-289 -391 0
-290 -392 0
-291 -393 0
-289 -334 0
-290 -335 0
-291 -336 0
-289 -424 0
-290 -425 0
-291 -426 0
-289 -397 0
-290 -398 0
-291 -399 0
-289 -322 0
-290 -323 0
-291 -324 0
-289 -400 0
-290 -401 0
-291 -402 0
-289 -325 0
-290 -326 0
-291 -327 0
-289 -448 0
-290 -449 0
-291 -450 0
-292 -313 0
-293 -314 0
-294 -315 0
-292 -367 0
-293 -368 0
-294 -369 0
-292 -376 0
-293 -377 0
-294 -378 0
-292 -415 0
-293 -416 0
-294 -417 0
-295 -727 0
-296 -728 0
-297 -729 0
-295 -478 0
-296 -479 0
-297 -480 0
-298 -325 0
-299 -326 0
-300 -327 0
-298 -655 0
-299 -656 0
-300 -657 0
-298 -544 0
-299 -545 0
-300 -546 0
-301 -523 0
-302 -524 0
-303 -525 0
-301 -643 0
-302 -644 0
-303 -645 0
-301 -322 0
-302 -323 0
-303 -324 0
-301 -508 0
-302 -509 0
-303 -510 0
-304 -727 0
-305 -728 0
-306 -729 0
-304 -721 0
-305 -722 0
-306 -723 0
-304 -403 0
-305 -404 0
-306 -405 0
-304 -745 0
-305 -746 0
-306 -747 0
-307 -310 0
-308 -311 0
-309 -312 0
-307 -535 0
-308 -536 0
-309 -537 0
-307 -541 0
-308 -542 0
-309 -543 0
-307 -514 0
-308 -515 0
-309 -516 0
-310 -337 0
-311 -338 0
-312 -339 0
-310 -406 0
-311 -407 0
-312 -408 0
-310 -313 0
-311 -314 0
-312 -315 0
-313 -697 0
-314 -698 0
-315 -699 0
-313 -541 0
-314 -542 0
-315 -543 0
-313 -661 0
-314 -662 0
-315 -663 0
-316 -325 0
-317 -326 0
-318 -327 0
-316 -658 0
-317 -659 0
-318 -660 0
-319 -322 0
-320 -323 0
-321 -324 0
-319 -505 0
-320 -506 0
-321 -507 0
-322 -388 0
-323 -389 0
-324 -390 0
-322 -340 0
-323 -341 0
-324 -342 0
-328 -400 0
-329 -401 0
-330 -402 0
-328 -691 0
-329 -692 0
-330 -693 0
-328 -574 0
-329 -575 0
-330 -576 0
-331 -457 0
-332 -458 0
-333 -459 0
-331 -496 0
-332 -497 0
-333 -498 0
-331 -700 0
-332 -701 0
-333 -702 0
-331 -619 0
-332 -620 0
-333 -621 0
-334 -439 0
-335 -440 0
-336 -441 0
-334 -337 0
-335 -338 0
-336 -339 0
-334 -340 0
-335 -341 0
-336 -342 0
-334 -433 0
-335 -434 0
-336 -435 0
-337 -721 0
-338 -722 0
-339 -723 0
-337 -595 0
-338 -596 0
-339 -597 0
-337 -562 0
-338 -563 0
-339 -564 0
-340 -577 0
-341 -578 0
-342 -579 0
-340 -643 0
-341 -644 0
-342 -645 0
-343 -766 0
-344 -767 0
-345 -768 0
-343 -760 0
-344 -761 0
-345 -762 0
-346 -484 0
-347 -485 0
-348 -486 0
-346 -589 0
-347 -590 0
-348 -591 0
-346 -424 0
-347 -425 0
-348 -426 0
-346 -610 0
-347 -611 0
-348 -612 0
-349 -550 0
-350 -551 0
-351 -552 0
-349 -448 0
-350 -449 0
-351 -450 0
-349 -460 0
-350 -461 0
-351 -462 0
-352 -748 0
-353 -749 0
-354 -750 0
-352 -457 0
-353 -458 0
-354 -459 0
-352 -430 0
-353 -431 0
-354 -432 0
-355 -436 0
-356 -437 0
-357 -438 0
-355 -760 0
-356 -761 0
-357 -762 0
-355 -493 0
-356 -494 0
-357 -495 0
-358 -502 0
-359 -503 0
-360 -504 0
-358 -364 0
-359 -365 0
-360 -366 0
-361 -436 0
-362 -437 0
-363 -438 0
-361 -535 0
-362 -536 0
-363 -537 0
-361 -511 0
-362 -512 0
-363 -513 0
-361 -496 0
-362 -497 0
-363 -498 0
-367 -697 0
-368 -698 0
-369 -699 0
-367 -607 0
-368 -608 0
-369 -609 0
-367 -571 0
-368 -572 0
-369 -573 0
-370 -640 0
-371 -641 0
-372 -642 0
-370 -643 0
-371 -644 0
-372 -645 0
-370 -436 0
-371 -437 0
-372 -438 0
-370 -544 0
-371 -545 0
-372 -546 0
-373 -421 0
-374 -422 0
-375 -423 0
-373 -376 0
-374 -377 0
-375 -378 0
-376 -517 0
-377 -518 0
-378 -519 0
-379 -550 0
-380 -551 0
-381 -552 0
-379 -448 0
-380 -449 0
-381 -450 0
-379 -751 0
-380 -752 0
-381 -753 0
-379 -532 0
-380 -533 0
-381 -534 0
-379 -673 0
-380 -674 0
-381 -675 0
-379 -463 0
-380 -464 0
-381 -465 0
-382 -604 0
-383 -605 0
-384 -606 0
-382 -625 0
-383 -626 0
-384 -627 0
-382 -568 0
-383 -569 0
-384 -570 0
-382 -397 0
-383 -398 0
-384 -399 0
-382 -661 0
-383 -662 0
-384 -663 0
-385 -598 0
-386 -599 0
-387 -600 0
-385 -628 0
-386 -629 0
-387 -630 0
-385 -490 0
-386 -491 0
-387 -492 0
-385 -391 0
-386 -392 0
-387 -393 0
-388 -610 0
-389 -611 0
-390 -612 0
-388 -715 0
-389 -716 0
-390 -717 0
-388 -613 0
-389 -614 0
-390 -615 0
-394 -688 0
-395 -689 0
-396 -690 0
-394 -709 0
-395 -710 0
-396 -711 0
-394 -397 0
-395 -398 0
-396 -399 0
-397 -445 0
-398 -446 0
-399 -447 0
-400 -406 0
-401 -407 0
-402 -408 0
-400 -445 0
-401 -446 0
-402 -447 0
-406 -769 0
-407 -770 0
-408 -771 0
-406 -538 0
-407 -539 0
-408 -540 0
-406 -736 0
-407 -737 0
-408 -738 0
-409 -436 0
-410 -437 0
-411 -438 0
-409 -490 0
-410 -491 0
-411 -492 0
-409 -544 0
-410 -545 0
-411 -546 0
-412 -643 0
-413 -644 0
-414 -645 0
-412 -436 0
-413 -437 0
-414 -438 0
-412 -535 0
-413 -536 0
-414 -537 0
-412 -493 0
-413 -494 0
-414 -495 0
-415 -550 0
-416 -551 0
-417 -552 0
-415 -463 0
-416 -464 0
-417 -465 0
-415 -706 0
-416 -707 0
-417 -708 0
-415 -607 0
-416 -608 0
-417 -609 0
-415 -466 0
-416 -467 0
-417 -468 0
-418 -751 0
-419 -752 0
-420 -753 0
-418 -715 0
-419 -716 0
-420 -717 0
-421 -529 0
-422 -530 0
-423 -531 0
-421 -466 0
-422 -467 0
-423 -468 0
-424 -433 0
-425 -434 0
-426 -435 0
-427 -706 0
-428 -707 0
-429 -708 0
-427 -466 0
-428 -467 0
-429 -468 0
-427 -460 0
-428 -461 0
-429 -462 0
-427 -574 0
-428 -575 0
-429 -576 0
-427 -430 0
-428 -431 0
-429 -432 0
-430 -439 0
-431 -440 0
-432 -441 0
-433 -721 0
-434 -722 0
-435 -723 0
-433 -637 0
-434 -638 0
-435 -639 0
-433 -757 0
-434 -758 0
-435 -759 0
-433 -745 0
-434 -746 0
-435 -747 0
-439 -748 0
-440 -749 0
-441 -750 0
-439 -577 0
-440 -578 0
-441 -579 0
-442 -718 0
-443 -719 0
-444 -720 0
-442 -448 0
-443 -449 0
-444 -450 0
-442 -751 0
-443 -752 0
-444 -753 0
-445 -601 0
-446 -602 0
-447 -603 0
-445 -580 0
-446 -581 0
-447 -582 0
-445 -754 0
-446 -755 0
-447 -756 0
-454 -592 0
-455 -593 0
-456 -594 0
-454 -616 0
-455 -617 0
-456 -618 0
-457 -676 0
-458 -677 0
-459 -678 0
-457 -766 0
-458 -767 0
-459 -768 0
-457 -589 0
-458 -590 0
-459 -591 0
-463 -613 0
-464 -614 0
-465 -615 0
-463 -610 0
-464 -611 0
-465 -612 0
-469 -646 0
-470 -647 0
-471 -648 0
-469 -772 0
-470 -773 0
-471 -774 0
-472 -775 0
-473 -776 0
-474 -777 0
-475 -487 0
-476 -488 0
-477 -489 0
-475 -520 0
-476 -521 0
-477 -522 0
-478 -598 0
-479 -599 0
-480 -600 0
-478 -490 0
-479 -491 0
-480 -492 0
-481 -604 0
-482 -605 0
-483 -606 0
-481 -661 0
-482 -662 0
-483 -663 0
-484 -673 0
-485 -674 0
-486 -675 0
-487 -526 0
-488 -527 0
-489 -528 0
-490 -604 0
-491 -605 0
-492 -606 0
-490 -526 0
-491 -527 0
-492 -528 0
-490 -631 0
-491 -632 0
-492 -633 0
-490 -619 0
-491 -620 0
-492 -621 0
-493 -691 0
-494 -692 0
-495 -693 0
-493 -700 0
-494 -701 0
-495 -702 0
-499 -523 0
-500 -524 0
-501 -525 0
-508 -571 0
-509 -572 0
-510 -573 0
-511 -601 0
-512 -602 0
-513 -603 0
-511 -580 0
-512 -581 0
-513 -582 0
-514 -571 0
-515 -572 0
-516 -573 0
-520 -553 0
-521 -554 0
-522 -555 0
-520 -595 0
-521 -596 0
-522 -597 0
-520 -562 0
-521 -563 0
-522 -564 0
-526 -628 0
-527 -629 0
-528 -630 0
-529 -559 0
-530 -560 0
-531 -561 0
-529 -565 0
-530 -566 0
-531 -567 0
-532 -568 0
-533 -569 0
-534 -570 0
-535 -571 0
-536 -572 0
-537 -573 0
-538 -625 0
-539 -626 0
-540 -627 0
-538 -694 0
-539 -695 0
-540 -696 0
-541 -685 0
-542 -686 0
-543 -687 0
-544 -706 0
-545 -707 0
-546 -708 0
-544 -634 0
-545 -635 0
-546 -636 0
-547 -769 0
-548 -770 0
-549 -771 0
-547 -709 0
-548 -710 0
-549 -711 0
-547 -712 0
-548 -713 0
-549 -714 0
-550 -583 0
-551 -584 0
-552 -585 0
-550 -580 0
-551 -581 0
-552 -582 0
-550 -739 0
-551 -740 0
-552 -741 0
-553 -682 0
-554 -683 0
-555 -684 0
-556 -595 0
-557 -596 0
-558 -597 0
-556 -724 0
-557 -725 0
-558 -726 0
-568 -622 0
-569 -623 0
-570 -624 0
-571 -589 0
-572 -590 0
-573 -591 0
-571 -643 0
-572 -644 0
-573 -645 0
-574 -586 0
-575 -587 0
-576 -588 0
-577 -697 0
-578 -698 0
-579 -699 0
-577 -607 0
-578 -608 0
-579 -609 0
-580 -670 0
-581 -671 0
-582 -672 0
-580 -667 0
-581 -668 0
-582 -669 0
-583 -673 0
-584 -674 0
-585 -675 0
-586 -691 0
-587 -692 0
-588 -693 0
-586 -700 0
-587 -701 0
-588 -702 0
-592 -688 0
-593 -689 0
-594 -690 0
-592 -694 0
-593 -695 0
-594 -696 0
-592 -685 0
-593 -686 0
-594 -687 0
-595 -688 0
-596 -689 0
-597 -690 0
-598 -664 0
-599 -665 0
-600 -666 0
-601 -640 0
-602 -641 0
-603 -642 0
-604 -640 0
-605 -641 0
-606 -642 0
-607 -643 0
-608 -644 0
-609 -645 0
-610 -673 0
-611 -674 0
-612 -675 0
-613 -697 0
-614 -698 0
-615 -699 0
-616 -679 0
-617 -680 0
-618 -681 0
-616 -649 0
-617 -650 0
-618 -651 0
-616 -658 0
-617 -659 0
-618 -660 0
-619 -676 0
-620 -677 0
-621 -678 0
-619 -703 0
-620 -704 0
-621 -705 0
-622 -625 0
-623 -626 0
-624 -627 0
-622 -670 0
-623 -671 0
-624 -672 0
-625 -763 0
-626 -764 0
-627 -765 0
-628 -682 0
-629 -683 0
-630 -684 0
-628 -730 0
-629 -731 0
-630 -732 0
-634 -766 0
-635 -767 0
-636 -768 0
-634 -655 0
-635 -656 0
-636 -657 0
-637 -688 0
-638 -689 0
-639 -690 0
-640 -733 0
-641 -734 0
-642 -735 0
-643 -706 0
-644 -707 0
-645 -708 0
-652 -772 0
-653 -773 0
-654 -774 0
-652 -742 0
-653 -743 0
-654 -744 0
-661 -718 0
-662 -719 0
-663 -720 0
-661 -751 0
-662 -752 0
-663 -753 0
-661 -763 0
-662 -764 0
-663 -765 0
-661 -715 0
-662 -716 0
-663 -717 0
-664 -685 0
-665 -686 0
-666 -687 0
-667 -685 0
-668 -686 0
-669 -687 0
-670 -754 0
-671 -755 0
-672 -756 0
-670 -775 0
-671 -776 0
-672 -777 0
-673 -757 0
-674 -758 0
-675 -759 0
-673 -745 0
-674 -746 0
-675 -747 0
-685 -769 0
-686 -770 0
-687 -771 0
-685 -736 0
-686 -737 0
-687 -738 0
-688 -721 0
-689 -722 0
-690 -723 0
-694 -727 0
-695 -728 0
-696 -729 0
-694 -721 0
-695 -722 0
-696 -723 0
-694 -769 0
-695 -770 0
-696 -771 0
-697 -748 0
-698 -749 0
-699 -750 0
-697 -715 0
-698 -716 0
-699 -717 0
-700 -760 0
-701 -761 0
-702 -762 0
-706 -775 0
-707 -776 0
-708 -777 0
1 0
680 0
