p cnf 300 774
1 2 3 0
4 5 6 0
7 8 9 0
10 11 12 0
13 14 15 0
16 17 18 0
19 20 21 0
22 23 24 0
25 26 27 0
28 29 30 0
31 32 33 0
34 35 36 0
37 38 39 0
40 41 42 0
43 44 45 0
46 47 48 0
49 50 51 0
52 53 54 0
55 56 57 0
58 59 60 0
61 62 63 0
64 65 66 0
67 68 69 0
70 71 72 0
73 74 75 0
76 77 78 0
79 80 81 0
82 83 84 0
85 86 87 0
88 89 90 0
91 92 93 0
94 95 96 0
97 98 99 0
100 101 102 0
103 104 105 0
106 107 108 0
109 110 111 0
112 113 114 0
115 116 117 0
118 119 120 0
121 122 123 0
124 125 126 0
127 128 129 0
130 131 132 0
133 134 135 0
136 137 138 0
139 140 141 0
142 143 144 0
145 146 147 0
148 149 150 0
151 152 153 0
154 155 156 0
157 158 159 0
160 161 162 0
163 164 165 0
166 167 168 0
169 170 171 0
172 173 174 0
175 176 177 0
178 179 180 0
181 182 183 0
184 185 186 0
187 188 189 0
190 191 192 0
193 194 195 0
196 197 198 0
199 200 201 0
202 203 204 0
205 206 207 0
208 209 210 0
211 212 213 0
214 215 216 0
217 218 219 0
220 221 222 0
223 224 225 0
226 227 228 0
229 230 231 0
232 233 234 0
235 236 237 0
238 239 240 0
241 242 243 0
244 245 246 0
247 248 249 0
250 251 252 0
253 254 255 0
256 257 258 0
259 260 261 0
262 263 264 0
265 266 267 0
268 269 270 0
271 272 273 0
274 275 276 0
277 278 279 0
280 281 282 0
283 284 285 0
286 287 288 0
289 290 291 0
292 293 294 0
295 296 297 0
298 299 300 0
-1 -31 0
-2 -32 0
-3 -33 0
-1 -22 0
-2 -23 0
-3 -24 0
-1 -37 0
-2 -38 0
-3 -39 0
-4 -34 0
-5 -35 0
-6 -36 0
-4 -31 0
-5 -32 0
-6 -33 0
-4 -7 0
-5 -8 0
-6 -9 0
-4 -61 0
-5 -62 0
-6 -63 0
-7 -250 0
-8 -251 0
-9 -252 0
-7 -55 0
-8 -56 0
-9 -57 0
-7 -73 0
-8 -74 0
-9 -75 0
-7 -10 0
-8 -11 0
-9 -12 0
-7 -256 0
-8 -257 0
-9 -258 0
-10 -37 0
-11 -38 0
-12 -39 0
-10 -94 0
-11 -95 0
-12 -96 0
-13 -82 0
-14 -83 0
-15 -84 0
-13 -85 0
-14 -86 0
-15 -87 0
-13 -94 0
-14 -95 0
-15 -96 0
-16 -43 0
-17 -44 0
-18 -45 0
-16 -94 0
-17 -95 0
-18 -96 0
-16 -79 0
-17 -80 0
-18 -81 0
-19 -46 0
-20 -47 0
-21 -48 0
-19 -235 0
-20 -236 0
-21 -237 0
-19 -115 0
-20 -116 0
-21 -117 0
-19 -22 0
-20 -23 0
-21 -24 0
-22 -118 0
-23 -119 0
-24 -120 0
-22 -91 0
-23 -92 0
-24 -93 0
-22 -94 0
-23 -95 0
-24 -96 0
-22 -49 0
-23 -50 0
-24 -51 0
-25 -58 0
-26 -59 0
-27 -60 0
-25 -265 0
-26 -266 0
-27 -267 0
-25 -253 0
-26 -254 0
-27 -255 0
-28 -250 0
-29 -251 0
-30 -252 0
-28 -241 0
-29 -242 0
-30 -243 0
-28 -256 0
-29 -257 0
-30 -258 0
-31 -124 0
-32 -125 0
-33 -126 0
-31 -106 0
-32 -107 0
-33 -108 0
-31 -94 0
-32 -95 0
-33 -96 0
-34 -127 0
-35 -128 0
-36 -129 0
-34 -109 0
-35 -110 0
-36 -111 0
-34 -94 0
-35 -95 0
-36 -96 0
-37 -106 0
-38 -107 0
-39 -108 0
-37 -142 0
-38 -143 0
-39 -144 0
-40 -70 0
-41 -71 0
-42 -72 0
-40 -94 0
-41 -95 0
-42 -96 0
-40 -46 0
-41 -47 0
-42 -48 0
-40 -151 0
-41 -152 0
-42 -153 0
-43 -127 0
-44 -128 0
-45 -129 0
-43 -145 0
-44 -146 0
-45 -147 0
-43 -121 0
-44 -122 0
-45 -123 0
-46 -271 0
-47 -272 0
-48 -273 0
-46 -244 0
-47 -245 0
-48 -246 0
-46 -280 0
-47 -281 0
-48 -282 0
-46 -49 0
-47 -50 0
-48 -51 0
-49 -142 0
-50 -143 0
-51 -144 0
-49 -265 0
-50 -266 0
-51 -267 0
-52 -58 0
-53 -59 0
-54 -60 0
-52 -133 0
-53 -134 0
-54 -135 0
-52 -286 0
-53 -287 0
-54 -288 0
-52 -160 0
-53 -161 0
-54 -162 0
-55 -97 0
-56 -98 0
-57 -99 0
-55 -130 0
-56 -131 0
-57 -132 0
-55 -283 0
-56 -284 0
-57 -285 0
-58 -136 0
-59 -137 0
-60 -138 0
-58 -163 0
-59 -164 0
-60 -165 0
-58 -94 0
-59 -95 0
-60 -96 0
-61 -124 0
-62 -125 0
-63 -126 0
-61 -127 0
-62 -128 0
-63 -129 0
-61 -73 0
-62 -74 0
-63 -75 0
-64 -103 0
-65 -104 0
-66 -105 0
-64 -178 0
-65 -179 0
-66 -180 0
-64 -253 0
-65 -254 0
-66 -255 0
-67 -112 0
-68 -113 0
-69 -114 0
-67 -133 0
-68 -134 0
-69 -135 0
-67 -94 0
-68 -95 0
-69 -96 0
-70 -268 0
-71 -269 0
-72 -270 0
-70 -145 0
-71 -146 0
-72 -147 0
-70 -280 0
-71 -281 0
-72 -282 0
-73 -154 0
-74 -155 0
-75 -156 0
-73 -94 0
-74 -95 0
-75 -96 0
-76 -115 0
-77 -116 0
-78 -117 0
-76 -160 0
-77 -161 0
-78 -162 0
-76 -94 0
-77 -95 0
-78 -96 0
-79 -274 0
-80 -275 0
-81 -276 0
-79 -172 0
-80 -173 0
-81 -174 0
-79 -163 0
-80 -164 0
-81 -165 0
-79 -238 0
-80 -239 0
-81 -240 0
-79 -121 0
-80 -122 0
-81 -123 0
-79 -286 0
-80 -287 0
-81 -288 0
-82 -166 0
-83 -167 0
-84 -168 0
-82 -235 0
-83 -236 0
-84 -237 0
-82 -175 0
-83 -176 0
-84 -177 0
-82 -118 0
-83 -119 0
-84 -120 0
-82 -289 0
-83 -290 0
-84 -291 0
-85 -166 0
-86 -167 0
-87 -168 0
-85 -193 0
-86 -194 0
-87 -195 0
-85 -124 0
-86 -125 0
-87 -126 0
-88 -244 0
-89 -245 0
-90 -246 0
-88 -277 0
-89 -278 0
-90 -279 0
-88 -247 0
-89 -248 0
-90 -249 0
-91 -298 0
-92 -299 0
-93 -300 0
-91 -235 0
-92 -236 0
-93 -237 0
-91 -181 0
-92 -182 0
-93 -183 0
-94 -172 0
-95 -173 0
-96 -174 0
-94 -175 0
-95 -176 0
-96 -177 0
-94 -202 0
-95 -203 0
-96 -204 0
-94 -181 0
-95 -182 0
-96 -183 0
-94 -193 0
-95 -194 0
-96 -195 0
-94 -103 0
-95 -104 0
-96 -105 0
-94 -157 0
-95 -158 0
-96 -159 0
-94 -139 0
-95 -140 0
-96 -141 0
-94 -142 0
-95 -143 0
-96 -144 0
-94 -145 0
-95 -146 0
-96 -147 0
-94 -148 0
-95 -149 0
-96 -150 0
-94 -97 0
-95 -98 0
-96 -99 0
-97 -184 0
-98 -185 0
-99 -186 0
-97 -196 0
-98 -197 0
-99 -198 0
-100 -193 0
-101 -194 0
-102 -195 0
-100 -298 0
-101 -299 0
-102 -300 0
-100 -238 0
-101 -239 0
-102 -240 0
-103 -208 0
-104 -209 0
-105 -210 0
-106 -214 0
-107 -215 0
-108 -216 0
-106 -286 0
-107 -287 0
-108 -288 0
-106 -238 0
-107 -239 0
-108 -240 0
-109 -235 0
-110 -236 0
-111 -237 0
-109 -217 0
-110 -218 0
-111 -219 0
-112 -259 0
-113 -260 0
-114 -261 0
-112 -145 0
-113 -146 0
-114 -147 0
-112 -178 0
-113 -179 0
-114 -180 0
-115 -271 0
-116 -272 0
-117 -273 0
-115 -145 0
-116 -146 0
-117 -147 0
-115 -118 0
-116 -119 0
-117 -120 0
-118 -202 0
-119 -203 0
-120 -204 0
-118 -244 0
-119 -245 0
-120 -246 0
-121 -202 0
-122 -203 0
-123 -204 0
-124 -214 0
-125 -215 0
-126 -216 0
-124 -202 0
-125 -203 0
-126 -204 0
-127 -202 0
-128 -203 0
-129 -204 0
-127 -217 0
-128 -218 0
-129 -219 0
-130 -292 0
-131 -293 0
-132 -294 0
-130 -277 0
-131 -278 0
-132 -279 0
-130 -184 0
-131 -185 0
-132 -186 0
-130 -241 0
-131 -242 0
-132 -243 0
-133 -280 0
-134 -281 0
-135 -282 0
-133 -268 0
-134 -269 0
-135 -270 0
-133 -157 0
-134 -158 0
-135 -159 0
-133 -136 0
-134 -137 0
-135 -138 0
-133 -247 0
-134 -248 0
-135 -249 0
-133 -178 0
-134 -179 0
-135 -180 0
-133 -253 0
-134 -254 0
-135 -255 0
-136 -265 0
-137 -266 0
-138 -267 0
-136 -181 0
-137 -182 0
-138 -183 0
-136 -277 0
-137 -278 0
-138 -279 0
-139 -187 0
-140 -188 0
-141 -189 0
-139 -211 0
-140 -212 0
-141 -213 0
-142 -190 0
-143 -191 0
-144 -192 0
-142 -214 0
-143 -215 0
-144 -216 0
-145 -190 0
-146 -191 0
-147 -192 0
-145 -217 0
-146 -218 0
-147 -219 0
-148 -199 0
-149 -200 0
-150 -201 0
-148 -187 0
-149 -188 0
-150 -189 0
-148 -220 0
-149 -221 0
-150 -222 0
-151 -202 0
-152 -203 0
-153 -204 0
-151 -271 0
-152 -272 0
-153 -273 0
-151 -295 0
-152 -296 0
-153 -297 0
-154 -241 0
-155 -242 0
-156 -243 0
-154 -157 0
-155 -158 0
-156 -159 0
-154 -277 0
-155 -278 0
-156 -279 0
-154 -256 0
-155 -257 0
-156 -258 0
-157 -199 0
-158 -200 0
-159 -201 0
-160 -193 0
-161 -194 0
-162 -195 0
-160 -163 0
-161 -164 0
-162 -165 0
-163 -196 0
-164 -197 0
-165 -198 0
-163 -202 0
-164 -203 0
-165 -204 0
-163 -247 0
-164 -248 0
-165 -249 0
-166 -202 0
-167 -203 0
-168 -204 0
-166 -178 0
-167 -179 0
-168 -180 0
-169 -202 0
-170 -203 0
-171 -204 0
-169 -184 0
-170 -185 0
-171 -186 0
-169 -241 0
-170 -242 0
-171 -243 0
-172 -226 0
-173 -227 0
-174 -228 0
-175 -226 0
-176 -227 0
-177 -228 0
-178 -235 0
-179 -236 0
-180 -237 0
-178 -181 0
-179 -182 0
-180 -183 0
-178 -208 0
-179 -209 0
-180 -210 0
-181 -217 0
-182 -218 0
-183 -219 0
-184 -205 0
-185 -206 0
-186 -207 0
-187 -292 0
-188 -293 0
-189 -294 0
-187 -295 0
-188 -296 0
-189 -297 0
-187 -262 0
-188 -263 0
-189 -264 0
-190 -271 0
-191 -272 0
-192 -273 0
-190 -268 0
-191 -269 0
-192 -270 0
-190 -265 0
-191 -266 0
-192 -267 0
-190 -259 0
-191 -260 0
-192 -261 0
-193 -196 0
-194 -197 0
-195 -198 0
-193 -214 0
-194 -215 0
-195 -216 0
-196 -238 0
-197 -239 0
-198 -240 0
-199 -262 0
-200 -263 0
-201 -264 0
-202 -229 0
-203 -230 0
-204 -231 0
-202 -232 0
-203 -233 0
-204 -234 0
-202 -208 0
-203 -209 0
-204 -210 0
-202 -205 0
-203 -206 0
-204 -207 0
-202 -223 0
-203 -224 0
-204 -225 0
-205 -226 0
-206 -227 0
-207 -228 0
-205 -295 0
-206 -296 0
-207 -297 0
-208 -259 0
-209 -260 0
-210 -261 0
-208 -244 0
-209 -245 0
-210 -246 0
-208 -247 0
-209 -248 0
-210 -249 0
-211 -229 0
-212 -230 0
-213 -231 0
-211 -289 0
-212 -290 0
-213 -291 0
-214 -232 0
-215 -233 0
-216 -234 0
-214 -298 0
-215 -299 0
-216 -300 0
-217 -229 0
-218 -230 0
-219 -231 0
-217 -298 0
-218 -299 0
-219 -300 0
-220 -232 0
-221 -233 0
-222 -234 0
-220 -274 0
-221 -275 0
-222 -276 0
-223 -226 0
-224 -227 0
-225 -228 0
-223 -262 0
-224 -263 0
-225 -264 0
-226 -274 0
-227 -275 0
-228 -276 0
-226 -289 0
-227 -290 0
-228 -291 0
-235 -244 0
-236 -245 0
-237 -246 0
-247 -286 0
-248 -287 0
-249 -288 0
-250 -283 0
-251 -284 0
-252 -285 0
-265 -280 0
-266 -281 0
-267 -282 0
-283 -292 0
-284 -293 0
-285 -294 0
1 0
32 0
