p cnf 1179 3428
1 2 3 0
4 5 6 0
7 8 9 0
10 11 12 0
13 14 15 0
16 17 18 0
19 20 21 0
22 23 24 0
25 26 27 0
28 29 30 0
31 32 33 0
34 35 36 0
37 38 39 0
40 41 42 0
43 44 45 0
46 47 48 0
49 50 51 0
52 53 54 0
55 56 57 0
58 59 60 0
61 62 63 0
64 65 66 0
67 68 69 0
70 71 72 0
73 74 75 0
76 77 78 0
79 80 81 0
82 83 84 0
85 86 87 0
88 89 90 0
91 92 93 0
94 95 96 0
97 98 99 0
100 101 102 0
103 104 105 0
106 107 108 0
109 110 111 0
112 113 114 0
115 116 117 0
118 119 120 0
121 122 123 0
124 125 126 0
127 128 129 0
130 131 132 0
133 134 135 0
136 137 138 0
139 140 141 0
142 143 144 0
145 146 147 0
148 149 150 0
151 152 153 0
154 155 156 0
157 158 159 0
160 161 162 0
163 164 165 0
166 167 168 0
169 170 171 0
172 173 174 0
175 176 177 0
178 179 180 0
181 182 183 0
184 185 186 0
187 188 189 0
190 191 192 0
193 194 195 0
196 197 198 0
199 200 201 0
202 203 204 0
205 206 207 0
208 209 210 0
211 212 213 0
214 215 216 0
217 218 219 0
220 221 222 0
223 224 225 0
226 227 228 0
229 230 231 0
232 233 234 0
235 236 237 0
238 239 240 0
241 242 243 0
244 245 246 0
247 248 249 0
250 251 252 0
253 254 255 0
256 257 258 0
259 260 261 0
262 263 264 0
265 266 267 0
268 269 270 0
271 272 273 0
274 275 276 0
277 278 279 0
280 281 282 0
283 284 285 0
286 287 288 0
289 290 291 0
292 293 294 0
295 296 297 0
298 299 300 0
301 302 303 0
304 305 306 0
307 308 309 0
310 311 312 0
313 314 315 0
316 317 318 0
319 320 321 0
322 323 324 0
325 326 327 0
328 329 330 0
331 332 333 0
334 335 336 0
337 338 339 0
340 341 342 0
343 344 345 0
346 347 348 0
349 350 351 0
352 353 354 0
355 356 357 0
358 359 360 0
361 362 363 0
364 365 366 0
367 368 369 0
370 371 372 0
373 374 375 0
376 377 378 0
379 380 381 0
382 383 384 0
385 386 387 0
388 389 390 0
391 392 393 0
394 395 396 0
397 398 399 0
400 401 402 0
403 404 405 0
406 407 408 0
409 410 411 0
412 413 414 0
415 416 417 0
418 419 420 0
421 422 423 0
424 425 426 0
427 428 429 0
430 431 432 0
433 434 435 0
436 437 438 0
439 440 441 0
442 443 444 0
445 446 447 0
448 449 450 0
451 452 453 0
454 455 456 0
457 458 459 0
460 461 462 0
463 464 465 0
466 467 468 0
469 470 471 0
472 473 474 0
475 476 477 0
478 479 480 0
481 482 483 0
484 485 486 0
487 488 489 0
490 491 492 0
493 494 495 0
496 497 498 0
499 500 501 0
502 503 504 0
505 506 507 0
508 509 510 0
511 512 513 0
514 515 516 0
517 518 519 0
520 521 522 0
523 524 525 0
526 527 528 0
529 530 531 0
532 533 534 0
535 536 537 0
538 539 540 0
541 542 543 0
544 545 546 0
547 548 549 0
550 551 552 0
553 554 555 0
556 557 558 0
559 560 561 0
562 563 564 0
565 566 567 0
568 569 570 0
571 572 573 0
574 575 576 0
577 578 579 0
580 581 582 0
583 584 585 0
586 587 588 0
589 590 591 0
592 593 594 0
595 596 597 0
598 599 600 0
601 602 603 0
604 605 606 0
607 608 609 0
610 611 612 0
613 614 615 0
616 617 618 0
619 620 621 0
622 623 624 0
625 626 627 0
628 629 630 0
631 632 633 0
634 635 636 0
637 638 639 0
640 641 642 0
643 644 645 0
646 647 648 0
649 650 651 0
652 653 654 0
655 656 657 0
658 659 660 0
661 662 663 0
664 665 666 0
667 668 669 0
670 671 672 0
673 674 675 0
676 677 678 0
679 680 681 0
682 683 684 0
685 686 687 0
688 689 690 0
691 692 693 0
694 695 696 0
697 698 699 0
700 701 702 0
703 704 705 0
706 707 708 0
709 710 711 0
712 713 714 0
715 716 717 0
718 719 720 0
721 722 723 0
724 725 726 0
727 728 729 0
730 731 732 0
733 734 735 0
736 737 738 0
739 740 741 0
742 743 744 0
745 746 747 0
748 749 750 0
751 752 753 0
754 755 756 0
757 758 759 0
760 761 762 0
763 764 765 0
766 767 768 0
769 770 771 0
772 773 774 0
775 776 777 0
778 779 780 0
781 782 783 0
784 785 786 0
787 788 789 0
790 791 792 0
793 794 795 0
796 797 798 0
799 800 801 0
802 803 804 0
805 806 807 0
808 809 810 0
811 812 813 0
814 815 816 0
817 818 819 0
820 821 822 0
823 824 825 0
826 827 828 0
829 830 831 0
832 833 834 0
835 836 837 0
838 839 840 0
841 842 843 0
844 845 846 0
847 848 849 0
850 851 852 0
853 854 855 0
856 857 858 0
859 860 861 0
862 863 864 0
865 866 867 0
868 869 870 0
871 872 873 0
874 875 876 0
877 878 879 0
880 881 882 0
883 884 885 0
886 887 888 0
889 890 891 0
892 893 894 0
895 896 897 0
898 899 900 0
901 902 903 0
904 905 906 0
907 908 909 0
910 911 912 0
913 914 915 0
916 917 918 0
919 920 921 0
922 923 924 0
925 926 927 0
928 929 930 0
931 932 933 0
934 935 936 0
937 938 939 0
940 941 942 0
943 944 945 0
946 947 948 0
949 950 951 0
952 953 954 0
955 956 957 0
958 959 960 0
961 962 963 0
964 965 966 0
967 968 969 0
970 971 972 0
973 974 975 0
976 977 978 0
979 980 981 0
982 983 984 0
985 986 987 0
988 989 990 0
991 992 993 0
994 995 996 0
997 998 999 0
1000 1001 1002 0
1003 1004 1005 0
1006 1007 1008 0
1009 1010 1011 0
1012 1013 1014 0
1015 1016 1017 0
1018 1019 1020 0
1021 1022 1023 0
1024 1025 1026 0
1027 1028 1029 0
1030 1031 1032 0
1033 1034 1035 0
1036 1037 1038 0
1039 1040 1041 0
1042 1043 1044 0
1045 1046 1047 0
1048 1049 1050 0
1051 1052 1053 0
1054 1055 1056 0
1057 1058 1059 0
1060 1061 1062 0
1063 1064 1065 0
1066 1067 1068 0
1069 1070 1071 0
1072 1073 1074 0
1075 1076 1077 0
1078 1079 1080 0
1081 1082 1083 0
1084 1085 1086 0
1087 1088 1089 0
1090 1091 1092 0
1093 1094 1095 0
1096 1097 1098 0
1099 1100 1101 0
1102 1103 1104 0
1105 1106 1107 0
1108 1109 1110 0
1111 1112 1113 0
1114 1115 1116 0
1117 1118 1119 0
1120 1121 1122 0
1123 1124 1125 0
1126 1127 1128 0
1129 1130 1131 0
1132 1133 1134 0
1135 1136 1137 0
1138 1139 1140 0
1141 1142 1143 0
1144 1145 1146 0
1147 1148 1149 0
1150 1151 1152 0
1153 1154 1155 0
1156 1157 1158 0
1159 1160 1161 0
1162 1163 1164 0
1165 1166 1167 0
1168 1169 1170 0
1171 1172 1173 0
1174 1175 1176 0
1177 1178 1179 0
-1 -673 0
-2 -674 0
-3 -675 0
-1 -682 0
-2 -683 0
-3 -684 0
-1 -127 0
-2 -128 0
-3 -129 0
-1 -91 0
-2 -92 0
-3 -93 0
-1 -97 0
-2 -98 0
-3 -99 0
-4 -880 0
-5 -881 0
-6 -882 0
-4 -43 0
-5 -44 0
-6 -45 0
-4 -955 0
-5 -956 0
-6 -957 0
-4 -175 0
-5 -176 0
-6 -177 0
-7 -691 0
-8 -692 0
-9 -693 0
-7 -181 0
-8 -182 0
-9 -183 0
-7 -52 0
-8 -53 0
-9 -54 0
-10 -739 0
-11 -740 0
-12 -741 0
-10 -829 0
-11 -830 0
-12 -831 0
-10 -1057 0
-11 -1058 0
-12 -1059 0
-10 -58 0
-11 -59 0
-12 -60 0
-10 -211 0
-11 -212 0
-12 -213 0
-10 -760 0
-11 -761 0
-12 -762 0
-10 -826 0
-11 -827 0
-12 -828 0
-13 -898 0
-14 -899 0
-15 -900 0
-13 -91 0
-14 -92 0
-15 -93 0
-13 -952 0
-14 -953 0
-15 -954 0
-13 -211 0
-14 -212 0
-15 -213 0
-13 -703 0
-14 -704 0
-15 -705 0
-16 -169 0
-17 -170 0
-18 -171 0
-16 -709 0
-17 -710 0
-18 -711 0
-16 -175 0
-17 -176 0
-18 -177 0
-19 -43 0
-20 -44 0
-21 -45 0
-19 -1099 0
-20 -1100 0
-21 -1101 0
-19 -316 0
-20 -317 0
-21 -318 0
-19 -1024 0
-20 -1025 0
-21 -1026 0
-19 -1084 0
-20 -1085 0
-21 -1086 0
-22 -832 0
-23 -833 0
-24 -834 0
-22 -175 0
-23 -176 0
-24 -177 0
-22 -181 0
-23 -182 0
-24 -183 0
-25 -946 0
-26 -947 0
-27 -948 0
-25 -1117 0
-26 -1118 0
-27 -1119 0
-25 -943 0
-26 -944 0
-27 -945 0
-25 -937 0
-26 -938 0
-27 -939 0
-25 -211 0
-26 -212 0
-27 -213 0
-25 -175 0
-26 -176 0
-27 -177 0
-28 -370 0
-29 -371 0
-30 -372 0
-28 -766 0
-29 -767 0
-30 -768 0
-28 -772 0
-29 -773 0
-30 -774 0
-28 -43 0
-29 -44 0
-30 -45 0
-28 -232 0
-29 -233 0
-30 -234 0
-31 -940 0
-32 -941 0
-33 -942 0
-31 -43 0
-32 -44 0
-33 -45 0
-31 -373 0
-32 -374 0
-33 -375 0
-31 -1060 0
-32 -1061 0
-33 -1062 0
-34 -820 0
-35 -821 0
-36 -822 0
-34 -58 0
-35 -59 0
-36 -60 0
-34 -319 0
-35 -320 0
-36 -321 0
-34 -1111 0
-35 -1112 0
-36 -1113 0
-37 -307 0
-38 -308 0
-39 -309 0
-37 -985 0
-38 -986 0
-39 -987 0
-37 -763 0
-38 -764 0
-39 -765 0
-37 -97 0
-38 -98 0
-39 -99 0
-37 -367 0
-38 -368 0
-39 -369 0
-37 -715 0
-38 -716 0
-39 -717 0
-37 -748 0
-38 -749 0
-39 -750 0
-37 -787 0
-38 -788 0
-39 -789 0
-40 -1030 0
-41 -1031 0
-42 -1032 0
-40 -418 0
-41 -419 0
-42 -420 0
-40 -706 0
-41 -707 0
-42 -708 0
-40 -43 0
-41 -44 0
-42 -45 0
-40 -685 0
-41 -686 0
-42 -687 0
-40 -1054 0
-41 -1055 0
-42 -1056 0
-43 -244 0
-44 -245 0
-45 -246 0
-43 -421 0
-44 -422 0
-45 -423 0
-43 -331 0
-44 -332 0
-45 -333 0
-43 -46 0
-44 -47 0
-45 -48 0
-43 -139 0
-44 -140 0
-45 -141 0
-43 -142 0
-44 -143 0
-45 -144 0
-43 -49 0
-44 -50 0
-45 -51 0
-46 -775 0
-47 -776 0
-48 -777 0
-46 -1060 0
-47 -1061 0
-48 -1062 0
-49 -883 0
-50 -884 0
-51 -885 0
-49 -475 0
-50 -476 0
-51 -477 0
-49 -766 0
-50 -767 0
-51 -768 0
-52 -364 0
-53 -365 0
-54 -366 0
-52 -367 0
-53 -368 0
-54 -369 0
-52 -421 0
-53 -422 0
-54 -423 0
-52 -127 0
-53 -128 0
-54 -129 0
-55 -169 0
-56 -170 0
-57 -171 0
-55 -286 0
-56 -287 0
-57 -288 0
-55 -1123 0
-56 -1124 0
-57 -1125 0
-55 -886 0
-56 -887 0
-57 -888 0
-58 -292 0
-59 -293 0
-60 -294 0
-58 -103 0
-59 -104 0
-60 -105 0
-58 -109 0
-59 -110 0
-60 -111 0
-58 -382 0
-59 -383 0
-60 -384 0
-58 -361 0
-59 -362 0
-60 -363 0
-58 -145 0
-59 -146 0
-60 -147 0
-58 -61 0
-59 -62 0
-60 -63 0
-58 -148 0
-59 -149 0
-60 -150 0
-58 -421 0
-59 -422 0
-60 -423 0
-61 -820 0
-62 -821 0
-63 -822 0
-61 -829 0
-62 -830 0
-63 -831 0
-61 -424 0
-62 -425 0
-63 -426 0
-64 -418 0
-65 -419 0
-66 -420 0
-64 -973 0
-65 -974 0
-66 -975 0
-64 -67 0
-65 -68 0
-66 -69 0
-64 -1021 0
-65 -1022 0
-66 -1023 0
-67 -85 0
-68 -86 0
-69 -87 0
-67 -106 0
-68 -107 0
-69 -108 0
-67 -112 0
-68 -113 0
-69 -114 0
-67 -391 0
-68 -392 0
-69 -393 0
-67 -70 0
-68 -71 0
-69 -72 0
-67 -151 0
-68 -152 0
-69 -153 0
-67 -421 0
-68 -422 0
-69 -423 0
-70 -739 0
-71 -740 0
-72 -741 0
-70 -1063 0
-71 -1064 0
-72 -1065 0
-70 -1003 0
-71 -1004 0
-72 -1005 0
-70 -1009 0
-71 -1010 0
-72 -1011 0
-70 -1018 0
-71 -1019 0
-72 -1020 0
-70 -424 0
-71 -425 0
-72 -426 0
-73 -673 0
-74 -674 0
-75 -675 0
-73 -394 0
-74 -395 0
-75 -396 0
-73 -97 0
-74 -98 0
-75 -99 0
-73 -856 0
-74 -857 0
-75 -858 0
-76 -190 0
-77 -191 0
-78 -192 0
-76 -277 0
-77 -278 0
-78 -279 0
-76 -844 0
-77 -845 0
-78 -846 0
-76 -1012 0
-77 -1013 0
-78 -1014 0
-79 -676 0
-80 -677 0
-81 -678 0
-79 -274 0
-80 -275 0
-81 -276 0
-79 -415 0
-80 -416 0
-81 -417 0
-82 -892 0
-83 -893 0
-84 -894 0
-82 -190 0
-83 -191 0
-84 -192 0
-82 -847 0
-83 -848 0
-84 -849 0
-82 -286 0
-83 -287 0
-84 -288 0
-82 -679 0
-83 -680 0
-84 -681 0
-85 -682 0
-86 -683 0
-87 -684 0
-85 -457 0
-86 -458 0
-87 -459 0
-85 -1078 0
-86 -1079 0
-87 -1080 0
-88 -709 0
-89 -710 0
-90 -711 0
-88 -415 0
-89 -416 0
-90 -417 0
-88 -91 0
-89 -92 0
-90 -93 0
-88 -790 0
-89 -791 0
-90 -792 0
-88 -835 0
-89 -836 0
-90 -837 0
-88 -838 0
-89 -839 0
-90 -840 0
-91 -469 0
-92 -470 0
-93 -471 0
-91 -115 0
-92 -116 0
-93 -117 0
-91 -118 0
-92 -119 0
-93 -120 0
-91 -160 0
-92 -161 0
-93 -162 0
-91 -295 0
-92 -296 0
-93 -297 0
-91 -298 0
-92 -299 0
-93 -300 0
-91 -493 0
-92 -494 0
-93 -495 0
-91 -421 0
-92 -422 0
-93 -423 0
-94 -97 0
-95 -98 0
-96 -99 0
-94 -418 0
-95 -419 0
-96 -420 0
-94 -805 0
-95 -806 0
-96 -807 0
-94 -1069 0
-95 -1070 0
-96 -1071 0
-94 -1054 0
-95 -1055 0
-96 -1056 0
-97 -460 0
-98 -461 0
-99 -462 0
-97 -427 0
-98 -428 0
-99 -429 0
-97 -472 0
-98 -473 0
-99 -474 0
-97 -100 0
-98 -101 0
-99 -102 0
-97 -496 0
-98 -497 0
-99 -498 0
-97 -421 0
-98 -422 0
-99 -423 0
-100 -1006 0
-101 -1007 0
-102 -1008 0
-100 -430 0
-101 -431 0
-102 -432 0
-100 -1015 0
-101 -1016 0
-102 -1017 0
-100 -1120 0
-101 -1121 0
-102 -1122 0
-103 -475 0
-104 -476 0
-105 -477 0
-103 -673 0
-104 -674 0
-105 -675 0
-103 -952 0
-104 -953 0
-105 -954 0
-103 -856 0
-104 -857 0
-105 -858 0
-103 -889 0
-104 -890 0
-105 -891 0
-106 -475 0
-107 -476 0
-108 -477 0
-106 -682 0
-107 -683 0
-108 -684 0
-106 -673 0
-107 -674 0
-108 -675 0
-109 -1144 0
-110 -1145 0
-111 -1146 0
-109 -952 0
-110 -953 0
-111 -954 0
-109 -697 0
-110 -698 0
-111 -699 0
-109 -712 0
-110 -713 0
-111 -714 0
-109 -1177 0
-110 -1178 0
-111 -1179 0
-109 -484 0
-110 -485 0
-111 -486 0
-112 -484 0
-113 -485 0
-114 -486 0
-112 -757 0
-113 -758 0
-114 -759 0
-115 -949 0
-116 -950 0
-117 -951 0
-115 -475 0
-116 -476 0
-117 -477 0
-115 -835 0
-116 -836 0
-117 -837 0
-118 -1150 0
-119 -1151 0
-120 -1152 0
-118 -1111 0
-119 -1112 0
-120 -1113 0
-121 -307 0
-122 -308 0
-123 -309 0
-121 -988 0
-122 -989 0
-123 -990 0
-121 -994 0
-122 -995 0
-123 -996 0
-121 -1099 0
-122 -1100 0
-123 -1101 0
-121 -175 0
-122 -176 0
-123 -177 0
-124 -307 0
-125 -308 0
-126 -309 0
-124 -1147 0
-125 -1148 0
-126 -1149 0
-124 -1105 0
-125 -1106 0
-126 -1107 0
-124 -181 0
-125 -182 0
-126 -183 0
-124 -1123 0
-125 -1124 0
-126 -1125 0
-124 -1084 0
-125 -1085 0
-126 -1086 0
-124 -748 0
-125 -749 0
-126 -750 0
-127 -493 0
-128 -494 0
-129 -495 0
-127 -496 0
-128 -497 0
-129 -498 0
-127 -532 0
-128 -533 0
-129 -534 0
-130 -895 0
-131 -896 0
-132 -897 0
-130 -190 0
-131 -191 0
-132 -192 0
-130 -850 0
-131 -851 0
-132 -852 0
-130 -319 0
-131 -320 0
-132 -321 0
-133 -742 0
-134 -743 0
-135 -744 0
-133 -172 0
-134 -173 0
-135 -174 0
-133 -769 0
-134 -770 0
-135 -771 0
-133 -355 0
-134 -356 0
-135 -357 0
-133 -727 0
-134 -728 0
-135 -729 0
-136 -949 0
-137 -950 0
-138 -951 0
-136 -1162 0
-137 -1163 0
-138 -1164 0
-136 -907 0
-137 -908 0
-138 -909 0
-136 -211 0
-137 -212 0
-138 -213 0
-136 -319 0
-137 -320 0
-138 -321 0
-139 -550 0
-140 -551 0
-141 -552 0
-139 -1081 0
-140 -1082 0
-141 -1083 0
-142 -772 0
-143 -773 0
-144 -774 0
-142 -685 0
-143 -686 0
-144 -687 0
-142 -1102 0
-143 -1103 0
-144 -1104 0
-142 -880 0
-143 -881 0
-144 -882 0
-142 -1108 0
-143 -1109 0
-144 -1110 0
-145 -958 0
-146 -959 0
-147 -960 0
-145 -967 0
-146 -968 0
-147 -969 0
-145 -991 0
-146 -992 0
-147 -993 0
-145 -526 0
-146 -527 0
-147 -528 0
-148 -1096 0
-149 -1097 0
-150 -1098 0
-148 -1081 0
-149 -1082 0
-150 -1083 0
-148 -1165 0
-149 -1166 0
-150 -1167 0
-148 -532 0
-149 -533 0
-150 -534 0
-151 -1036 0
-152 -1037 0
-153 -1038 0
-151 -1021 0
-152 -1022 0
-153 -1023 0
-151 -880 0
-152 -881 0
-153 -882 0
-151 -532 0
-152 -533 0
-153 -534 0
-154 -202 0
-155 -203 0
-156 -204 0
-154 -337 0
-155 -338 0
-156 -339 0
-154 -916 0
-155 -917 0
-156 -918 0
-154 -688 0
-155 -689 0
-156 -690 0
-154 -781 0
-155 -782 0
-156 -783 0
-157 -730 0
-158 -731 0
-159 -732 0
-157 -949 0
-158 -950 0
-159 -951 0
-157 -922 0
-158 -923 0
-159 -924 0
-157 -211 0
-158 -212 0
-159 -213 0
-157 -691 0
-158 -692 0
-159 -693 0
-157 -793 0
-158 -794 0
-159 -795 0
-157 -355 0
-158 -356 0
-159 -357 0
-157 -724 0
-158 -725 0
-159 -726 0
-160 -1150 0
-161 -1151 0
-162 -1152 0
-160 -865 0
-161 -866 0
-162 -867 0
-160 -838 0
-161 -839 0
-162 -840 0
-160 -526 0
-161 -527 0
-162 -528 0
-163 -370 0
-164 -371 0
-165 -372 0
-163 -808 0
-164 -809 0
-165 -810 0
-163 -181 0
-164 -182 0
-165 -183 0
-166 -169 0
-167 -170 0
-168 -171 0
-166 -400 0
-167 -401 0
-168 -402 0
-166 -886 0
-167 -887 0
-168 -888 0
-166 -895 0
-167 -896 0
-168 -897 0
-169 -196 0
-170 -197 0
-171 -198 0
-169 -421 0
-170 -422 0
-171 -423 0
-172 -241 0
-173 -242 0
-174 -243 0
-172 -571 0
-173 -572 0
-174 -573 0
-172 -217 0
-173 -218 0
-174 -219 0
-172 -421 0
-173 -422 0
-174 -423 0
-175 -184 0
-176 -185 0
-177 -186 0
-175 -247 0
-176 -248 0
-177 -249 0
-175 -253 0
-176 -254 0
-177 -255 0
-175 -421 0
-176 -422 0
-177 -423 0
-175 -562 0
-176 -563 0
-177 -564 0
-175 -538 0
-176 -539 0
-177 -540 0
-178 -418 0
-179 -419 0
-180 -420 0
-178 -814 0
-179 -815 0
-180 -816 0
-178 -181 0
-179 -182 0
-180 -183 0
-178 -1129 0
-179 -1130 0
-180 -1131 0
-181 -256 0
-182 -257 0
-183 -258 0
-181 -565 0
-182 -566 0
-183 -567 0
-181 -547 0
-182 -548 0
-183 -549 0
-181 -238 0
-182 -239 0
-183 -240 0
-181 -421 0
-182 -422 0
-183 -423 0
-184 -904 0
-185 -905 0
-186 -906 0
-184 -1129 0
-185 -1130 0
-186 -1131 0
-184 -439 0
-185 -440 0
-186 -441 0
-187 -1132 0
-188 -1133 0
-189 -1134 0
-187 -892 0
-188 -893 0
-189 -894 0
-187 -895 0
-188 -896 0
-189 -897 0
-187 -190 0
-188 -191 0
-189 -192 0
-187 -697 0
-188 -698 0
-189 -699 0
-187 -406 0
-188 -407 0
-189 -408 0
-190 -559 0
-191 -560 0
-192 -561 0
-190 -226 0
-191 -227 0
-192 -228 0
-190 -232 0
-191 -233 0
-192 -234 0
-190 -583 0
-191 -584 0
-192 -585 0
-190 -421 0
-191 -422 0
-192 -423 0
-193 -937 0
-194 -938 0
-195 -939 0
-193 -400 0
-194 -401 0
-195 -402 0
-193 -211 0
-194 -212 0
-195 -213 0
-193 -199 0
-194 -200 0
-195 -201 0
-196 -970 0
-197 -971 0
-198 -972 0
-196 -1078 0
-197 -1079 0
-198 -1080 0
-196 -484 0
-197 -485 0
-198 -486 0
-199 -214 0
-200 -215 0
-201 -216 0
-199 -202 0
-200 -203 0
-201 -204 0
-199 -412 0
-200 -413 0
-201 -414 0
-199 -415 0
-200 -416 0
-201 -417 0
-202 -421 0
-203 -422 0
-204 -423 0
-202 -541 0
-203 -542 0
-204 -543 0
-202 -235 0
-203 -236 0
-204 -237 0
-202 -259 0
-203 -260 0
-204 -261 0
-202 -205 0
-203 -206 0
-204 -207 0
-202 -265 0
-203 -266 0
-204 -267 0
-202 -220 0
-203 -221 0
-204 -222 0
-205 -739 0
-206 -740 0
-207 -741 0
-205 -694 0
-206 -695 0
-207 -696 0
-205 -784 0
-206 -785 0
-207 -786 0
-205 -760 0
-206 -761 0
-207 -762 0
-205 -424 0
-206 -425 0
-207 -426 0
-205 -736 0
-206 -737 0
-207 -738 0
-208 -841 0
-209 -842 0
-210 -843 0
-208 -739 0
-209 -740 0
-210 -741 0
-208 -418 0
-209 -419 0
-210 -420 0
-208 -736 0
-209 -737 0
-210 -738 0
-208 -211 0
-209 -212 0
-210 -213 0
-208 -727 0
-209 -728 0
-210 -729 0
-208 -733 0
-209 -734 0
-210 -735 0
-211 -274 0
-212 -275 0
-213 -276 0
-211 -229 0
-212 -230 0
-213 -231 0
-211 -544 0
-212 -545 0
-213 -546 0
-211 -262 0
-212 -263 0
-213 -264 0
-211 -214 0
-212 -215 0
-213 -216 0
-211 -223 0
-212 -224 0
-213 -225 0
-211 -451 0
-212 -452 0
-213 -453 0
-211 -556 0
-212 -557 0
-213 -558 0
-211 -268 0
-212 -269 0
-213 -270 0
-211 -421 0
-212 -422 0
-213 -423 0
-214 -430 0
-215 -431 0
-216 -432 0
-214 -778 0
-215 -779 0
-216 -780 0
-214 -220 0
-215 -221 0
-216 -222 0
-217 -964 0
-218 -965 0
-219 -966 0
-217 -1039 0
-218 -1040 0
-219 -1041 0
-217 -856 0
-218 -857 0
-219 -858 0
-220 -439 0
-221 -440 0
-222 -441 0
-220 -700 0
-221 -701 0
-222 -702 0
-223 -742 0
-224 -743 0
-225 -744 0
-223 -802 0
-224 -803 0
-225 -804 0
-223 -727 0
-224 -728 0
-225 -729 0
-223 -433 0
-224 -434 0
-225 -435 0
-226 -475 0
-227 -476 0
-228 -477 0
-226 -901 0
-227 -902 0
-228 -903 0
-226 -697 0
-227 -698 0
-228 -699 0
-226 -1087 0
-227 -1088 0
-228 -1089 0
-229 -967 0
-230 -968 0
-231 -969 0
-229 -991 0
-230 -992 0
-231 -993 0
-229 -778 0
-230 -779 0
-231 -780 0
-232 -586 0
-233 -587 0
-234 -588 0
-232 -901 0
-233 -902 0
-234 -903 0
-232 -484 0
-233 -485 0
-234 -486 0
-235 -1156 0
-236 -1157 0
-237 -1158 0
-235 -784 0
-236 -785 0
-237 -786 0
-238 -511 0
-239 -512 0
-240 -513 0
-238 -832 0
-239 -833 0
-240 -834 0
-238 -790 0
-239 -791 0
-240 -792 0
-238 -703 0
-239 -704 0
-240 -705 0
-241 -880 0
-242 -881 0
-243 -882 0
-241 -727 0
-242 -728 0
-243 -729 0
-241 -532 0
-242 -533 0
-243 -534 0
-241 -733 0
-242 -734 0
-243 -735 0
-244 -706 0
-245 -707 0
-246 -708 0
-244 -610 0
-245 -611 0
-246 -612 0
-244 -1105 0
-245 -1106 0
-246 -1107 0
-244 -1066 0
-245 -1067 0
-246 -1068 0
-244 -1084 0
-245 -1085 0
-246 -1086 0
-247 -967 0
-248 -968 0
-249 -969 0
-247 -904 0
-248 -905 0
-249 -906 0
-247 -1099 0
-248 -1100 0
-249 -1101 0
-247 -526 0
-248 -527 0
-249 -528 0
-250 -1114 0
-251 -1115 0
-252 -1116 0
-250 -337 0
-251 -338 0
-252 -339 0
-250 -1102 0
-251 -1103 0
-252 -1104 0
-250 -286 0
-251 -287 0
-252 -288 0
-250 -1108 0
-251 -1109 0
-252 -1110 0
-253 -529 0
-254 -530 0
-255 -531 0
-253 -1138 0
-254 -1139 0
-255 -1140 0
-253 -943 0
-254 -944 0
-255 -945 0
-256 -1114 0
-257 -1115 0
-258 -1116 0
-256 -529 0
-257 -530 0
-258 -531 0
-256 -1105 0
-257 -1106 0
-258 -1107 0
-259 -1153 0
-260 -1154 0
-261 -1155 0
-259 -1156 0
-260 -1157 0
-261 -1158 0
-259 -526 0
-260 -527 0
-261 -528 0
-262 -1153 0
-263 -1154 0
-264 -1155 0
-262 -529 0
-263 -530 0
-264 -531 0
-262 -943 0
-263 -944 0
-264 -945 0
-262 -1057 0
-263 -1058 0
-264 -1059 0
-262 -1156 0
-263 -1157 0
-264 -1158 0
-265 -883 0
-266 -884 0
-267 -885 0
-265 -781 0
-266 -782 0
-267 -783 0
-265 -532 0
-266 -533 0
-267 -534 0
-268 -883 0
-269 -884 0
-270 -885 0
-268 -532 0
-269 -533 0
-270 -534 0
-268 -1042 0
-269 -1043 0
-270 -1044 0
-271 -1093 0
-272 -1094 0
-273 -1095 0
-271 -604 0
-272 -605 0
-273 -606 0
-271 -1174 0
-272 -1175 0
-273 -1176 0
-271 -700 0
-272 -701 0
-273 -702 0
-274 -730 0
-275 -731 0
-276 -732 0
-274 -595 0
-275 -596 0
-276 -597 0
-277 -628 0
-278 -629 0
-279 -630 0
-277 -280 0
-278 -281 0
-279 -282 0
-277 -421 0
-278 -422 0
-279 -423 0
-280 -1012 0
-281 -1013 0
-282 -1014 0
-280 -1027 0
-281 -1028 0
-282 -1029 0
-280 -904 0
-281 -905 0
-282 -906 0
-280 -424 0
-281 -425 0
-282 -426 0
-280 -886 0
-281 -887 0
-282 -888 0
-283 -892 0
-284 -893 0
-285 -894 0
-283 -901 0
-284 -902 0
-285 -903 0
-283 -286 0
-284 -287 0
-285 -288 0
-283 -406 0
-284 -407 0
-285 -408 0
-286 -289 0
-287 -290 0
-288 -291 0
-286 -421 0
-287 -422 0
-288 -423 0
-289 -928 0
-290 -929 0
-291 -930 0
-289 -439 0
-290 -440 0
-291 -441 0
-292 -934 0
-293 -935 0
-294 -936 0
-292 -604 0
-293 -605 0
-294 -606 0
-292 -973 0
-293 -974 0
-294 -975 0
-292 -1081 0
-293 -1082 0
-294 -1083 0
-292 -1150 0
-293 -1151 0
-294 -1152 0
-292 -1111 0
-293 -1112 0
-294 -1113 0
-295 -709 0
-296 -710 0
-297 -711 0
-295 -865 0
-296 -866 0
-297 -867 0
-295 -745 0
-296 -746 0
-297 -747 0
-298 -910 0
-299 -911 0
-300 -912 0
-298 -1090 0
-299 -1091 0
-300 -1092 0
-298 -799 0
-299 -800 0
-300 -801 0
-298 -823 0
-299 -824 0
-300 -825 0
-298 -598 0
-299 -599 0
-300 -600 0
-298 -817 0
-299 -818 0
-300 -819 0
-298 -889 0
-299 -890 0
-300 -891 0
-301 -913 0
-302 -914 0
-303 -915 0
-301 -337 0
-302 -338 0
-303 -339 0
-301 -1159 0
-302 -1160 0
-303 -1161 0
-301 -355 0
-302 -356 0
-303 -357 0
-301 -1108 0
-302 -1109 0
-303 -1110 0
-301 -736 0
-302 -737 0
-303 -738 0
-304 -406 0
-305 -407 0
-306 -408 0
-304 -871 0
-305 -872 0
-306 -873 0
-304 -307 0
-305 -308 0
-306 -309 0
-307 -622 0
-308 -623 0
-309 -624 0
-307 -340 0
-308 -341 0
-309 -342 0
-307 -352 0
-308 -353 0
-309 -354 0
-307 -580 0
-308 -581 0
-309 -582 0
-307 -310 0
-308 -311 0
-309 -312 0
-307 -421 0
-308 -422 0
-309 -423 0
-310 -982 0
-311 -983 0
-312 -984 0
-310 -742 0
-311 -743 0
-312 -744 0
-310 -874 0
-311 -875 0
-312 -876 0
-310 -433 0
-311 -434 0
-312 -435 0
-313 -940 0
-314 -941 0
-315 -942 0
-313 -400 0
-314 -401 0
-315 -402 0
-313 -931 0
-314 -932 0
-315 -933 0
-313 -319 0
-314 -320 0
-315 -321 0
-316 -568 0
-317 -569 0
-318 -570 0
-316 -325 0
-317 -326 0
-318 -327 0
-316 -421 0
-317 -422 0
-318 -423 0
-319 -322 0
-320 -323 0
-321 -324 0
-319 -634 0
-320 -635 0
-321 -636 0
-319 -574 0
-320 -575 0
-321 -576 0
-319 -577 0
-320 -578 0
-321 -579 0
-319 -421 0
-320 -422 0
-321 -423 0
-322 -820 0
-323 -821 0
-324 -822 0
-322 -961 0
-323 -962 0
-324 -963 0
-322 -424 0
-323 -425 0
-324 -426 0
-325 -1135 0
-326 -1136 0
-327 -1137 0
-325 -439 0
-326 -440 0
-327 -441 0
-325 -853 0
-326 -854 0
-327 -855 0
-328 -910 0
-329 -911 0
-330 -912 0
-328 -859 0
-329 -860 0
-330 -861 0
-328 -769 0
-329 -770 0
-330 -771 0
-328 -373 0
-329 -374 0
-330 -375 0
-328 -865 0
-329 -866 0
-330 -867 0
-328 -355 0
-329 -356 0
-330 -357 0
-331 -1030 0
-332 -1031 0
-333 -1032 0
-331 -1000 0
-332 -1001 0
-333 -1002 0
-331 -649 0
-332 -650 0
-333 -651 0
-331 -853 0
-332 -854 0
-333 -855 0
-334 -1114 0
-335 -1115 0
-336 -1116 0
-334 -418 0
-335 -419 0
-336 -420 0
-334 -871 0
-335 -872 0
-336 -873 0
-334 -337 0
-335 -338 0
-336 -339 0
-337 -481 0
-338 -482 0
-339 -483 0
-337 -343 0
-338 -344 0
-339 -345 0
-337 -421 0
-338 -422 0
-339 -423 0
-340 -913 0
-341 -914 0
-342 -915 0
-340 -862 0
-341 -863 0
-342 -864 0
-340 -1159 0
-341 -1160 0
-342 -1161 0
-340 -484 0
-341 -485 0
-342 -486 0
-343 -862 0
-344 -863 0
-345 -864 0
-343 -430 0
-344 -431 0
-345 -432 0
-343 -688 0
-344 -689 0
-345 -690 0
-343 -757 0
-344 -758 0
-345 -759 0
-346 -895 0
-347 -896 0
-348 -897 0
-346 -400 0
-347 -401 0
-348 -402 0
-346 -355 0
-347 -356 0
-348 -357 0
-349 -820 0
-350 -821 0
-351 -822 0
-349 -961 0
-350 -962 0
-351 -963 0
-349 -676 0
-350 -677 0
-351 -678 0
-349 -415 0
-350 -416 0
-351 -417 0
-349 -691 0
-350 -692 0
-351 -693 0
-349 -355 0
-350 -356 0
-351 -357 0
-352 -913 0
-353 -914 0
-354 -915 0
-352 -961 0
-353 -962 0
-354 -963 0
-352 -868 0
-353 -869 0
-354 -870 0
-355 -625 0
-356 -626 0
-357 -627 0
-355 -478 0
-356 -479 0
-357 -480 0
-355 -358 0
-356 -359 0
-357 -360 0
-355 -421 0
-356 -422 0
-357 -423 0
-358 -742 0
-359 -743 0
-360 -744 0
-358 -904 0
-359 -905 0
-360 -906 0
-358 -718 0
-359 -719 0
-360 -720 0
-358 -874 0
-359 -875 0
-360 -876 0
-358 -424 0
-359 -425 0
-360 -426 0
-361 -676 0
-362 -677 0
-363 -678 0
-361 -991 0
-362 -992 0
-363 -993 0
-361 -979 0
-362 -980 0
-363 -981 0
-361 -907 0
-362 -908 0
-363 -909 0
-364 -637 0
-365 -638 0
-366 -639 0
-364 -688 0
-365 -689 0
-366 -690 0
-364 -493 0
-365 -494 0
-366 -495 0
-367 -640 0
-368 -641 0
-369 -642 0
-367 -691 0
-368 -692 0
-369 -693 0
-367 -496 0
-368 -497 0
-369 -498 0
-367 -724 0
-368 -725 0
-369 -726 0
-370 -592 0
-371 -593 0
-372 -594 0
-370 -502 0
-371 -503 0
-372 -504 0
-370 -397 0
-371 -398 0
-372 -399 0
-370 -421 0
-371 -422 0
-372 -423 0
-370 -586 0
-371 -587 0
-372 -588 0
-373 -445 0
-374 -446 0
-375 -447 0
-373 -376 0
-374 -377 0
-375 -378 0
-373 -379 0
-374 -380 0
-375 -381 0
-373 -385 0
-374 -386 0
-375 -387 0
-373 -421 0
-374 -422 0
-375 -423 0
-376 -1003 0
-377 -1004 0
-378 -1005 0
-376 -388 0
-377 -389 0
-378 -390 0
-376 -424 0
-377 -425 0
-378 -426 0
-379 -1072 0
-380 -1073 0
-381 -1074 0
-379 -1060 0
-380 -1061 0
-381 -1062 0
-382 -934 0
-383 -935 0
-384 -936 0
-382 -964 0
-383 -965 0
-384 -966 0
-382 -640 0
-383 -641 0
-384 -642 0
-382 -1165 0
-383 -1166 0
-384 -1167 0
-382 -856 0
-383 -857 0
-384 -858 0
-385 -802 0
-386 -803 0
-387 -804 0
-385 -433 0
-386 -434 0
-387 -435 0
-385 -388 0
-386 -389 0
-387 -390 0
-385 -403 0
-386 -404 0
-387 -405 0
-388 -436 0
-389 -437 0
-390 -438 0
-388 -394 0
-389 -395 0
-390 -396 0
-388 -679 0
-389 -680 0
-390 -681 0
-388 -406 0
-389 -407 0
-390 -408 0
-391 -637 0
-392 -638 0
-393 -639 0
-391 -1036 0
-392 -1037 0
-393 -1038 0
-391 -970 0
-392 -971 0
-393 -972 0
-391 -1078 0
-392 -1079 0
-393 -1080 0
-394 -442 0
-395 -443 0
-396 -444 0
-394 -421 0
-395 -422 0
-396 -423 0
-394 -448 0
-395 -449 0
-396 -450 0
-397 -946 0
-398 -947 0
-399 -948 0
-397 -475 0
-398 -476 0
-399 -477 0
-397 -1117 0
-398 -1118 0
-399 -1119 0
-397 -766 0
-398 -767 0
-399 -768 0
-397 -1090 0
-398 -1091 0
-399 -1092 0
-397 -919 0
-398 -920 0
-399 -921 0
-397 -877 0
-398 -878 0
-399 -879 0
-397 -976 0
-398 -977 0
-399 -978 0
-397 -1087 0
-398 -1088 0
-399 -1089 0
-397 -889 0
-398 -890 0
-399 -891 0
-400 -589 0
-401 -590 0
-402 -591 0
-400 -412 0
-401 -413 0
-402 -414 0
-400 -421 0
-401 -422 0
-402 -423 0
-403 -841 0
-404 -842 0
-405 -843 0
-403 -418 0
-404 -419 0
-405 -420 0
-403 -463 0
-404 -464 0
-405 -465 0
-403 -406 0
-404 -407 0
-405 -408 0
-406 -466 0
-407 -467 0
-408 -468 0
-406 -409 0
-407 -410 0
-408 -411 0
-406 -454 0
-407 -455 0
-408 -456 0
-406 -421 0
-407 -422 0
-408 -423 0
-409 -694 0
-410 -695 0
-411 -696 0
-409 -718 0
-410 -719 0
-411 -720 0
-409 -424 0
-410 -425 0
-411 -426 0
-412 -430 0
-413 -431 0
-414 -432 0
-412 -595 0
-413 -596 0
-414 -597 0
-415 -643 0
-416 -644 0
-417 -645 0
-415 -595 0
-416 -596 0
-417 -597 0
-415 -421 0
-416 -422 0
-417 -423 0
-418 -652 0
-419 -653 0
-420 -654 0
-418 -646 0
-419 -647 0
-420 -648 0
-418 -508 0
-419 -509 0
-420 -510 0
-418 -607 0
-419 -608 0
-420 -609 0
-418 -523 0
-419 -524 0
-420 -525 0
-418 -421 0
-419 -422 0
-420 -423 0
-421 -457 0
-422 -458 0
-423 -459 0
-421 -649 0
-422 -650 0
-423 -651 0
-421 -424 0
-422 -425 0
-423 -426 0
-421 -532 0
-422 -533 0
-423 -534 0
-421 -475 0
-422 -476 0
-423 -477 0
-421 -430 0
-422 -431 0
-423 -432 0
-421 -598 0
-422 -599 0
-423 -600 0
-421 -433 0
-422 -434 0
-423 -435 0
-421 -511 0
-422 -512 0
-423 -513 0
-421 -439 0
-422 -440 0
-423 -441 0
-421 -637 0
-422 -638 0
-423 -639 0
-421 -640 0
-422 -641 0
-423 -642 0
-421 -484 0
-422 -485 0
-423 -486 0
-421 -601 0
-422 -602 0
-423 -603 0
-421 -655 0
-422 -656 0
-423 -657 0
-421 -550 0
-422 -551 0
-423 -552 0
-421 -604 0
-422 -605 0
-423 -606 0
-421 -610 0
-422 -611 0
-423 -612 0
-421 -526 0
-422 -527 0
-423 -528 0
-421 -529 0
-422 -530 0
-423 -531 0
-424 -436 0
-425 -437 0
-426 -438 0
-424 -514 0
-425 -515 0
-426 -516 0
-424 -487 0
-425 -488 0
-426 -489 0
-424 -490 0
-425 -491 0
-426 -492 0
-424 -553 0
-425 -554 0
-426 -555 0
-427 -640 0
-428 -641 0
-429 -642 0
-427 -721 0
-428 -722 0
-429 -723 0
-430 -658 0
-431 -659 0
-432 -660 0
-433 -463 0
-434 -464 0
-435 -465 0
-433 -436 0
-434 -437 0
-435 -438 0
-436 -442 0
-437 -443 0
-438 -444 0
-436 -466 0
-437 -467 0
-438 -468 0
-436 -1009 0
-437 -1010 0
-438 -1011 0
-436 -1027 0
-437 -1028 0
-438 -1029 0
-439 -613 0
-440 -614 0
-441 -615 0
-442 -475 0
-443 -476 0
-444 -477 0
-442 -721 0
-443 -722 0
-444 -723 0
-445 -910 0
-446 -911 0
-447 -912 0
-445 -964 0
-446 -965 0
-447 -966 0
-448 -970 0
-449 -971 0
-450 -972 0
-448 -1144 0
-449 -1145 0
-450 -1146 0
-448 -484 0
-449 -485 0
-450 -486 0
-451 -958 0
-452 -959 0
-453 -960 0
-451 -610 0
-452 -611 0
-453 -612 0
-451 -991 0
-452 -992 0
-453 -993 0
-451 -907 0
-452 -908 0
-453 -909 0
-454 -457 0
-455 -458 0
-456 -459 0
-454 -925 0
-455 -926 0
-456 -927 0
-457 -463 0
-458 -464 0
-459 -465 0
-457 -535 0
-458 -536 0
-459 -537 0
-460 -856 0
-461 -857 0
-462 -858 0
-460 -787 0
-461 -788 0
-462 -789 0
-463 -466 0
-464 -467 0
-465 -468 0
-466 -475 0
-467 -476 0
-468 -477 0
-466 -697 0
-467 -698 0
-468 -699 0
-466 -712 0
-467 -713 0
-468 -714 0
-469 -1090 0
-470 -1091 0
-471 -1092 0
-469 -682 0
-470 -683 0
-471 -684 0
-469 -1000 0
-470 -1001 0
-471 -1002 0
-469 -1078 0
-470 -1079 0
-471 -1080 0
-469 -649 0
-470 -650 0
-471 -651 0
-472 -682 0
-473 -683 0
-474 -684 0
-472 -1069 0
-473 -1070 0
-474 -1071 0
-472 -649 0
-473 -650 0
-474 -651 0
-472 -715 0
-473 -716 0
-474 -717 0
-475 -499 0
-476 -500 0
-477 -501 0
-475 -520 0
-476 -521 0
-477 -522 0
-478 -793 0
-479 -794 0
-480 -795 0
-478 -526 0
-479 -527 0
-480 -528 0
-481 -913 0
-482 -914 0
-483 -915 0
-481 -694 0
-482 -695 0
-483 -696 0
-481 -868 0
-482 -869 0
-483 -870 0
-481 -781 0
-482 -782 0
-483 -783 0
-481 -757 0
-482 -758 0
-483 -759 0
-481 -532 0
-482 -533 0
-483 -534 0
-484 -499 0
-485 -500 0
-486 -501 0
-484 -487 0
-485 -488 0
-486 -489 0
-484 -616 0
-485 -617 0
-486 -618 0
-487 -1096 0
-488 -1097 0
-489 -1098 0
-487 -1045 0
-488 -1046 0
-489 -1047 0
-490 -1075 0
-491 -1076 0
-492 -1077 0
-490 -1018 0
-491 -1019 0
-492 -1020 0
-490 -784 0
-491 -785 0
-492 -786 0
-493 -655 0
-494 -656 0
-495 -657 0
-493 -664 0
-494 -665 0
-495 -666 0
-493 -751 0
-494 -752 0
-495 -753 0
-493 -790 0
-494 -791 0
-495 -792 0
-493 -817 0
-494 -818 0
-495 -819 0
-493 -703 0
-494 -704 0
-495 -705 0
-496 -754 0
-497 -755 0
-498 -756 0
-496 -1120 0
-497 -1121 0
-498 -1122 0
-496 -655 0
-497 -656 0
-498 -657 0
-496 -805 0
-497 -806 0
-498 -807 0
-496 -667 0
-497 -668 0
-498 -669 0
-499 -901 0
-500 -902 0
-501 -903 0
-499 -952 0
-500 -953 0
-501 -954 0
-502 -859 0
-503 -860 0
-504 -861 0
-502 -1153 0
-503 -1154 0
-504 -1155 0
-502 -529 0
-503 -530 0
-504 -531 0
-502 -916 0
-503 -917 0
-504 -918 0
-502 -919 0
-503 -920 0
-504 -921 0
-505 -859 0
-506 -860 0
-507 -861 0
-505 -1153 0
-506 -1154 0
-507 -1155 0
-505 -922 0
-506 -923 0
-507 -924 0
-505 -526 0
-506 -527 0
-507 -528 0
-508 -511 0
-509 -512 0
-510 -513 0
-508 -1168 0
-509 -1169 0
-510 -1170 0
-508 -931 0
-509 -932 0
-510 -933 0
-508 -733 0
-509 -734 0
-510 -735 0
-511 -520 0
-512 -521 0
-513 -522 0
-514 -1135 0
-515 -1136 0
-516 -1137 0
-514 -928 0
-515 -929 0
-516 -930 0
-517 -958 0
-518 -959 0
-519 -960 0
-517 -1126 0
-518 -1127 0
-519 -1128 0
-517 -526 0
-518 -527 0
-519 -528 0
-520 -976 0
-521 -977 0
-522 -978 0
-520 -1168 0
-521 -1169 0
-522 -1170 0
-523 -1126 0
-524 -1127 0
-525 -1128 0
-523 -1141 0
-524 -1142 0
-525 -1143 0
-523 -526 0
-524 -527 0
-525 -528 0
-526 -631 0
-527 -632 0
-528 -633 0
-526 -661 0
-527 -662 0
-528 -663 0
-529 -535 0
-530 -536 0
-531 -537 0
-532 -664 0
-533 -665 0
-534 -666 0
-532 -667 0
-533 -668 0
-534 -669 0
-535 -916 0
-536 -917 0
-537 -918 0
-535 -925 0
-536 -926 0
-537 -927 0
-538 -1117 0
-539 -1118 0
-540 -1119 0
-538 -637 0
-539 -638 0
-540 -639 0
-538 -688 0
-539 -689 0
-540 -690 0
-538 -955 0
-539 -956 0
-540 -957 0
-541 -964 0
-542 -965 0
-543 -966 0
-541 -640 0
-542 -641 0
-543 -642 0
-541 -919 0
-542 -920 0
-543 -921 0
-541 -976 0
-542 -977 0
-543 -978 0
-544 -1117 0
-545 -1118 0
-546 -1119 0
-544 -637 0
-545 -638 0
-546 -639 0
-544 -970 0
-545 -971 0
-546 -972 0
-544 -1042 0
-545 -1043 0
-546 -1044 0
-544 -826 0
-545 -827 0
-546 -828 0
-547 -1129 0
-548 -1130 0
-549 -1131 0
-547 -649 0
-548 -650 0
-549 -651 0
-547 -1123 0
-548 -1124 0
-549 -1125 0
-550 -553 0
-551 -554 0
-552 -555 0
-553 -1135 0
-554 -1136 0
-555 -1137 0
-553 -1063 0
-554 -1064 0
-555 -1065 0
-553 -1075 0
-554 -1076 0
-555 -1077 0
-556 -898 0
-557 -899 0
-558 -900 0
-556 -595 0
-557 -596 0
-558 -597 0
-559 -1132 0
-560 -1133 0
-561 -1134 0
-559 -874 0
-560 -875 0
-561 -876 0
-562 -655 0
-563 -656 0
-564 -657 0
-562 -709 0
-563 -710 0
-564 -711 0
-562 -1033 0
-563 -1034 0
-564 -1035 0
-562 -751 0
-563 -752 0
-564 -753 0
-562 -811 0
-563 -812 0
-564 -813 0
-565 -655 0
-566 -656 0
-567 -657 0
-565 -808 0
-566 -809 0
-567 -810 0
-565 -814 0
-566 -815 0
-567 -816 0
-565 -754 0
-566 -755 0
-567 -756 0
-568 -598 0
-569 -599 0
-570 -600 0
-568 -1024 0
-569 -1025 0
-570 -1026 0
-571 -1039 0
-572 -1040 0
-573 -1041 0
-571 -994 0
-572 -995 0
-573 -996 0
-574 -1162 0
-575 -1163 0
-576 -1164 0
-574 -604 0
-575 -605 0
-576 -606 0
-574 -1138 0
-575 -1139 0
-576 -1140 0
-574 -700 0
-575 -701 0
-576 -702 0
-574 -1111 0
-575 -1112 0
-576 -1113 0
-577 -610 0
-578 -611 0
-579 -612 0
-577 -979 0
-578 -980 0
-579 -981 0
-577 -1105 0
-578 -1106 0
-579 -1107 0
-577 -931 0
-578 -932 0
-579 -933 0
-577 -907 0
-578 -908 0
-579 -909 0
-580 -1132 0
-581 -1133 0
-582 -1134 0
-580 -988 0
-581 -989 0
-582 -990 0
-580 -718 0
-581 -719 0
-582 -720 0
-580 -874 0
-581 -875 0
-582 -876 0
-583 -586 0
-584 -587 0
-585 -588 0
-583 -844 0
-584 -845 0
-585 -846 0
-583 -847 0
-584 -848 0
-585 -849 0
-583 -850 0
-584 -851 0
-585 -852 0
-586 -925 0
-587 -926 0
-588 -927 0
-586 -601 0
-587 -602 0
-588 -603 0
-589 -823 0
-590 -824 0
-591 -825 0
-589 -1048 0
-590 -1049 0
-591 -1050 0
-589 -598 0
-590 -599 0
-591 -600 0
-589 -595 0
-590 -596 0
-591 -597 0
-592 -1090 0
-593 -1091 0
-594 -1092 0
-592 -1078 0
-593 -1079 0
-594 -1080 0
-595 -709 0
-596 -710 0
-597 -711 0
-601 -616 0
-602 -617 0
-603 -618 0
-604 -670 0
-605 -671 0
-606 -672 0
-604 -613 0
-605 -614 0
-606 -615 0
-607 -610 0
-608 -611 0
-609 -612 0
-607 -706 0
-608 -707 0
-609 -708 0
-607 -973 0
-608 -974 0
-609 -975 0
-610 -619 0
-611 -620 0
-612 -621 0
-613 -1135 0
-614 -1136 0
-615 -1137 0
-613 -973 0
-614 -974 0
-615 -975 0
-613 -1051 0
-614 -1052 0
-615 -1053 0
-613 -928 0
-614 -929 0
-615 -930 0
-616 -712 0
-617 -713 0
-618 -714 0
-619 -991 0
-620 -992 0
-621 -993 0
-619 -979 0
-620 -980 0
-621 -981 0
-619 -1066 0
-620 -1067 0
-621 -1068 0
-619 -997 0
-620 -998 0
-621 -999 0
-622 -961 0
-623 -962 0
-624 -963 0
-622 -994 0
-623 -995 0
-624 -996 0
-622 -787 0
-623 -788 0
-624 -789 0
-625 -859 0
-626 -860 0
-627 -861 0
-625 -640 0
-626 -641 0
-627 -642 0
-625 -919 0
-626 -920 0
-627 -921 0
-625 -922 0
-626 -923 0
-627 -924 0
-625 -721 0
-626 -722 0
-627 -723 0
-628 -988 0
-629 -989 0
-630 -990 0
-628 -844 0
-629 -845 0
-630 -846 0
-628 -994 0
-629 -995 0
-630 -996 0
-631 -859 0
-632 -860 0
-633 -861 0
-631 -865 0
-632 -866 0
-633 -867 0
-631 -997 0
-632 -998 0
-633 -999 0
-634 -961 0
-635 -962 0
-636 -963 0
-634 -655 0
-635 -656 0
-636 -657 0
-637 -664 0
-638 -665 0
-639 -666 0
-640 -670 0
-641 -671 0
-642 -672 0
-640 -667 0
-641 -668 0
-642 -669 0
-643 -961 0
-644 -962 0
-645 -963 0
-643 -649 0
-644 -650 0
-645 -651 0
-643 -868 0
-644 -869 0
-645 -870 0
-643 -853 0
-644 -854 0
-645 -855 0
-646 -1030 0
-647 -1031 0
-648 -1032 0
-646 -1141 0
-647 -1142 0
-648 -1143 0
-646 -1069 0
-647 -1070 0
-648 -1071 0
-646 -649 0
-647 -650 0
-648 -651 0
-646 -1129 0
-647 -1130 0
-648 -1131 0
-652 -862 0
-653 -863 0
-654 -864 0
-652 -805 0
-653 -806 0
-654 -807 0
-652 -655 0
-653 -656 0
-654 -657 0
-652 -814 0
-653 -815 0
-654 -816 0
-655 -658 0
-656 -659 0
-657 -660 0
-658 -1141 0
-659 -1142 0
-660 -1143 0
-658 -1120 0
-659 -1121 0
-660 -1122 0
-661 -991 0
-662 -992 0
-663 -993 0
-661 -997 0
-662 -998 0
-663 -999 0
-664 -1036 0
-665 -1037 0
-666 -1038 0
-664 -1042 0
-665 -1043 0
-666 -1044 0
-667 -1165 0
-668 -1166 0
-669 -1167 0
-670 -934 0
-671 -935 0
-672 -936 0
-670 -1174 0
-671 -1175 0
-672 -1176 0
-676 -730 0
-677 -731 0
-678 -732 0
-679 -1003 0
-680 -1004 0
-681 -1005 0
-679 -1009 0
-680 -1010 0
-681 -1011 0
-685 -910 0
-686 -911 0
-687 -912 0
-685 -964 0
-686 -965 0
-687 -966 0
-685 -769 0
-686 -770 0
-687 -771 0
-685 -919 0
-686 -920 0
-687 -921 0
-685 -889 0
-686 -890 0
-687 -891 0
-688 -751 0
-689 -752 0
-690 -753 0
-691 -754 0
-692 -755 0
-693 -756 0
-691 -775 0
-692 -776 0
-693 -777 0
-691 -748 0
-692 -749 0
-693 -750 0
-694 -796 0
-695 -797 0
-696 -798 0
-697 -1063 0
-698 -1064 0
-699 -1065 0
-697 -1075 0
-698 -1076 0
-699 -1077 0
-697 -1018 0
-698 -1019 0
-699 -1020 0
-700 -745 0
-701 -746 0
-702 -747 0
-700 -778 0
-701 -779 0
-702 -780 0
-703 -1042 0
-704 -1043 0
-705 -1044 0
-706 -1057 0
-707 -1058 0
-708 -1059 0
-706 -826 0
-707 -827 0
-708 -828 0
-709 -898 0
-710 -899 0
-711 -900 0
-709 -823 0
-710 -824 0
-711 -825 0
-709 -1171 0
-710 -1172 0
-711 -1173 0
-712 -1027 0
-713 -1028 0
-714 -1029 0
-715 -1162 0
-716 -1163 0
-717 -1164 0
-724 -1120 0
-725 -1121 0
-726 -1122 0
-730 -979 0
-731 -980 0
-732 -981 0
-733 -763 0
-734 -764 0
-735 -765 0
-733 -787 0
-734 -788 0
-735 -789 0
-742 -766 0
-743 -767 0
-744 -768 0
-742 -772 0
-743 -773 0
-744 -774 0
-745 -1093 0
-746 -1094 0
-747 -1095 0
-745 -1171 0
-746 -1172 0
-747 -1173 0
-748 -820 0
-749 -821 0
-750 -822 0
-748 -829 0
-749 -830 0
-750 -831 0
-751 -781 0
-752 -782 0
-753 -783 0
-751 -757 0
-752 -758 0
-753 -759 0
-754 -784 0
-755 -785 0
-756 -786 0
-754 -760 0
-755 -761 0
-756 -762 0
-757 -799 0
-758 -800 0
-759 -801 0
-757 -817 0
-758 -818 0
-759 -819 0
-760 -808 0
-761 -809 0
-762 -810 0
-763 -880 0
-764 -881 0
-765 -882 0
-766 -982 0
-767 -983 0
-768 -984 0
-766 -892 0
-767 -893 0
-768 -894 0
-766 -895 0
-767 -896 0
-768 -897 0
-766 -886 0
-767 -887 0
-768 -888 0
-766 -901 0
-767 -902 0
-768 -903 0
-766 -904 0
-767 -905 0
-768 -906 0
-769 -772 0
-770 -773 0
-771 -774 0
-772 -802 0
-773 -803 0
-774 -804 0
-775 -835 0
-776 -836 0
-777 -837 0
-775 -838 0
-776 -839 0
-777 -840 0
-778 -1171 0
-779 -1172 0
-780 -1173 0
-781 -811 0
-782 -812 0
-783 -813 0
-781 -832 0
-782 -833 0
-783 -834 0
-781 -790 0
-782 -791 0
-783 -792 0
-781 -796 0
-782 -797 0
-783 -798 0
-784 -805 0
-785 -806 0
-786 -807 0
-784 -814 0
-785 -815 0
-786 -816 0
-787 -931 0
-788 -932 0
-789 -933 0
-787 -907 0
-788 -908 0
-789 -909 0
-793 -1024 0
-794 -1025 0
-795 -1026 0
-796 -823 0
-797 -824 0
-798 -825 0
-799 -1021 0
-800 -1022 0
-801 -1023 0
-802 -841 0
-803 -842 0
-804 -843 0
-802 -1159 0
-803 -1160 0
-804 -1161 0
-802 -1108 0
-803 -1109 0
-804 -1110 0
-808 -826 0
-809 -827 0
-810 -828 0
-811 -823 0
-812 -824 0
-813 -825 0
-814 -928 0
-815 -929 0
-816 -930 0
-817 -1045 0
-818 -1046 0
-819 -1047 0
-820 -985 0
-821 -986 0
-822 -987 0
-823 -967 0
-824 -968 0
-825 -969 0
-823 -1096 0
-824 -1097 0
-825 -1098 0
-823 -1045 0
-824 -1046 0
-825 -1047 0
-823 -1081 0
-824 -1082 0
-825 -1083 0
-826 -1084 0
-827 -1085 0
-828 -1086 0
-829 -1084 0
-830 -1085 0
-831 -1086 0
-832 -883 0
-833 -884 0
-834 -885 0
-835 -1126 0
-836 -1127 0
-837 -1128 0
-838 -1072 0
-839 -1073 0
-840 -1074 0
-838 -1060 0
-839 -1061 0
-840 -1062 0
-844 -925 0
-845 -926 0
-846 -927 0
-847 -877 0
-848 -878 0
-849 -879 0
-850 -877 0
-851 -878 0
-852 -879 0
-865 -1093 0
-866 -1094 0
-867 -1095 0
-871 -1165 0
-872 -1166 0
-873 -1167 0
-874 -1036 0
-875 -1037 0
-876 -1038 0
-877 -1006 0
-878 -1007 0
-879 -1008 0
-880 -982 0
-881 -983 0
-882 -984 0
-886 -976 0
-887 -977 0
-888 -978 0
-889 -1006 0
-890 -1007 0
-891 -1008 0
-889 -1015 0
-890 -1016 0
-891 -1017 0
-889 -1147 0
-890 -1148 0
-891 -1149 0
-892 -1003 0
-893 -1004 0
-894 -1005 0
-892 -1018 0
-893 -1019 0
-894 -1020 0
-898 -1033 0
-899 -1034 0
-900 -1035 0
-904 -1090 0
-905 -1091 0
-906 -1092 0
-904 -1000 0
-905 -1001 0
-906 -1002 0
-904 -1036 0
-905 -1037 0
-906 -1038 0
-904 -970 0
-905 -971 0
-906 -972 0
-904 -1042 0
-905 -1043 0
-906 -1044 0
-910 -973 0
-911 -974 0
-912 -975 0
-910 -1051 0
-911 -1052 0
-912 -1053 0
-910 -1021 0
-911 -1022 0
-912 -1023 0
-910 -1081 0
-911 -1082 0
-912 -1083 0
-919 -1030 0
-920 -1031 0
-921 -1032 0
-919 -1051 0
-920 -1052 0
-921 -1053 0
-931 -985 0
-932 -986 0
-933 -987 0
-931 -964 0
-932 -965 0
-933 -966 0
-931 -1039 0
-932 -1040 0
-933 -1041 0
-934 -1048 0
-935 -1049 0
-936 -1050 0
-934 -1066 0
-935 -1067 0
-936 -1068 0
-937 -1012 0
-938 -1013 0
-939 -1014 0
-940 -985 0
-941 -986 0
-942 -987 0
-943 -1030 0
-944 -1031 0
-945 -1032 0
-943 -1069 0
-944 -1070 0
-945 -1071 0
-943 -1054 0
-944 -1055 0
-945 -1056 0
-946 -1012 0
-947 -1013 0
-948 -1014 0
-952 -1033 0
-953 -1034 0
-954 -1035 0
-952 -1015 0
-953 -1016 0
-954 -1017 0
-955 -982 0
-956 -983 0
-957 -984 0
-961 -1168 0
-962 -1169 0
-963 -1170 0
-964 -1114 0
-965 -1115 0
-966 -1116 0
-964 -1147 0
-965 -1148 0
-966 -1149 0
-964 -1102 0
-965 -1103 0
-966 -1104 0
-964 -1105 0
-965 -1106 0
-966 -1107 0
-970 -1135 0
-971 -1136 0
-972 -1137 0
-970 -1099 0
-971 -1100 0
-972 -1101 0
-976 -994 0
-977 -995 0
-978 -996 0
-976 -1147 0
-977 -1148 0
-978 -1149 0
-976 -1123 0
-977 -1124 0
-978 -1125 0
-982 -1036 0
-983 -1037 0
-984 -1038 0
-985 -1111 0
-986 -1112 0
-987 -1113 0
-994 -1168 0
-995 -1169 0
-996 -1170 0
-997 -1093 0
-998 -1094 0
-999 -1095 0
-997 -1174 0
-998 -1175 0
-999 -1176 0
-1009 -1087 0
-1010 -1088 0
-1011 -1089 0
-1012 -1144 0
-1013 -1145 0
-1014 -1146 0
-1015 -1177 0
-1016 -1178 0
-1017 -1179 0
-1027 -1144 0
-1028 -1145 0
-1029 -1146 0
-1030 -1117 0
-1031 -1118 0
-1032 -1119 0
-1039 -1168 0
-1040 -1169 0
-1041 -1170 0
-1042 -1141 0
-1043 -1142 0
-1044 -1143 0
-1042 -1129 0
-1043 -1130 0
-1044 -1131 0
-1048 -1081 0
-1049 -1082 0
-1050 -1083 0
-1048 -1165 0
-1049 -1166 0
-1050 -1167 0
-1051 -1090 0
-1052 -1091 0
-1053 -1092 0
-1054 -1057 0
-1055 -1058 0
-1056 -1059 0
-1063 -1177 0
-1064 -1178 0
-1065 -1179 0
-1063 -1087 0
-1064 -1088 0
-1065 -1089 0
-1066 -1174 0
-1067 -1175 0
-1068 -1176 0
-1069 -1162 0
-1070 -1163 0
-1071 -1164 0
-1069 -1138 0
-1070 -1139 0
-1071 -1140 0
-1072 -1075 0
-1073 -1076 0
-1074 -1077 0
-1075 -1132 0
-1076 -1133 0
-1077 -1134 0
-1090 -1135 0
-1091 -1136 0
-1092 -1137 0
-1114 -1165 0
-1115 -1166 0
-1116 -1167 0
1 0
674 0
