p cnf 1014 2860
1 2 3 0
4 5 6 0
7 8 9 0
10 11 12 0
13 14 15 0
16 17 18 0
19 20 21 0
22 23 24 0
25 26 27 0
28 29 30 0
31 32 33 0
34 35 36 0
37 38 39 0
40 41 42 0
43 44 45 0
46 47 48 0
49 50 51 0
52 53 54 0
55 56 57 0
58 59 60 0
61 62 63 0
64 65 66 0
67 68 69 0
70 71 72 0
73 74 75 0
76 77 78 0
79 80 81 0
82 83 84 0
85 86 87 0
88 89 90 0
91 92 93 0
94 95 96 0
97 98 99 0
100 101 102 0
103 104 105 0
106 107 108 0
109 110 111 0
112 113 114 0
115 116 117 0
118 119 120 0
121 122 123 0
124 125 126 0
127 128 129 0
130 131 132 0
133 134 135 0
136 137 138 0
139 140 141 0
142 143 144 0
145 146 147 0
148 149 150 0
151 152 153 0
154 155 156 0
157 158 159 0
160 161 162 0
163 164 165 0
166 167 168 0
169 170 171 0
172 173 174 0
175 176 177 0
178 179 180 0
181 182 183 0
184 185 186 0
187 188 189 0
190 191 192 0
193 194 195 0
196 197 198 0
199 200 201 0
202 203 204 0
205 206 207 0
208 209 210 0
211 212 213 0
214 215 216 0
217 218 219 0
220 221 222 0
223 224 225 0
226 227 228 0
229 230 231 0
232 233 234 0
235 236 237 0
238 239 240 0
241 242 243 0
244 245 246 0
247 248 249 0
250 251 252 0
253 254 255 0
256 257 258 0
259 260 261 0
262 263 264 0
265 266 267 0
268 269 270 0
271 272 273 0
274 275 276 0
277 278 279 0
280 281 282 0
283 284 285 0
286 287 288 0
289 290 291 0
292 293 294 0
295 296 297 0
298 299 300 0
301 302 303 0
304 305 306 0
307 308 309 0
310 311 312 0
313 314 315 0
316 317 318 0
319 320 321 0
322 323 324 0
325 326 327 0
328 329 330 0
331 332 333 0
334 335 336 0
337 338 339 0
340 341 342 0
343 344 345 0
346 347 348 0
349 350 351 0
352 353 354 0
355 356 357 0
358 359 360 0
361 362 363 0
364 365 366 0
367 368 369 0
370 371 372 0
373 374 375 0
376 377 378 0
379 380 381 0
382 383 384 0
385 386 387 0
388 389 390 0
391 392 393 0
394 395 396 0
397 398 399 0
400 401 402 0
403 404 405 0
406 407 408 0
409 410 411 0
412 413 414 0
415 416 417 0
418 419 420 0
421 422 423 0
424 425 426 0
427 428 429 0
430 431 432 0
433 434 435 0
436 437 438 0
439 440 441 0
442 443 444 0
445 446 447 0
448 449 450 0
451 452 453 0
454 455 456 0
457 458 459 0
460 461 462 0
463 464 465 0
466 467 468 0
469 470 471 0
472 473 474 0
475 476 477 0
478 479 480 0
481 482 483 0
484 485 486 0
487 488 489 0
490 491 492 0
493 494 495 0
496 497 498 0
499 500 501 0
502 503 504 0
505 506 507 0
508 509 510 0
511 512 513 0
514 515 516 0
517 518 519 0
520 521 522 0
523 524 525 0
526 527 528 0
529 530 531 0
532 533 534 0
535 536 537 0
538 539 540 0
541 542 543 0
544 545 546 0
547 548 549 0
550 551 552 0
553 554 555 0
556 557 558 0
559 560 561 0
562 563 564 0
565 566 567 0
568 569 570 0
571 572 573 0
574 575 576 0
577 578 579 0
580 581 582 0
583 584 585 0
586 587 588 0
589 590 591 0
592 593 594 0
595 596 597 0
598 599 600 0
601 602 603 0
604 605 606 0
607 608 609 0
610 611 612 0
613 614 615 0
616 617 618 0
619 620 621 0
622 623 624 0
625 626 627 0
628 629 630 0
631 632 633 0
634 635 636 0
637 638 639 0
640 641 642 0
643 644 645 0
646 647 648 0
649 650 651 0
652 653 654 0
655 656 657 0
658 659 660 0
661 662 663 0
664 665 666 0
667 668 669 0
670 671 672 0
673 674 675 0
676 677 678 0
679 680 681 0
682 683 684 0
685 686 687 0
688 689 690 0
691 692 693 0
694 695 696 0
697 698 699 0
700 701 702 0
703 704 705 0
706 707 708 0
709 710 711 0
712 713 714 0
715 716 717 0
718 719 720 0
721 722 723 0
724 725 726 0
727 728 729 0
730 731 732 0
733 734 735 0
736 737 738 0
739 740 741 0
742 743 744 0
745 746 747 0
748 749 750 0
751 752 753 0
754 755 756 0
757 758 759 0
760 761 762 0
763 764 765 0
766 767 768 0
769 770 771 0
772 773 774 0
775 776 777 0
778 779 780 0
781 782 783 0
784 785 786 0
787 788 789 0
790 791 792 0
793 794 795 0
796 797 798 0
799 800 801 0
802 803 804 0
805 806 807 0
808 809 810 0
811 812 813 0
814 815 816 0
817 818 819 0
820 821 822 0
823 824 825 0
826 827 828 0
829 830 831 0
832 833 834 0
835 836 837 0
838 839 840 0
841 842 843 0
844 845 846 0
847 848 849 0
850 851 852 0
853 854 855 0
856 857 858 0
859 860 861 0
862 863 864 0
865 866 867 0
868 869 870 0
871 872 873 0
874 875 876 0
877 878 879 0
880 881 882 0
883 884 885 0
886 887 888 0
889 890 891 0
892 893 894 0
895 896 897 0
898 899 900 0
901 902 903 0
904 905 906 0
907 908 909 0
910 911 912 0
913 914 915 0
916 917 918 0
919 920 921 0
922 923 924 0
925 926 927 0
928 929 930 0
931 932 933 0
934 935 936 0
937 938 939 0
940 941 942 0
943 944 945 0
946 947 948 0
949 950 951 0
952 953 954 0
955 956 957 0
958 959 960 0
961 962 963 0
964 965 966 0
967 968 969 0
970 971 972 0
973 974 975 0
976 977 978 0
979 980 981 0
982 983 984 0
985 986 987 0
988 989 990 0
991 992 993 0
994 995 996 0
997 998 999 0
1000 1001 1002 0
1003 1004 1005 0
1006 1007 1008 0
1009 1010 1011 0
1012 1013 1014 0
-1 -517 0
-2 -518 0
-3 -519 0
-1 -82 0
-2 -83 0
-3 -84 0
-1 -37 0
-2 -38 0
-3 -39 0
-1 -634 0
-2 -635 0
-3 -636 0
-1 -874 0
-2 -875 0
-3 -876 0
-4 -88 0
-5 -89 0
-6 -90 0
-4 -751 0
-5 -752 0
-6 -753 0
-4 -37 0
-5 -38 0
-6 -39 0
-4 -637 0
-5 -638 0
-6 -639 0
-7 -58 0
-8 -59 0
-9 -60 0
-7 -919 0
-8 -920 0
-9 -921 0
-7 -73 0
-8 -74 0
-9 -75 0
-10 -589 0
-11 -590 0
-12 -591 0
-10 -82 0
-11 -83 0
-12 -84 0
-10 -547 0
-11 -548 0
-12 -549 0
-10 -64 0
-11 -65 0
-12 -66 0
-13 -820 0
-14 -821 0
-15 -822 0
-13 -88 0
-14 -89 0
-15 -90 0
-13 -991 0
-14 -992 0
-15 -993 0
-13 -58 0
-14 -59 0
-15 -60 0
-16 -58 0
-17 -59 0
-18 -60 0
-16 -121 0
-17 -122 0
-18 -123 0
-16 -988 0
-17 -989 0
-18 -990 0
-16 -892 0
-17 -893 0
-18 -894 0
-19 -964 0
-20 -965 0
-21 -966 0
-19 -886 0
-20 -887 0
-21 -888 0
-19 -544 0
-20 -545 0
-21 -546 0
-19 -43 0
-20 -44 0
-21 -45 0
-19 -193 0
-20 -194 0
-21 -195 0
-19 -922 0
-20 -923 0
-21 -924 0
-19 -925 0
-20 -926 0
-21 -927 0
-22 -628 0
-23 -629 0
-24 -630 0
-22 -43 0
-23 -44 0
-24 -45 0
-22 -205 0
-23 -206 0
-24 -207 0
-22 -661 0
-23 -662 0
-24 -663 0
-25 -82 0
-26 -83 0
-27 -84 0
-25 -88 0
-26 -89 0
-27 -90 0
-25 -766 0
-26 -767 0
-27 -768 0
-25 -841 0
-26 -842 0
-27 -843 0
-25 -571 0
-26 -572 0
-27 -573 0
-28 -871 0
-29 -872 0
-30 -873 0
-28 -88 0
-29 -89 0
-30 -90 0
-28 -538 0
-29 -539 0
-30 -540 0
-28 -571 0
-29 -572 0
-30 -573 0
-28 -577 0
-29 -578 0
-30 -579 0
-31 -610 0
-32 -611 0
-33 -612 0
-31 -907 0
-32 -908 0
-33 -909 0
-31 -100 0
-32 -101 0
-33 -102 0
-31 -889 0
-32 -890 0
-33 -891 0
-34 -532 0
-35 -533 0
-36 -534 0
-34 -535 0
-35 -536 0
-36 -537 0
-34 -103 0
-35 -104 0
-36 -105 0
-34 -838 0
-35 -839 0
-36 -840 0
-34 -988 0
-35 -989 0
-36 -990 0
-34 -121 0
-35 -122 0
-36 -123 0
-37 -166 0
-38 -167 0
-39 -168 0
-37 -169 0
-38 -170 0
-39 -171 0
-37 -97 0
-38 -98 0
-39 -99 0
-37 -106 0
-38 -107 0
-39 -108 0
-37 -109 0
-38 -110 0
-39 -111 0
-37 -124 0
-38 -125 0
-39 -126 0
-37 -127 0
-38 -128 0
-39 -129 0
-37 -280 0
-38 -281 0
-39 -282 0
-37 -133 0
-38 -134 0
-39 -135 0
-37 -136 0
-38 -137 0
-39 -138 0
-37 -214 0
-38 -215 0
-39 -216 0
-40 -955 0
-41 -956 0
-42 -957 0
-40 -535 0
-41 -536 0
-42 -537 0
-40 -727 0
-41 -728 0
-42 -729 0
-40 -142 0
-41 -143 0
-42 -144 0
-40 -940 0
-41 -941 0
-42 -942 0
-43 -172 0
-44 -173 0
-45 -174 0
-43 -280 0
-44 -281 0
-45 -282 0
-43 -217 0
-44 -218 0
-45 -219 0
-46 -619 0
-47 -620 0
-48 -621 0
-46 -703 0
-47 -704 0
-48 -705 0
-46 -706 0
-47 -707 0
-48 -708 0
-46 -121 0
-47 -122 0
-48 -123 0
-46 -139 0
-47 -140 0
-48 -141 0
-49 -637 0
-50 -638 0
-51 -639 0
-49 -121 0
-50 -122 0
-51 -123 0
-49 -625 0
-50 -626 0
-51 -627 0
-52 -778 0
-53 -779 0
-54 -780 0
-52 -634 0
-53 -635 0
-54 -636 0
-52 -139 0
-53 -140 0
-54 -141 0
-55 -631 0
-56 -632 0
-57 -633 0
-55 -880 0
-56 -881 0
-57 -882 0
-55 -100 0
-56 -101 0
-57 -102 0
-55 -646 0
-56 -647 0
-57 -648 0
-58 -91 0
-59 -92 0
-60 -93 0
-58 -184 0
-59 -185 0
-60 -186 0
-58 -337 0
-59 -338 0
-60 -339 0
-58 -271 0
-59 -272 0
-60 -273 0
-58 -280 0
-59 -281 0
-60 -282 0
-58 -61 0
-59 -62 0
-60 -63 0
-61 -862 0
-62 -863 0
-63 -864 0
-61 -751 0
-62 -752 0
-63 -753 0
-61 -283 0
-62 -284 0
-63 -285 0
-64 -76 0
-65 -77 0
-66 -78 0
-64 -94 0
-65 -95 0
-66 -96 0
-64 -211 0
-65 -212 0
-66 -213 0
-64 -286 0
-65 -287 0
-66 -288 0
-64 -331 0
-65 -332 0
-66 -333 0
-64 -187 0
-65 -188 0
-66 -189 0
-64 -280 0
-65 -281 0
-66 -282 0
-67 -634 0
-68 -635 0
-69 -636 0
-67 -139 0
-68 -140 0
-69 -141 0
-67 -640 0
-68 -641 0
-69 -642 0
-70 -946 0
-71 -947 0
-72 -948 0
-70 -637 0
-71 -638 0
-72 -639 0
-70 -121 0
-71 -122 0
-72 -123 0
-73 -280 0
-74 -281 0
-75 -282 0
-73 -292 0
-74 -293 0
-75 -294 0
-76 -742 0
-77 -743 0
-78 -744 0
-76 -325 0
-77 -326 0
-78 -327 0
-76 -583 0
-77 -584 0
-78 -585 0
-79 -694 0
-80 -695 0
-81 -696 0
-79 -268 0
-80 -269 0
-81 -270 0
-79 -691 0
-80 -692 0
-81 -693 0
-79 -82 0
-80 -83 0
-81 -84 0
-82 -379 0
-83 -380 0
-84 -381 0
-82 -85 0
-83 -86 0
-84 -87 0
-82 -244 0
-83 -245 0
-84 -246 0
-82 -250 0
-83 -251 0
-84 -252 0
-82 -181 0
-83 -182 0
-84 -183 0
-82 -334 0
-83 -335 0
-84 -336 0
-82 -340 0
-83 -341 0
-84 -342 0
-82 -280 0
-83 -281 0
-84 -282 0
-85 -877 0
-86 -878 0
-87 -879 0
-85 -793 0
-86 -794 0
-87 -795 0
-85 -283 0
-86 -284 0
-87 -285 0
-88 -247 0
-89 -248 0
-90 -249 0
-88 -175 0
-89 -176 0
-90 -177 0
-88 -178 0
-89 -179 0
-90 -180 0
-88 -253 0
-89 -254 0
-90 -255 0
-88 -259 0
-89 -260 0
-90 -261 0
-88 -343 0
-89 -344 0
-90 -345 0
-88 -280 0
-89 -281 0
-90 -282 0
-91 -745 0
-92 -746 0
-93 -747 0
-91 -991 0
-92 -992 0
-93 -993 0
-91 -349 0
-92 -350 0
-93 -351 0
-91 -646 0
-92 -647 0
-93 -648 0
-94 -958 0
-95 -959 0
-96 -960 0
-94 -796 0
-95 -797 0
-96 -798 0
-94 -352 0
-95 -353 0
-96 -354 0
-94 -799 0
-95 -800 0
-96 -801 0
-97 -532 0
-98 -533 0
-99 -534 0
-97 -634 0
-98 -635 0
-99 -636 0
-97 -607 0
-98 -608 0
-99 -609 0
-100 -256 0
-101 -257 0
-102 -258 0
-100 -397 0
-101 -398 0
-102 -399 0
-100 -280 0
-101 -281 0
-102 -282 0
-103 -301 0
-104 -302 0
-105 -303 0
-103 -400 0
-104 -401 0
-105 -402 0
-103 -112 0
-104 -113 0
-105 -114 0
-103 -280 0
-104 -281 0
-105 -282 0
-103 -361 0
-104 -362 0
-105 -363 0
-106 -607 0
-107 -608 0
-108 -609 0
-106 -613 0
-107 -614 0
-108 -615 0
-106 -406 0
-107 -407 0
-108 -408 0
-106 -637 0
-107 -638 0
-108 -639 0
-109 -955 0
-110 -956 0
-111 -957 0
-109 -517 0
-110 -518 0
-111 -519 0
-109 -940 0
-110 -941 0
-111 -942 0
-109 -733 0
-110 -734 0
-111 -735 0
-112 -535 0
-113 -536 0
-114 -537 0
-112 -667 0
-113 -668 0
-114 -669 0
-115 -946 0
-116 -947 0
-117 -948 0
-115 -949 0
-116 -950 0
-117 -951 0
-115 -958 0
-116 -959 0
-117 -960 0
-115 -196 0
-116 -197 0
-117 -198 0
-115 -943 0
-116 -944 0
-117 -945 0
-118 -892 0
-119 -893 0
-120 -894 0
-118 -202 0
-119 -203 0
-120 -204 0
-118 -640 0
-119 -641 0
-120 -642 0
-118 -883 0
-119 -884 0
-120 -885 0
-121 -304 0
-122 -305 0
-123 -306 0
-121 -241 0
-122 -242 0
-123 -243 0
-121 -418 0
-122 -419 0
-123 -420 0
-121 -130 0
-122 -131 0
-123 -132 0
-121 -280 0
-122 -281 0
-123 -282 0
-124 -613 0
-125 -614 0
-126 -615 0
-124 -760 0
-125 -761 0
-126 -762 0
-124 -619 0
-125 -620 0
-126 -621 0
-124 -424 0
-125 -425 0
-126 -426 0
-127 -880 0
-128 -881 0
-129 -882 0
-127 -961 0
-128 -962 0
-129 -963 0
-127 -760 0
-128 -761 0
-129 -762 0
-127 -622 0
-128 -623 0
-129 -624 0
-127 -631 0
-128 -632 0
-129 -633 0
-127 -427 0
-128 -428 0
-129 -429 0
-127 -940 0
-128 -941 0
-129 -942 0
-130 -931 0
-131 -932 0
-132 -933 0
-130 -535 0
-131 -536 0
-132 -537 0
-133 -610 0
-134 -611 0
-135 -612 0
-133 -622 0
-134 -623 0
-135 -624 0
-133 -712 0
-134 -713 0
-135 -714 0
-133 -430 0
-134 -431 0
-135 -432 0
-136 -970 0
-137 -971 0
-138 -972 0
-136 -532 0
-137 -533 0
-138 -534 0
-136 -619 0
-137 -620 0
-138 -621 0
-136 -712 0
-137 -713 0
-138 -714 0
-136 -433 0
-137 -434 0
-138 -435 0
-139 -307 0
-140 -308 0
-141 -309 0
-139 -316 0
-140 -317 0
-141 -318 0
-139 -280 0
-140 -281 0
-141 -282 0
-142 -310 0
-143 -311 0
-144 -312 0
-142 -280 0
-143 -281 0
-144 -282 0
-142 -436 0
-143 -437 0
-144 -438 0
-145 -202 0
-146 -203 0
-147 -204 0
-145 -541 0
-146 -542 0
-147 -543 0
-145 -220 0
-146 -221 0
-147 -222 0
-145 -886 0
-146 -887 0
-147 -888 0
-148 -949 0
-149 -950 0
-150 -951 0
-148 -229 0
-149 -230 0
-150 -231 0
-148 -775 0
-149 -776 0
-150 -777 0
-148 -778 0
-149 -779 0
-150 -780 0
-148 -196 0
-149 -197 0
-150 -198 0
-151 -220 0
-152 -221 0
-153 -222 0
-151 -205 0
-152 -206 0
-153 -207 0
-151 -595 0
-152 -596 0
-153 -597 0
-151 -514 0
-152 -515 0
-153 -516 0
-154 -226 0
-155 -227 0
-156 -228 0
-154 -523 0
-155 -524 0
-156 -525 0
-154 -892 0
-155 -893 0
-156 -894 0
-154 -973 0
-155 -974 0
-156 -975 0
-154 -625 0
-155 -626 0
-156 -627 0
-154 -643 0
-155 -644 0
-156 -645 0
-154 -997 0
-155 -998 0
-156 -999 0
-154 -202 0
-155 -203 0
-156 -204 0
-157 -598 0
-158 -599 0
-159 -600 0
-157 -748 0
-158 -749 0
-159 -750 0
-157 -238 0
-158 -239 0
-159 -240 0
-157 -898 0
-158 -899 0
-159 -900 0
-157 -193 0
-158 -194 0
-159 -195 0
-157 -781 0
-158 -782 0
-159 -783 0
-157 -652 0
-158 -653 0
-159 -654 0
-160 -670 0
-161 -671 0
-162 -672 0
-160 -238 0
-161 -239 0
-162 -240 0
-160 -757 0
-161 -758 0
-162 -759 0
-160 -628 0
-161 -629 0
-162 -630 0
-160 -196 0
-161 -197 0
-162 -198 0
-163 -226 0
-164 -227 0
-165 -228 0
-163 -754 0
-164 -755 0
-165 -756 0
-163 -628 0
-164 -629 0
-165 -630 0
-163 -559 0
-164 -560 0
-165 -561 0
-163 -205 0
-164 -206 0
-165 -207 0
-163 -508 0
-164 -509 0
-165 -510 0
-166 -448 0
-167 -449 0
-168 -450 0
-166 -820 0
-167 -821 0
-168 -822 0
-166 -730 0
-167 -731 0
-168 -732 0
-169 -454 0
-170 -455 0
-171 -456 0
-169 -793 0
-170 -794 0
-171 -795 0
-169 -730 0
-170 -731 0
-171 -732 0
-169 -733 0
-170 -734 0
-171 -735 0
-172 -454 0
-173 -455 0
-174 -456 0
-172 -922 0
-173 -923 0
-174 -924 0
-172 -802 0
-173 -803 0
-174 -804 0
-175 -520 0
-176 -521 0
-177 -522 0
-175 -697 0
-176 -698 0
-177 -699 0
-175 -991 0
-176 -992 0
-177 -993 0
-175 -349 0
-176 -350 0
-177 -351 0
-178 -520 0
-179 -521 0
-180 -522 0
-178 -625 0
-179 -626 0
-180 -627 0
-181 -649 0
-182 -650 0
-183 -651 0
-181 -778 0
-182 -779 0
-183 -780 0
-181 -367 0
-182 -368 0
-183 -369 0
-184 -892 0
-185 -893 0
-186 -894 0
-184 -631 0
-185 -632 0
-186 -633 0
-184 -427 0
-185 -428 0
-186 -429 0
-187 -430 0
-188 -431 0
-189 -432 0
-187 -949 0
-188 -950 0
-189 -951 0
-187 -775 0
-188 -776 0
-189 -777 0
-190 -511 0
-191 -512 0
-192 -513 0
-190 -958 0
-191 -959 0
-192 -960 0
-190 -769 0
-191 -770 0
-192 -771 0
-190 -196 0
-191 -197 0
-192 -198 0
-190 -277 0
-191 -278 0
-192 -279 0
-193 -445 0
-194 -446 0
-195 -447 0
-193 -370 0
-194 -371 0
-195 -372 0
-193 -199 0
-194 -200 0
-195 -201 0
-193 -280 0
-194 -281 0
-195 -282 0
-196 -262 0
-197 -263 0
-198 -264 0
-196 -280 0
-197 -281 0
-198 -282 0
-196 -442 0
-197 -443 0
-198 -444 0
-199 -598 0
-200 -599 0
-201 -600 0
-199 -601 0
-200 -602 0
-201 -603 0
-199 -964 0
-200 -965 0
-201 -966 0
-199 -754 0
-200 -755 0
-201 -756 0
-199 -283 0
-200 -284 0
-201 -285 0
-199 -508 0
-200 -509 0
-201 -510 0
-202 -295 0
-203 -296 0
-204 -297 0
-202 -280 0
-203 -281 0
-204 -282 0
-202 -208 0
-203 -209 0
-204 -210 0
-205 -280 0
-206 -281 0
-207 -282 0
-208 -283 0
-209 -284 0
-210 -285 0
-208 -616 0
-209 -617 0
-210 -618 0
-208 -745 0
-209 -746 0
-210 -747 0
-211 -592 0
-212 -593 0
-213 -594 0
-211 -448 0
-212 -449 0
-213 -450 0
-211 -673 0
-212 -674 0
-213 -675 0
-211 -679 0
-212 -680 0
-213 -681 0
-211 -718 0
-212 -719 0
-213 -720 0
-214 -751 0
-215 -752 0
-216 -753 0
-214 -538 0
-215 -539 0
-216 -540 0
-214 -772 0
-215 -773 0
-216 -774 0
-214 -481 0
-215 -482 0
-216 -483 0
-214 -862 0
-215 -863 0
-216 -864 0
-214 -871 0
-215 -872 0
-216 -873 0
-214 -874 0
-215 -875 0
-216 -876 0
-217 -475 0
-218 -476 0
-219 -477 0
-217 -802 0
-218 -803 0
-219 -804 0
-217 -661 0
-218 -662 0
-219 -663 0
-220 -223 0
-221 -224 0
-222 -225 0
-220 -460 0
-221 -461 0
-222 -462 0
-220 -274 0
-221 -275 0
-222 -276 0
-220 -280 0
-221 -281 0
-222 -282 0
-223 -511 0
-224 -512 0
-225 -513 0
-223 -757 0
-224 -758 0
-225 -759 0
-223 -550 0
-224 -551 0
-225 -552 0
-223 -283 0
-224 -284 0
-225 -285 0
-226 -373 0
-227 -374 0
-228 -375 0
-226 -457 0
-227 -458 0
-228 -459 0
-226 -265 0
-227 -266 0
-228 -267 0
-226 -280 0
-227 -281 0
-228 -282 0
-229 -376 0
-230 -377 0
-231 -378 0
-229 -235 0
-230 -236 0
-231 -237 0
-229 -280 0
-230 -281 0
-231 -282 0
-232 -664 0
-233 -665 0
-234 -666 0
-232 -604 0
-233 -605 0
-234 -606 0
-232 -238 0
-233 -239 0
-234 -240 0
-232 -541 0
-233 -542 0
-234 -543 0
-232 -616 0
-233 -617 0
-234 -618 0
-232 -277 0
-233 -278 0
-234 -279 0
-235 -283 0
-236 -284 0
-237 -285 0
-235 -580 0
-236 -581 0
-237 -582 0
-235 -508 0
-236 -509 0
-237 -510 0
-238 -280 0
-239 -281 0
-240 -282 0
-241 -790 0
-242 -791 0
-243 -792 0
-241 -523 0
-242 -524 0
-243 -525 0
-241 -367 0
-242 -368 0
-243 -369 0
-244 -634 0
-245 -635 0
-246 -636 0
-244 -778 0
-245 -779 0
-246 -780 0
-247 -748 0
-248 -749 0
-249 -750 0
-247 -388 0
-248 -389 0
-249 -390 0
-247 -709 0
-248 -710 0
-249 -711 0
-247 -781 0
-248 -782 0
-249 -783 0
-247 -724 0
-248 -725 0
-249 -726 0
-250 -514 0
-251 -515 0
-252 -516 0
-250 -517 0
-251 -518 0
-252 -519 0
-250 -691 0
-251 -692 0
-252 -693 0
-253 -625 0
-254 -626 0
-255 -627 0
-253 -406 0
-254 -407 0
-255 -408 0
-253 -637 0
-254 -638 0
-255 -639 0
-253 -850 0
-254 -851 0
-255 -852 0
-253 -643 0
-254 -644 0
-255 -645 0
-256 -745 0
-257 -746 0
-258 -747 0
-256 -406 0
-257 -407 0
-258 -408 0
-256 -643 0
-257 -644 0
-258 -645 0
-256 -646 0
-257 -647 0
-258 -648 0
-259 -721 0
-260 -722 0
-261 -723 0
-259 -424 0
-260 -425 0
-261 -426 0
-262 -511 0
-263 -512 0
-264 -513 0
-262 -757 0
-263 -758 0
-264 -759 0
-262 -553 0
-263 -554 0
-264 -555 0
-262 -349 0
-263 -350 0
-264 -351 0
-265 -601 0
-266 -602 0
-267 -603 0
-265 -754 0
-266 -755 0
-267 -756 0
-265 -973 0
-266 -974 0
-267 -975 0
-265 -322 0
-266 -323 0
-267 -324 0
-268 -403 0
-269 -404 0
-270 -405 0
-268 -421 0
-269 -422 0
-270 -423 0
-268 -280 0
-269 -281 0
-270 -282 0
-271 -526 0
-272 -527 0
-273 -528 0
-271 -529 0
-272 -530 0
-273 -531 0
-271 -475 0
-272 -476 0
-273 -477 0
-271 -556 0
-272 -557 0
-273 -558 0
-271 -562 0
-272 -563 0
-273 -564 0
-271 -574 0
-272 -575 0
-273 -576 0
-274 -325 0
-275 -326 0
-276 -327 0
-274 -550 0
-275 -551 0
-276 -552 0
-274 -586 0
-275 -587 0
-276 -588 0
-277 -463 0
-278 -464 0
-279 -465 0
-277 -319 0
-278 -320 0
-279 -321 0
-277 -472 0
-278 -473 0
-279 -474 0
-277 -478 0
-278 -479 0
-279 -480 0
-277 -346 0
-278 -347 0
-279 -348 0
-277 -280 0
-278 -281 0
-279 -282 0
-280 -322 0
-281 -323 0
-282 -324 0
-280 -325 0
-281 -326 0
-282 -327 0
-280 -349 0
-281 -350 0
-282 -351 0
-280 -352 0
-281 -353 0
-282 -354 0
-280 -364 0
-281 -365 0
-282 -366 0
-280 -367 0
-281 -368 0
-282 -369 0
-280 -388 0
-281 -389 0
-282 -390 0
-280 -406 0
-281 -407 0
-282 -408 0
-280 -424 0
-281 -425 0
-282 -426 0
-280 -427 0
-281 -428 0
-282 -429 0
-280 -430 0
-281 -431 0
-282 -432 0
-280 -433 0
-281 -434 0
-282 -435 0
-280 -448 0
-281 -449 0
-282 -450 0
-280 -454 0
-281 -455 0
-282 -456 0
-280 -466 0
-281 -467 0
-282 -468 0
-280 -475 0
-281 -476 0
-282 -477 0
-280 -481 0
-281 -482 0
-282 -483 0
-280 -493 0
-281 -494 0
-282 -495 0
-280 -283 0
-281 -284 0
-282 -285 0
-283 -451 0
-284 -452 0
-285 -453 0
-283 -328 0
-284 -329 0
-285 -330 0
-283 -289 0
-284 -290 0
-285 -291 0
-283 -355 0
-284 -356 0
-285 -357 0
-286 -589 0
-287 -590 0
-288 -591 0
-286 -742 0
-287 -743 0
-288 -744 0
-286 -673 0
-287 -674 0
-288 -675 0
-286 -895 0
-287 -896 0
-288 -897 0
-286 -688 0
-287 -689 0
-288 -690 0
-286 -865 0
-287 -866 0
-288 -867 0
-286 -481 0
-287 -482 0
-288 -483 0
-286 -805 0
-287 -806 0
-288 -807 0
-289 -751 0
-290 -752 0
-291 -753 0
-289 -754 0
-290 -755 0
-291 -756 0
-289 -757 0
-290 -758 0
-291 -759 0
-289 -772 0
-290 -773 0
-291 -774 0
-292 -466 0
-293 -467 0
-294 -468 0
-292 -919 0
-293 -920 0
-294 -921 0
-292 -940 0
-293 -941 0
-294 -942 0
-295 -616 0
-296 -617 0
-297 -618 0
-295 -541 0
-296 -542 0
-297 -543 0
-295 -763 0
-296 -764 0
-297 -765 0
-295 -997 0
-296 -998 0
-297 -999 0
-295 -352 0
-296 -353 0
-297 -354 0
-298 -676 0
-299 -677 0
-300 -678 0
-298 -454 0
-299 -455 0
-300 -456 0
-298 -682 0
-299 -683 0
-300 -684 0
-298 -727 0
-299 -728 0
-300 -729 0
-301 -736 0
-302 -737 0
-303 -738 0
-301 -454 0
-302 -455 0
-303 -456 0
-301 -838 0
-302 -839 0
-303 -840 0
-304 -520 0
-305 -521 0
-306 -522 0
-304 -883 0
-305 -884 0
-306 -885 0
-304 -523 0
-305 -524 0
-306 -525 0
-304 -892 0
-305 -893 0
-306 -894 0
-304 -703 0
-305 -704 0
-306 -705 0
-304 -427 0
-305 -428 0
-306 -429 0
-307 -949 0
-308 -950 0
-309 -951 0
-307 -655 0
-308 -656 0
-309 -657 0
-307 -706 0
-308 -707 0
-309 -708 0
-307 -649 0
-308 -650 0
-309 -651 0
-307 -430 0
-308 -431 0
-309 -432 0
-307 -943 0
-308 -944 0
-309 -945 0
-310 -604 0
-311 -605 0
-312 -606 0
-310 -898 0
-311 -899 0
-312 -900 0
-310 -982 0
-311 -983 0
-312 -984 0
-310 -433 0
-311 -434 0
-312 -435 0
-313 -454 0
-314 -455 0
-315 -456 0
-313 -907 0
-314 -908 0
-315 -909 0
-313 -910 0
-314 -911 0
-315 -912 0
-316 -655 0
-317 -656 0
-318 -657 0
-316 -454 0
-317 -455 0
-318 -456 0
-319 -664 0
-320 -665 0
-321 -666 0
-319 -601 0
-320 -602 0
-321 -603 0
-319 -322 0
-320 -323 0
-321 -324 0
-319 -568 0
-320 -569 0
-321 -570 0
-322 -490 0
-323 -491 0
-324 -492 0
-325 -385 0
-326 -386 0
-327 -387 0
-325 -328 0
-326 -329 0
-327 -330 0
-325 -499 0
-326 -500 0
-327 -501 0
-328 -550 0
-329 -551 0
-330 -552 0
-328 -580 0
-329 -581 0
-330 -582 0
-331 -583 0
-332 -584 0
-333 -585 0
-331 -547 0
-332 -548 0
-333 -549 0
-334 -841 0
-335 -842 0
-336 -843 0
-334 -694 0
-335 -695 0
-336 -696 0
-334 -475 0
-335 -476 0
-336 -477 0
-337 -493 0
-338 -494 0
-339 -495 0
-337 -820 0
-338 -821 0
-339 -822 0
-337 -700 0
-338 -701 0
-339 -702 0
-340 -589 0
-341 -590 0
-342 -591 0
-340 -877 0
-341 -878 0
-342 -879 0
-340 -481 0
-341 -482 0
-342 -483 0
-340 -874 0
-341 -875 0
-342 -876 0
-343 -751 0
-344 -752 0
-345 -753 0
-343 -481 0
-344 -482 0
-345 -483 0
-343 -847 0
-344 -848 0
-345 -849 0
-343 -850 0
-344 -851 0
-345 -852 0
-343 -715 0
-344 -716 0
-345 -717 0
-343 -928 0
-344 -929 0
-345 -930 0
-343 -724 0
-344 -725 0
-345 -726 0
-343 -577 0
-344 -578 0
-345 -579 0
-346 -511 0
-347 -512 0
-348 -513 0
-346 -883 0
-347 -884 0
-348 -885 0
-346 -349 0
-347 -350 0
-348 -351 0
-349 -385 0
-350 -386 0
-351 -387 0
-352 -382 0
-353 -383 0
-354 -384 0
-352 -412 0
-353 -413 0
-354 -414 0
-352 -355 0
-353 -356 0
-354 -357 0
-355 -616 0
-356 -617 0
-357 -618 0
-355 -943 0
-356 -944 0
-357 -945 0
-358 -481 0
-359 -482 0
-360 -483 0
-358 -901 0
-359 -902 0
-360 -903 0
-358 -928 0
-359 -929 0
-360 -930 0
-361 -952 0
-362 -953 0
-363 -954 0
-361 -667 0
-362 -668 0
-363 -669 0
-361 -475 0
-362 -476 0
-363 -477 0
-364 -487 0
-365 -488 0
-366 -489 0
-364 -469 0
-365 -470 0
-366 -471 0
-367 -412 0
-368 -413 0
-369 -414 0
-370 -781 0
-371 -782 0
-372 -783 0
-370 -433 0
-371 -434 0
-372 -435 0
-370 -604 0
-371 -605 0
-372 -606 0
-373 -427 0
-374 -428 0
-375 -429 0
-373 -520 0
-374 -521 0
-375 -522 0
-373 -625 0
-374 -626 0
-375 -627 0
-376 -649 0
-377 -650 0
-378 -651 0
-376 -430 0
-377 -431 0
-378 -432 0
-376 -778 0
-377 -779 0
-378 -780 0
-379 -793 0
-380 -794 0
-381 -795 0
-379 -493 0
-380 -494 0
-381 -495 0
-382 -787 0
-383 -788 0
-384 -789 0
-382 -799 0
-383 -800 0
-384 -801 0
-385 -880 0
-386 -881 0
-387 -882 0
-385 -553 0
-386 -554 0
-387 -555 0
-385 -646 0
-386 -647 0
-387 -648 0
-388 -469 0
-389 -470 0
-390 -471 0
-391 -652 0
-392 -653 0
-393 -654 0
-391 -613 0
-392 -614 0
-393 -615 0
-391 -493 0
-392 -494 0
-393 -495 0
-391 -607 0
-392 -608 0
-393 -609 0
-394 -775 0
-395 -776 0
-396 -777 0
-394 -940 0
-395 -941 0
-396 -942 0
-394 -493 0
-395 -494 0
-396 -495 0
-397 -610 0
-398 -611 0
-399 -612 0
-397 -493 0
-398 -494 0
-399 -495 0
-400 -952 0
-401 -953 0
-402 -954 0
-400 -607 0
-401 -608 0
-402 -609 0
-400 -532 0
-401 -533 0
-402 -534 0
-400 -493 0
-401 -494 0
-402 -495 0
-403 -691 0
-404 -692 0
-405 -693 0
-403 -784 0
-404 -785 0
-405 -786 0
-409 -481 0
-410 -482 0
-411 -483 0
-409 -880 0
-410 -881 0
-411 -882 0
-409 -883 0
-410 -884 0
-411 -885 0
-412 -790 0
-413 -791 0
-414 -792 0
-412 -649 0
-413 -650 0
-414 -651 0
-412 -655 0
-413 -656 0
-414 -657 0
-415 -610 0
-416 -611 0
-417 -612 0
-415 -514 0
-416 -515 0
-417 -516 0
-415 -622 0
-416 -623 0
-417 -624 0
-415 -493 0
-416 -494 0
-417 -495 0
-418 -532 0
-419 -533 0
-420 -534 0
-418 -619 0
-419 -620 0
-420 -621 0
-418 -625 0
-419 -626 0
-420 -627 0
-418 -493 0
-419 -494 0
-420 -495 0
-421 -961 0
-422 -962 0
-423 -963 0
-421 -784 0
-422 -785 0
-423 -786 0
-421 -427 0
-422 -428 0
-423 -429 0
-424 -487 0
-425 -488 0
-426 -489 0
-424 -496 0
-425 -497 0
-426 -498 0
-433 -496 0
-434 -497 0
-435 -498 0
-433 -439 0
-434 -440 0
-435 -441 0
-436 -622 0
-437 -623 0
-438 -624 0
-436 -979 0
-437 -980 0
-438 -981 0
-436 -781 0
-437 -782 0
-438 -783 0
-436 -493 0
-437 -494 0
-438 -495 0
-436 -652 0
-437 -653 0
-438 -654 0
-436 -940 0
-437 -941 0
-438 -942 0
-439 -970 0
-440 -971 0
-441 -972 0
-439 -784 0
-440 -785 0
-441 -786 0
-439 -931 0
-440 -932 0
-441 -933 0
-442 -670 0
-443 -671 0
-444 -672 0
-442 -943 0
-443 -944 0
-444 -945 0
-442 -475 0
-443 -476 0
-444 -477 0
-445 -898 0
-446 -899 0
-447 -900 0
-445 -481 0
-446 -482 0
-447 -483 0
-445 -925 0
-446 -926 0
-447 -927 0
-445 -934 0
-446 -935 0
-447 -936 0
-448 -451 0
-449 -452 0
-450 -453 0
-448 -502 0
-449 -503 0
-450 -504 0
-451 -592 0
-452 -593 0
-453 -594 0
-451 -820 0
-452 -821 0
-453 -822 0
-451 -862 0
-452 -863 0
-453 -864 0
-451 -772 0
-452 -773 0
-453 -774 0
-454 -502 0
-455 -503 0
-456 -504 0
-454 -505 0
-455 -506 0
-456 -507 0
-457 -526 0
-458 -527 0
-459 -528 0
-457 -475 0
-458 -476 0
-459 -477 0
-457 -559 0
-458 -560 0
-459 -561 0
-460 -895 0
-461 -896 0
-462 -897 0
-460 -481 0
-461 -482 0
-462 -483 0
-460 -586 0
-461 -587 0
-462 -588 0
-463 -466 0
-464 -467 0
-465 -468 0
-463 -940 0
-464 -941 0
-465 -942 0
-469 -781 0
-470 -782 0
-471 -783 0
-472 -568 0
-473 -569 0
-474 -570 0
-472 -475 0
-473 -476 0
-474 -477 0
-472 -829 0
-473 -830 0
-474 -831 0
-475 -484 0
-476 -485 0
-477 -486 0
-475 -490 0
-476 -491 0
-477 -492 0
-475 -505 0
-476 -506 0
-477 -507 0
-478 -769 0
-479 -770 0
-480 -771 0
-478 -481 0
-479 -482 0
-480 -483 0
-478 -862 0
-479 -863 0
-480 -864 0
-478 -865 0
-479 -866 0
-480 -867 0
-484 -667 0
-485 -668 0
-486 -669 0
-484 -829 0
-485 -830 0
-486 -831 0
-487 -952 0
-488 -953 0
-489 -954 0
-490 -529 0
-491 -530 0
-492 -531 0
-490 -565 0
-491 -566 0
-492 -567 0
-490 -568 0
-491 -569 0
-492 -570 0
-496 -721 0
-497 -722 0
-498 -723 0
-496 -619 0
-497 -620 0
-498 -621 0
-496 -982 0
-497 -983 0
-498 -984 0
-499 -787 0
-500 -788 0
-501 -789 0
-499 -583 0
-500 -584 0
-501 -585 0
-502 -736 0
-503 -737 0
-504 -738 0
-502 -682 0
-503 -683 0
-504 -684 0
-502 -685 0
-503 -686 0
-504 -687 0
-502 -718 0
-503 -719 0
-504 -720 0
-502 -730 0
-503 -731 0
-504 -732 0
-505 -562 0
-506 -563 0
-507 -564 0
-505 -793 0
-506 -794 0
-507 -795 0
-505 -802 0
-506 -803 0
-507 -804 0
-508 -913 0
-509 -914 0
-510 -915 0
-511 -526 0
-512 -527 0
-513 -528 0
-511 -529 0
-512 -530 0
-513 -531 0
-517 -739 0
-518 -740 0
-519 -741 0
-523 -1012 0
-524 -1013 0
-525 -1014 0
-523 -904 0
-524 -905 0
-525 -906 0
-526 -547 0
-527 -548 0
-528 -549 0
-529 -544 0
-530 -545 0
-531 -546 0
-529 -550 0
-530 -551 0
-531 -552 0
-529 -553 0
-530 -554 0
-531 -555 0
-529 -925 0
-530 -926 0
-531 -927 0
-529 -934 0
-530 -935 0
-531 -936 0
-532 -811 0
-533 -812 0
-534 -813 0
-535 -592 0
-536 -593 0
-537 -594 0
-535 -811 0
-536 -812 0
-537 -813 0
-535 -571 0
-536 -572 0
-537 -573 0
-535 -577 0
-536 -578 0
-537 -579 0
-538 -823 0
-539 -824 0
-540 -825 0
-544 -937 0
-545 -938 0
-546 -939 0
-544 -574 0
-545 -575 0
-546 -576 0
-547 -559 0
-548 -560 0
-549 -561 0
-550 -976 0
-551 -977 0
-552 -978 0
-550 -985 0
-551 -986 0
-552 -987 0
-550 -556 0
-551 -557 0
-552 -558 0
-550 -565 0
-551 -566 0
-552 -567 0
-553 -976 0
-554 -977 0
-555 -978 0
-553 -937 0
-554 -938 0
-555 -939 0
-556 -595 0
-557 -596 0
-558 -597 0
-556 -796 0
-557 -797 0
-558 -798 0
-556 -580 0
-557 -581 0
-558 -582 0
-559 -589 0
-560 -590 0
-561 -591 0
-562 -835 0
-563 -836 0
-564 -837 0
-562 -787 0
-563 -788 0
-564 -789 0
-562 -799 0
-563 -800 0
-564 -801 0
-562 -796 0
-563 -797 0
-564 -798 0
-562 -583 0
-563 -584 0
-564 -585 0
-565 -586 0
-566 -587 0
-567 -588 0
-568 -586 0
-569 -587 0
-570 -588 0
-571 -823 0
-572 -824 0
-573 -825 0
-571 -832 0
-572 -833 0
-573 -834 0
-571 -988 0
-572 -989 0
-573 -990 0
-574 -886 0
-575 -887 0
-576 -888 0
-577 -826 0
-578 -827 0
-579 -828 0
-577 -838 0
-578 -839 0
-579 -840 0
-577 -727 0
-578 -728 0
-579 -729 0
-586 -664 0
-587 -665 0
-588 -666 0
-589 -670 0
-590 -671 0
-591 -672 0
-589 -967 0
-590 -968 0
-591 -969 0
-589 -628 0
-590 -629 0
-591 -630 0
-589 -868 0
-590 -869 0
-591 -870 0
-589 -661 0
-590 -662 0
-591 -663 0
-592 -808 0
-593 -809 0
-594 -810 0
-592 -667 0
-593 -668 0
-594 -669 0
-592 -832 0
-593 -833 0
-594 -834 0
-595 -976 0
-596 -977 0
-597 -978 0
-598 -895 0
-599 -896 0
-600 -897 0
-601 -895 0
-602 -896 0
-603 -897 0
-607 -766 0
-608 -767 0
-609 -768 0
-610 -1000 0
-611 -1001 0
-612 -1002 0
-613 -1000 0
-614 -1001 0
-615 -1002 0
-616 -742 0
-617 -743 0
-618 -744 0
-619 -676 0
-620 -677 0
-621 -678 0
-619 -682 0
-620 -683 0
-621 -684 0
-619 -685 0
-620 -686 0
-621 -687 0
-622 -736 0
-623 -737 0
-624 -738 0
-628 -913 0
-629 -914 0
-630 -915 0
-628 -805 0
-629 -806 0
-630 -807 0
-631 -916 0
-632 -917 0
-633 -918 0
-631 -1003 0
-632 -1004 0
-633 -1005 0
-640 -853 0
-641 -854 0
-642 -855 0
-640 -1006 0
-641 -1007 0
-642 -1008 0
-643 -904 0
-644 -905 0
-645 -906 0
-643 -994 0
-644 -995 0
-645 -996 0
-646 -994 0
-647 -995 0
-648 -996 0
-646 -937 0
-647 -938 0
-648 -939 0
-655 -814 0
-656 -815 0
-657 -816 0
-655 -817 0
-656 -818 0
-657 -819 0
-658 -688 0
-659 -689 0
-660 -690 0
-658 -673 0
-659 -674 0
-660 -675 0
-658 -700 0
-659 -701 0
-660 -702 0
-661 -742 0
-662 -743 0
-663 -744 0
-661 -1006 0
-662 -1007 0
-663 -1008 0
-664 -742 0
-665 -743 0
-666 -744 0
-664 -895 0
-665 -896 0
-666 -897 0
-664 -994 0
-665 -995 0
-666 -996 0
-667 -817 0
-668 -818 0
-669 -819 0
-667 -679 0
-668 -680 0
-669 -681 0
-676 -856 0
-677 -857 0
-678 -858 0
-676 -721 0
-677 -722 0
-678 -723 0
-679 -829 0
-680 -830 0
-681 -831 0
-682 -760 0
-683 -761 0
-684 -762 0
-682 -703 0
-683 -704 0
-684 -705 0
-682 -709 0
-683 -710 0
-684 -711 0
-682 -715 0
-683 -716 0
-684 -717 0
-682 -724 0
-683 -725 0
-684 -726 0
-685 -691 0
-686 -692 0
-687 -693 0
-685 -694 0
-686 -695 0
-687 -696 0
-685 -706 0
-686 -707 0
-687 -708 0
-685 -712 0
-686 -713 0
-687 -714 0
-688 -808 0
-689 -809 0
-690 -810 0
-688 -697 0
-689 -698 0
-690 -699 0
-688 -868 0
-689 -869 0
-690 -870 0
-691 -739 0
-692 -740 0
-693 -741 0
-691 -718 0
-692 -719 0
-693 -720 0
-694 -907 0
-695 -908 0
-696 -909 0
-697 -895 0
-698 -896 0
-699 -897 0
-697 -1009 0
-698 -1010 0
-699 -1011 0
-700 -868 0
-701 -869 0
-702 -870 0
-703 -853 0
-704 -854 0
-705 -855 0
-703 -859 0
-704 -860 0
-705 -861 0
-703 -730 0
-704 -731 0
-705 -732 0
-706 -739 0
-707 -740 0
-708 -741 0
-706 -814 0
-707 -815 0
-708 -816 0
-706 -730 0
-707 -731 0
-708 -732 0
-709 -853 0
-710 -854 0
-711 -855 0
-712 -736 0
-713 -737 0
-714 -738 0
-712 -904 0
-713 -905 0
-714 -906 0
-715 -727 0
-716 -728 0
-717 -729 0
-718 -826 0
-719 -827 0
-720 -828 0
-718 -784 0
-719 -785 0
-720 -786 0
-721 -733 0
-722 -734 0
-723 -735 0
-724 -844 0
-725 -845 0
-726 -846 0
-724 -859 0
-725 -860 0
-726 -861 0
-727 -856 0
-728 -857 0
-729 -858 0
-730 -808 0
-731 -809 0
-732 -810 0
-730 -967 0
-731 -968 0
-732 -969 0
-730 -982 0
-731 -983 0
-732 -984 0
-730 -868 0
-731 -869 0
-732 -870 0
-733 -982 0
-734 -983 0
-735 -984 0
-733 -856 0
-734 -857 0
-735 -858 0
-736 -847 0
-737 -848 0
-738 -849 0
-736 -850 0
-737 -851 0
-738 -852 0
-739 -946 0
-740 -947 0
-741 -948 0
-739 -949 0
-740 -950 0
-741 -951 0
-742 -763 0
-743 -764 0
-744 -765 0
-742 -802 0
-743 -803 0
-744 -804 0
-748 -844 0
-749 -845 0
-750 -846 0
-748 -916 0
-749 -917 0
-750 -918 0
-751 -859 0
-752 -860 0
-753 -861 0
-757 -976 0
-758 -977 0
-759 -978 0
-760 -844 0
-761 -845 0
-762 -846 0
-763 -865 0
-764 -866 0
-765 -867 0
-763 -1006 0
-764 -1007 0
-765 -1008 0
-766 -910 0
-767 -911 0
-768 -912 0
-769 -973 0
-770 -974 0
-771 -975 0
-772 -826 0
-773 -827 0
-774 -828 0
-772 -835 0
-773 -836 0
-774 -837 0
-784 -877 0
-785 -878 0
-786 -879 0
-784 -811 0
-785 -812 0
-786 -813 0
-790 -1012 0
-791 -1013 0
-792 -1014 0
-790 -814 0
-791 -815 0
-792 -816 0
-805 -823 0
-806 -824 0
-807 -825 0
-805 -919 0
-806 -920 0
-807 -921 0
-808 -1012 0
-809 -1013 0
-810 -1014 0
-808 -811 0
-809 -812 0
-810 -813 0
-808 -814 0
-809 -815 0
-810 -816 0
-808 -817 0
-809 -818 0
-810 -819 0
-808 -865 0
-809 -866 0
-810 -867 0
-808 -1009 0
-809 -1010 0
-810 -1011 0
-811 -961 0
-812 -962 0
-813 -963 0
-811 -823 0
-812 -824 0
-813 -825 0
-811 -970 0
-812 -971 0
-813 -972 0
-811 -835 0
-812 -836 0
-813 -837 0
-811 -979 0
-812 -980 0
-813 -981 0
-811 -940 0
-812 -941 0
-813 -942 0
-817 -952 0
-818 -953 0
-819 -954 0
-820 -826 0
-821 -827 0
-822 -828 0
-820 -868 0
-821 -869 0
-822 -870 0
-823 -877 0
-824 -878 0
-825 -879 0
-823 -874 0
-824 -875 0
-825 -876 0
-823 -865 0
-824 -866 0
-825 -867 0
-823 -913 0
-824 -914 0
-825 -915 0
-823 -916 0
-824 -917 0
-825 -918 0
-823 -1003 0
-824 -1004 0
-825 -1005 0
-826 -871 0
-827 -872 0
-828 -873 0
-832 -865 0
-833 -866 0
-834 -867 0
-832 -841 0
-833 -842 0
-834 -843 0
-832 -862 0
-833 -863 0
-834 -864 0
-835 -874 0
-836 -875 0
-837 -876 0
-838 -847 0
-839 -848 0
-840 -849 0
-841 -889 0
-842 -890 0
-843 -891 0
-841 -907 0
-842 -908 0
-843 -909 0
-841 -910 0
-842 -911 0
-843 -912 0
-844 -928 0
-845 -929 0
-846 -930 0
-844 -961 0
-845 -962 0
-846 -963 0
-844 -898 0
-845 -899 0
-846 -900 0
-844 -901 0
-845 -902 0
-846 -903 0
-850 -904 0
-851 -905 0
-852 -906 0
-853 -967 0
-854 -968 0
-855 -969 0
-853 -892 0
-854 -893 0
-855 -894 0
-856 -955 0
-857 -956 0
-858 -957 0
-859 -931 0
-860 -932 0
-861 -933 0
-865 -967 0
-866 -968 0
-867 -969 0
-865 -973 0
-866 -974 0
-867 -975 0
-865 -997 0
-866 -998 0
-867 -999 0
-874 -886 0
-875 -887 0
-876 -888 0
-874 -922 0
-875 -923 0
-876 -924 0
-886 -913 0
-887 -914 0
-888 -915 0
-889 -1000 0
-890 -1001 0
-891 -1002 0
-892 -994 0
-893 -995 0
-894 -996 0
-895 -991 0
-896 -992 0
-897 -993 0
-898 -985 0
-899 -986 0
-900 -987 0
-898 -1009 0
-899 -1010 0
-900 -1011 0
-901 -985 0
-902 -986 0
-903 -987 0
-904 -970 0
-905 -971 0
-906 -972 0
-904 -979 0
-905 -980 0
-906 -981 0
-913 -964 0
-914 -965 0
-915 -966 0
-913 -967 0
-914 -968 0
-915 -969 0
-916 -961 0
-917 -962 0
-918 -963 0
-919 -1003 0
-920 -1004 0
-921 -1005 0
-934 -985 0
-935 -986 0
-936 -987 0
-937 -964 0
-938 -965 0
-939 -966 0
-940 -1003 0
-941 -1004 0
-942 -1005 0
-964 -994 0
-965 -995 0
-966 -996 0
-967 -1000 0
-968 -1001 0
-969 -1002 0
-967 -1006 0
-968 -1007 0
-969 -1008 0
-991 -994 0
-992 -995 0
-993 -996 0
-997 -1012 0
-998 -1013 0
-999 -1014 0
1 0
518 0
