p cnf 873 2438
1 2 3 0
4 5 6 0
7 8 9 0
10 11 12 0
13 14 15 0
16 17 18 0
19 20 21 0
22 23 24 0
25 26 27 0
28 29 30 0
31 32 33 0
34 35 36 0
37 38 39 0
40 41 42 0
43 44 45 0
46 47 48 0
49 50 51 0
52 53 54 0
55 56 57 0
58 59 60 0
61 62 63 0
64 65 66 0
67 68 69 0
70 71 72 0
73 74 75 0
76 77 78 0
79 80 81 0
82 83 84 0
85 86 87 0
88 89 90 0
91 92 93 0
94 95 96 0
97 98 99 0
100 101 102 0
103 104 105 0
106 107 108 0
109 110 111 0
112 113 114 0
115 116 117 0
118 119 120 0
121 122 123 0
124 125 126 0
127 128 129 0
130 131 132 0
133 134 135 0
136 137 138 0
139 140 141 0
142 143 144 0
145 146 147 0
148 149 150 0
151 152 153 0
154 155 156 0
157 158 159 0
160 161 162 0
163 164 165 0
166 167 168 0
169 170 171 0
172 173 174 0
175 176 177 0
178 179 180 0
181 182 183 0
184 185 186 0
187 188 189 0
190 191 192 0
193 194 195 0
196 197 198 0
199 200 201 0
202 203 204 0
205 206 207 0
208 209 210 0
211 212 213 0
214 215 216 0
217 218 219 0
220 221 222 0
223 224 225 0
226 227 228 0
229 230 231 0
232 233 234 0
235 236 237 0
238 239 240 0
241 242 243 0
244 245 246 0
247 248 249 0
250 251 252 0
253 254 255 0
256 257 258 0
259 260 261 0
262 263 264 0
265 266 267 0
268 269 270 0
271 272 273 0
274 275 276 0
277 278 279 0
280 281 282 0
283 284 285 0
286 287 288 0
289 290 291 0
292 293 294 0
295 296 297 0
298 299 300 0
301 302 303 0
304 305 306 0
307 308 309 0
310 311 312 0
313 314 315 0
316 317 318 0
319 320 321 0
322 323 324 0
325 326 327 0
328 329 330 0
331 332 333 0
334 335 336 0
337 338 339 0
340 341 342 0
343 344 345 0
346 347 348 0
349 350 351 0
352 353 354 0
355 356 357 0
358 359 360 0
361 362 363 0
364 365 366 0
367 368 369 0
370 371 372 0
373 374 375 0
376 377 378 0
379 380 381 0
382 383 384 0
385 386 387 0
388 389 390 0
391 392 393 0
394 395 396 0
397 398 399 0
400 401 402 0
403 404 405 0
406 407 408 0
409 410 411 0
412 413 414 0
415 416 417 0
418 419 420 0
421 422 423 0
424 425 426 0
427 428 429 0
430 431 432 0
433 434 435 0
436 437 438 0
439 440 441 0
442 443 444 0
445 446 447 0
448 449 450 0
451 452 453 0
454 455 456 0
457 458 459 0
460 461 462 0
463 464 465 0
466 467 468 0
469 470 471 0
472 473 474 0
475 476 477 0
478 479 480 0
481 482 483 0
484 485 486 0
487 488 489 0
490 491 492 0
493 494 495 0
496 497 498 0
499 500 501 0
502 503 504 0
505 506 507 0
508 509 510 0
511 512 513 0
514 515 516 0
517 518 519 0
520 521 522 0
523 524 525 0
526 527 528 0
529 530 531 0
532 533 534 0
535 536 537 0
538 539 540 0
541 542 543 0
544 545 546 0
547 548 549 0
550 551 552 0
553 554 555 0
556 557 558 0
559 560 561 0
562 563 564 0
565 566 567 0
568 569 570 0
571 572 573 0
574 575 576 0
577 578 579 0
580 581 582 0
583 584 585 0
586 587 588 0
589 590 591 0
592 593 594 0
595 596 597 0
598 599 600 0
601 602 603 0
604 605 606 0
607 608 609 0
610 611 612 0
613 614 615 0
616 617 618 0
619 620 621 0
622 623 624 0
625 626 627 0
628 629 630 0
631 632 633 0
634 635 636 0
637 638 639 0
640 641 642 0
643 644 645 0
646 647 648 0
649 650 651 0
652 653 654 0
655 656 657 0
658 659 660 0
661 662 663 0
664 665 666 0
667 668 669 0
670 671 672 0
673 674 675 0
676 677 678 0
679 680 681 0
682 683 684 0
685 686 687 0
688 689 690 0
691 692 693 0
694 695 696 0
697 698 699 0
700 701 702 0
703 704 705 0
706 707 708 0
709 710 711 0
712 713 714 0
715 716 717 0
718 719 720 0
721 722 723 0
724 725 726 0
727 728 729 0
730 731 732 0
733 734 735 0
736 737 738 0
739 740 741 0
742 743 744 0
745 746 747 0
748 749 750 0
751 752 753 0
754 755 756 0
757 758 759 0
760 761 762 0
763 764 765 0
766 767 768 0
769 770 771 0
772 773 774 0
775 776 777 0
778 779 780 0
781 782 783 0
784 785 786 0
787 788 789 0
790 791 792 0
793 794 795 0
796 797 798 0
799 800 801 0
802 803 804 0
805 806 807 0
808 809 810 0
811 812 813 0
814 815 816 0
817 818 819 0
820 821 822 0
823 824 825 0
826 827 828 0
829 830 831 0
832 833 834 0
835 836 837 0
838 839 840 0
841 842 843 0
844 845 846 0
847 848 849 0
850 851 852 0
853 854 855 0
856 857 858 0
859 860 861 0
862 863 864 0
865 866 867 0
868 869 870 0
871 872 873 0
-1 -769 0
-2 -770 0
-3 -771 0
-1 -754 0
-2 -755 0
-3 -756 0
-1 -730 0
-2 -731 0
-3 -732 0
-1 -37 0
-2 -38 0
-3 -39 0
-1 -142 0
-2 -143 0
-3 -144 0
-4 -208 0
-5 -209 0
-6 -210 0
-4 -19 0
-5 -20 0
-6 -21 0
-4 -751 0
-5 -752 0
-6 -753 0
-4 -184 0
-5 -185 0
-6 -186 0
-4 -28 0
-5 -29 0
-6 -30 0
-4 -100 0
-5 -101 0
-6 -102 0
-4 -247 0
-5 -248 0
-6 -249 0
-4 -730 0
-5 -731 0
-6 -732 0
-4 -16 0
-5 -17 0
-6 -18 0
-7 -19 0
-8 -20 0
-9 -21 0
-7 -295 0
-8 -296 0
-9 -297 0
-7 -244 0
-8 -245 0
-9 -246 0
-7 -25 0
-8 -26 0
-9 -27 0
-7 -58 0
-8 -59 0
-9 -60 0
-10 -256 0
-11 -257 0
-12 -258 0
-10 -772 0
-11 -773 0
-12 -774 0
-10 -751 0
-11 -752 0
-12 -753 0
-10 -301 0
-11 -302 0
-12 -303 0
-10 -55 0
-11 -56 0
-12 -57 0
-10 -16 0
-11 -17 0
-12 -18 0
-13 -142 0
-14 -143 0
-15 -144 0
-13 -829 0
-14 -830 0
-15 -831 0
-13 -31 0
-14 -32 0
-15 -33 0
-13 -166 0
-14 -167 0
-15 -168 0
-13 -247 0
-14 -248 0
-15 -249 0
-16 -133 0
-17 -134 0
-18 -135 0
-16 -307 0
-17 -308 0
-18 -309 0
-16 -265 0
-17 -266 0
-18 -267 0
-16 -37 0
-17 -38 0
-18 -39 0
-19 -217 0
-20 -218 0
-21 -219 0
-19 -283 0
-20 -284 0
-21 -285 0
-19 -37 0
-20 -38 0
-21 -39 0
-22 -223 0
-23 -224 0
-24 -225 0
-22 -772 0
-23 -773 0
-24 -774 0
-22 -25 0
-23 -26 0
-24 -27 0
-22 -94 0
-23 -95 0
-24 -96 0
-22 -784 0
-23 -785 0
-24 -786 0
-22 -325 0
-23 -326 0
-24 -327 0
-25 -304 0
-26 -305 0
-27 -306 0
-25 -334 0
-26 -335 0
-27 -336 0
-25 -37 0
-26 -38 0
-27 -39 0
-28 -79 0
-29 -80 0
-30 -81 0
-28 -274 0
-29 -275 0
-30 -276 0
-31 -307 0
-32 -308 0
-33 -309 0
-31 -67 0
-32 -68 0
-33 -69 0
-34 -367 0
-35 -368 0
-36 -369 0
-34 -637 0
-35 -638 0
-36 -639 0
-34 -37 0
-35 -38 0
-36 -39 0
-34 -733 0
-35 -734 0
-36 -735 0
-37 -88 0
-38 -89 0
-39 -90 0
-37 -124 0
-38 -125 0
-39 -126 0
-37 -130 0
-38 -131 0
-39 -132 0
-37 -370 0
-38 -371 0
-39 -372 0
-37 -313 0
-38 -314 0
-39 -315 0
-37 -235 0
-38 -236 0
-39 -237 0
-37 -238 0
-38 -239 0
-39 -240 0
-37 -316 0
-38 -317 0
-39 -318 0
-37 -181 0
-38 -182 0
-39 -183 0
-37 -139 0
-38 -140 0
-39 -141 0
-40 -46 0
-41 -47 0
-42 -48 0
-40 -52 0
-41 -53 0
-42 -54 0
-40 -370 0
-41 -371 0
-42 -372 0
-40 -193 0
-41 -194 0
-42 -195 0
-40 -319 0
-41 -320 0
-42 -321 0
-43 -370 0
-44 -371 0
-45 -372 0
-43 -202 0
-44 -203 0
-45 -204 0
-43 -328 0
-44 -329 0
-45 -330 0
-46 -670 0
-47 -671 0
-48 -672 0
-46 -325 0
-47 -326 0
-48 -327 0
-46 -673 0
-47 -674 0
-48 -675 0
-46 -196 0
-47 -197 0
-48 -198 0
-46 -373 0
-47 -374 0
-48 -375 0
-49 -844 0
-50 -845 0
-51 -846 0
-49 -352 0
-50 -353 0
-51 -354 0
-49 -55 0
-50 -56 0
-51 -57 0
-52 -400 0
-53 -401 0
-54 -402 0
-52 -61 0
-53 -62 0
-54 -63 0
-52 -346 0
-53 -347 0
-54 -348 0
-55 -370 0
-56 -371 0
-57 -372 0
-58 -163 0
-59 -164 0
-60 -165 0
-58 -427 0
-59 -428 0
-60 -429 0
-58 -370 0
-59 -371 0
-60 -372 0
-61 -208 0
-62 -209 0
-63 -210 0
-61 -118 0
-62 -119 0
-63 -120 0
-61 -412 0
-62 -413 0
-63 -414 0
-61 -367 0
-62 -368 0
-63 -369 0
-61 -67 0
-62 -68 0
-63 -69 0
-61 -793 0
-62 -794 0
-63 -795 0
-64 -409 0
-65 -410 0
-66 -411 0
-64 -70 0
-65 -71 0
-66 -72 0
-64 -73 0
-65 -74 0
-66 -75 0
-64 -370 0
-65 -371 0
-66 -372 0
-67 -211 0
-68 -212 0
-69 -213 0
-67 -121 0
-68 -122 0
-69 -123 0
-67 -421 0
-68 -422 0
-69 -423 0
-67 -430 0
-68 -431 0
-69 -432 0
-67 -370 0
-68 -371 0
-69 -372 0
-67 -175 0
-68 -176 0
-69 -177 0
-70 -418 0
-71 -419 0
-72 -420 0
-70 -373 0
-71 -374 0
-72 -375 0
-73 -649 0
-74 -650 0
-75 -651 0
-73 -640 0
-74 -641 0
-75 -642 0
-73 -388 0
-74 -389 0
-75 -390 0
-76 -721 0
-77 -722 0
-78 -723 0
-76 -745 0
-77 -746 0
-78 -747 0
-76 -166 0
-77 -167 0
-78 -168 0
-76 -184 0
-77 -185 0
-78 -186 0
-79 -169 0
-80 -170 0
-81 -171 0
-79 -424 0
-80 -425 0
-81 -426 0
-79 -370 0
-80 -371 0
-81 -372 0
-82 -94 0
-83 -95 0
-84 -96 0
-82 -832 0
-83 -833 0
-84 -834 0
-82 -349 0
-83 -350 0
-84 -351 0
-82 -796 0
-83 -797 0
-84 -798 0
-85 -808 0
-86 -809 0
-87 -810 0
-85 -100 0
-86 -101 0
-87 -102 0
-85 -352 0
-86 -353 0
-87 -354 0
-85 -751 0
-86 -752 0
-87 -753 0
-88 -136 0
-89 -137 0
-90 -138 0
-88 -445 0
-89 -446 0
-90 -447 0
-88 -154 0
-89 -155 0
-90 -156 0
-88 -472 0
-89 -473 0
-90 -474 0
-91 -94 0
-92 -95 0
-93 -96 0
-91 -367 0
-92 -368 0
-93 -369 0
-91 -742 0
-92 -743 0
-93 -744 0
-91 -682 0
-92 -683 0
-93 -684 0
-94 -160 0
-95 -161 0
-96 -162 0
-94 -115 0
-95 -116 0
-96 -117 0
-94 -370 0
-95 -371 0
-96 -372 0
-97 -748 0
-98 -749 0
-99 -750 0
-97 -100 0
-98 -101 0
-99 -102 0
-97 -847 0
-98 -848 0
-99 -849 0
-97 -805 0
-98 -806 0
-99 -807 0
-97 -367 0
-98 -368 0
-99 -369 0
-97 -769 0
-98 -770 0
-99 -771 0
-100 -103 0
-101 -104 0
-102 -105 0
-100 -112 0
-101 -113 0
-102 -114 0
-100 -214 0
-101 -215 0
-102 -216 0
-100 -133 0
-101 -134 0
-102 -135 0
-100 -502 0
-101 -503 0
-102 -504 0
-100 -370 0
-101 -371 0
-102 -372 0
-103 -373 0
-104 -374 0
-105 -375 0
-103 -721 0
-104 -722 0
-105 -723 0
-103 -745 0
-104 -746 0
-105 -747 0
-103 -820 0
-104 -821 0
-105 -822 0
-103 -685 0
-104 -686 0
-105 -687 0
-106 -790 0
-107 -791 0
-108 -792 0
-106 -640 0
-107 -641 0
-108 -642 0
-106 -244 0
-107 -245 0
-108 -246 0
-106 -151 0
-107 -152 0
-108 -153 0
-109 -253 0
-110 -254 0
-111 -255 0
-109 -790 0
-110 -791 0
-111 -792 0
-109 -679 0
-110 -680 0
-111 -681 0
-109 -142 0
-110 -143 0
-111 -144 0
-112 -394 0
-113 -395 0
-114 -396 0
-112 -130 0
-113 -131 0
-114 -132 0
-115 -400 0
-116 -401 0
-117 -402 0
-115 -124 0
-116 -125 0
-117 -126 0
-118 -457 0
-119 -458 0
-120 -459 0
-118 -274 0
-119 -275 0
-120 -276 0
-118 -142 0
-119 -143 0
-120 -144 0
-121 -148 0
-122 -149 0
-123 -150 0
-121 -667 0
-122 -668 0
-123 -669 0
-121 -280 0
-122 -281 0
-123 -282 0
-124 -670 0
-125 -671 0
-126 -672 0
-124 -157 0
-125 -158 0
-126 -159 0
-124 -196 0
-125 -197 0
-126 -198 0
-124 -682 0
-125 -683 0
-126 -684 0
-124 -412 0
-125 -413 0
-126 -414 0
-127 -694 0
-128 -695 0
-129 -696 0
-127 -166 0
-128 -167 0
-129 -168 0
-127 -220 0
-128 -221 0
-129 -222 0
-130 -154 0
-131 -155 0
-132 -156 0
-130 -508 0
-131 -509 0
-132 -510 0
-130 -418 0
-131 -419 0
-132 -420 0
-130 -685 0
-131 -686 0
-132 -687 0
-130 -199 0
-131 -200 0
-132 -201 0
-133 -139 0
-134 -140 0
-135 -141 0
-133 -847 0
-134 -848 0
-135 -849 0
-133 -436 0
-134 -437 0
-135 -438 0
-136 -220 0
-137 -221 0
-138 -222 0
-136 -190 0
-137 -191 0
-138 -192 0
-136 -517 0
-137 -518 0
-138 -519 0
-139 -478 0
-140 -479 0
-141 -480 0
-139 -829 0
-140 -830 0
-141 -831 0
-139 -196 0
-140 -197 0
-141 -198 0
-139 -172 0
-140 -173 0
-141 -174 0
-139 -529 0
-140 -530 0
-141 -531 0
-139 -733 0
-140 -734 0
-141 -735 0
-142 -511 0
-143 -512 0
-144 -513 0
-142 -532 0
-143 -533 0
-144 -534 0
-142 -370 0
-143 -371 0
-144 -372 0
-142 -148 0
-143 -149 0
-144 -150 0
-145 -151 0
-146 -152 0
-147 -153 0
-145 -367 0
-146 -368 0
-147 -369 0
-145 -520 0
-146 -521 0
-147 -522 0
-148 -514 0
-149 -515 0
-150 -516 0
-148 -664 0
-149 -665 0
-150 -666 0
-148 -517 0
-149 -518 0
-150 -519 0
-148 -652 0
-149 -653 0
-150 -654 0
-148 -373 0
-149 -374 0
-150 -375 0
-148 -721 0
-149 -722 0
-150 -723 0
-151 -370 0
-152 -371 0
-153 -372 0
-154 -190 0
-155 -191 0
-156 -192 0
-154 -244 0
-155 -245 0
-156 -246 0
-157 -253 0
-158 -254 0
-159 -255 0
-157 -184 0
-158 -185 0
-159 -186 0
-160 -778 0
-161 -779 0
-162 -780 0
-160 -508 0
-161 -509 0
-162 -510 0
-163 -523 0
-164 -524 0
-165 -525 0
-163 -796 0
-164 -797 0
-165 -798 0
-163 -700 0
-164 -701 0
-165 -702 0
-166 -370 0
-167 -371 0
-168 -372 0
-169 -529 0
-170 -530 0
-171 -531 0
-169 -721 0
-170 -722 0
-171 -723 0
-169 -514 0
-170 -515 0
-171 -516 0
-172 -223 0
-173 -224 0
-174 -225 0
-172 -241 0
-173 -242 0
-174 -243 0
-175 -478 0
-176 -479 0
-177 -480 0
-175 -535 0
-176 -536 0
-177 -537 0
-175 -769 0
-176 -770 0
-177 -771 0
-178 -643 0
-179 -644 0
-180 -645 0
-178 -751 0
-179 -752 0
-180 -753 0
-178 -352 0
-179 -353 0
-180 -354 0
-178 -184 0
-179 -185 0
-180 -186 0
-181 -547 0
-182 -548 0
-183 -549 0
-181 -652 0
-182 -653 0
-183 -654 0
-181 -721 0
-182 -722 0
-183 -723 0
-181 -820 0
-182 -821 0
-183 -822 0
-184 -217 0
-185 -218 0
-186 -219 0
-184 -505 0
-185 -506 0
-186 -507 0
-184 -370 0
-185 -371 0
-186 -372 0
-184 -187 0
-185 -188 0
-186 -189 0
-187 -748 0
-188 -749 0
-189 -750 0
-187 -670 0
-188 -671 0
-189 -672 0
-187 -373 0
-188 -374 0
-189 -375 0
-190 -370 0
-191 -371 0
-192 -372 0
-193 -736 0
-194 -737 0
-195 -738 0
-193 -250 0
-194 -251 0
-195 -252 0
-193 -196 0
-194 -197 0
-195 -198 0
-193 -541 0
-194 -542 0
-195 -543 0
-193 -733 0
-194 -734 0
-195 -735 0
-196 -715 0
-197 -716 0
-198 -717 0
-196 -241 0
-197 -242 0
-198 -243 0
-196 -253 0
-197 -254 0
-198 -255 0
-199 -544 0
-200 -545 0
-201 -546 0
-199 -553 0
-200 -554 0
-201 -555 0
-199 -244 0
-200 -245 0
-201 -246 0
-199 -256 0
-200 -257 0
-201 -258 0
-199 -202 0
-200 -203 0
-201 -204 0
-199 -655 0
-200 -656 0
-201 -657 0
-199 -712 0
-200 -713 0
-201 -714 0
-202 -547 0
-203 -548 0
-204 -549 0
-202 -787 0
-203 -788 0
-204 -789 0
-202 -775 0
-203 -776 0
-204 -777 0
-205 -271 0
-206 -272 0
-207 -273 0
-205 -775 0
-206 -776 0
-207 -777 0
-205 -244 0
-206 -245 0
-207 -246 0
-205 -658 0
-206 -659 0
-207 -660 0
-208 -211 0
-209 -212 0
-210 -213 0
-208 -274 0
-209 -275 0
-210 -276 0
-208 -757 0
-209 -758 0
-210 -759 0
-208 -544 0
-209 -545 0
-210 -546 0
-211 -547 0
-212 -548 0
-213 -549 0
-211 -697 0
-212 -698 0
-213 -699 0
-211 -277 0
-212 -278 0
-213 -279 0
-211 -676 0
-212 -677 0
-213 -678 0
-211 -478 0
-212 -479 0
-213 -480 0
-211 -280 0
-212 -281 0
-213 -282 0
-214 -535 0
-215 -536 0
-216 -537 0
-214 -718 0
-215 -719 0
-216 -720 0
-214 -745 0
-215 -746 0
-216 -747 0
-214 -817 0
-215 -818 0
-216 -819 0
-214 -730 0
-215 -731 0
-216 -732 0
-217 -235 0
-218 -236 0
-219 -237 0
-217 -763 0
-218 -764 0
-219 -765 0
-220 -370 0
-221 -371 0
-222 -372 0
-220 -559 0
-221 -560 0
-222 -561 0
-223 -370 0
-224 -371 0
-225 -372 0
-226 -736 0
-227 -737 0
-228 -738 0
-226 -253 0
-227 -254 0
-228 -255 0
-226 -331 0
-227 -332 0
-228 -333 0
-229 -256 0
-230 -257 0
-231 -258 0
-229 -772 0
-230 -773 0
-231 -774 0
-229 -334 0
-230 -335 0
-231 -336 0
-229 -703 0
-230 -704 0
-231 -705 0
-229 -700 0
-230 -701 0
-231 -702 0
-232 -244 0
-233 -245 0
-234 -246 0
-232 -784 0
-233 -785 0
-234 -786 0
-232 -775 0
-233 -776 0
-234 -777 0
-232 -706 0
-233 -707 0
-234 -708 0
-232 -352 0
-233 -353 0
-234 -354 0
-235 -664 0
-236 -665 0
-237 -666 0
-235 -478 0
-236 -479 0
-237 -480 0
-235 -418 0
-236 -419 0
-237 -420 0
-235 -652 0
-236 -653 0
-237 -654 0
-235 -568 0
-236 -569 0
-237 -570 0
-235 -826 0
-236 -827 0
-237 -828 0
-235 -769 0
-236 -770 0
-237 -771 0
-238 -724 0
-239 -725 0
-240 -726 0
-238 -571 0
-239 -572 0
-240 -573 0
-238 -412 0
-239 -413 0
-240 -414 0
-241 -286 0
-242 -287 0
-243 -288 0
-241 -337 0
-242 -338 0
-243 -339 0
-241 -364 0
-242 -365 0
-243 -366 0
-241 -370 0
-242 -371 0
-243 -372 0
-244 -283 0
-245 -284 0
-246 -285 0
-244 -340 0
-245 -341 0
-246 -342 0
-244 -574 0
-245 -575 0
-246 -576 0
-244 -304 0
-245 -305 0
-246 -306 0
-244 -370 0
-245 -371 0
-246 -372 0
-244 -259 0
-245 -260 0
-246 -261 0
-247 -502 0
-248 -503 0
-249 -504 0
-247 -307 0
-248 -308 0
-249 -309 0
-247 -511 0
-248 -512 0
-249 -513 0
-250 -253 0
-251 -254 0
-252 -255 0
-250 -262 0
-251 -263 0
-252 -264 0
-250 -367 0
-251 -368 0
-252 -369 0
-250 -343 0
-251 -344 0
-252 -345 0
-253 -268 0
-254 -269 0
-255 -270 0
-253 -370 0
-254 -371 0
-255 -372 0
-256 -265 0
-257 -266 0
-258 -267 0
-256 -370 0
-257 -371 0
-258 -372 0
-259 -388 0
-260 -389 0
-261 -390 0
-259 -862 0
-260 -863 0
-261 -864 0
-262 -268 0
-263 -269 0
-264 -270 0
-262 -274 0
-263 -275 0
-264 -276 0
-265 -316 0
-266 -317 0
-267 -318 0
-265 -391 0
-266 -392 0
-267 -393 0
-265 -355 0
-266 -356 0
-267 -357 0
-268 -394 0
-269 -395 0
-270 -396 0
-268 -358 0
-269 -359 0
-270 -360 0
-268 -277 0
-269 -278 0
-270 -279 0
-271 -289 0
-272 -290 0
-273 -291 0
-271 -370 0
-272 -371 0
-273 -372 0
-274 -397 0
-275 -398 0
-276 -399 0
-274 -277 0
-275 -278 0
-276 -279 0
-274 -292 0
-275 -293 0
-276 -294 0
-274 -370 0
-275 -371 0
-276 -372 0
-277 -373 0
-278 -374 0
-279 -375 0
-280 -286 0
-281 -287 0
-282 -288 0
-280 -373 0
-281 -374 0
-282 -375 0
-280 -760 0
-281 -761 0
-282 -762 0
-283 -382 0
-284 -383 0
-285 -384 0
-283 -400 0
-284 -401 0
-285 -402 0
-283 -640 0
-284 -641 0
-285 -642 0
-283 -763 0
-284 -764 0
-285 -765 0
-286 -385 0
-287 -386 0
-288 -387 0
-286 -316 0
-287 -317 0
-288 -318 0
-286 -802 0
-287 -803 0
-288 -804 0
-286 -697 0
-287 -698 0
-288 -699 0
-286 -403 0
-287 -404 0
-288 -405 0
-289 -403 0
-290 -404 0
-291 -405 0
-289 -799 0
-290 -800 0
-291 -801 0
-292 -649 0
-293 -650 0
-294 -651 0
-292 -403 0
-293 -404 0
-294 -405 0
-292 -676 0
-293 -677 0
-294 -678 0
-292 -697 0
-293 -698 0
-294 -699 0
-295 -427 0
-296 -428 0
-297 -429 0
-295 -574 0
-296 -575 0
-297 -576 0
-295 -334 0
-296 -335 0
-297 -336 0
-295 -700 0
-296 -701 0
-297 -702 0
-298 -427 0
-299 -428 0
-300 -429 0
-298 -310 0
-299 -311 0
-300 -312 0
-298 -349 0
-299 -350 0
-300 -351 0
-301 -307 0
-302 -308 0
-303 -309 0
-301 -352 0
-302 -353 0
-303 -354 0
-304 -784 0
-305 -785 0
-306 -786 0
-304 -436 0
-305 -437 0
-306 -438 0
-307 -370 0
-308 -371 0
-309 -372 0
-310 -370 0
-311 -371 0
-312 -372 0
-310 -439 0
-311 -440 0
-312 -441 0
-310 -556 0
-311 -557 0
-312 -558 0
-313 -592 0
-314 -593 0
-315 -594 0
-313 -730 0
-314 -731 0
-315 -732 0
-313 -682 0
-314 -683 0
-315 -684 0
-316 -445 0
-317 -446 0
-318 -447 0
-319 -592 0
-320 -593 0
-321 -594 0
-319 -703 0
-320 -704 0
-321 -705 0
-319 -706 0
-320 -707 0
-321 -708 0
-319 -346 0
-320 -347 0
-321 -348 0
-319 -325 0
-320 -326 0
-321 -327 0
-322 -349 0
-323 -350 0
-324 -351 0
-322 -502 0
-323 -503 0
-324 -504 0
-322 -691 0
-323 -692 0
-324 -693 0
-322 -328 0
-323 -329 0
-324 -330 0
-322 -331 0
-323 -332 0
-324 -333 0
-322 -655 0
-323 -656 0
-324 -657 0
-322 -559 0
-323 -560 0
-324 -561 0
-325 -715 0
-326 -716 0
-327 -717 0
-325 -643 0
-326 -644 0
-327 -645 0
-325 -334 0
-326 -335 0
-327 -336 0
-325 -352 0
-326 -353 0
-327 -354 0
-328 -646 0
-329 -647 0
-330 -648 0
-328 -595 0
-329 -596 0
-330 -597 0
-328 -820 0
-329 -821 0
-330 -822 0
-331 -451 0
-332 -452 0
-333 -453 0
-331 -370 0
-332 -371 0
-333 -372 0
-334 -454 0
-335 -455 0
-336 -456 0
-334 -370 0
-335 -371 0
-336 -372 0
-337 -385 0
-338 -386 0
-339 -387 0
-337 -646 0
-338 -647 0
-339 -648 0
-337 -460 0
-338 -461 0
-339 -462 0
-340 -382 0
-341 -383 0
-342 -384 0
-340 -706 0
-341 -707 0
-342 -708 0
-343 -349 0
-344 -350 0
-345 -351 0
-343 -463 0
-344 -464 0
-345 -465 0
-343 -679 0
-344 -680 0
-345 -681 0
-346 -367 0
-347 -368 0
-348 -369 0
-346 -352 0
-347 -353 0
-348 -354 0
-349 -448 0
-350 -449 0
-351 -450 0
-349 -466 0
-350 -467 0
-351 -468 0
-349 -370 0
-350 -371 0
-351 -372 0
-349 -586 0
-350 -587 0
-351 -588 0
-352 -469 0
-353 -470 0
-354 -471 0
-352 -370 0
-353 -371 0
-354 -372 0
-355 -367 0
-356 -368 0
-357 -369 0
-355 -361 0
-356 -362 0
-357 -363 0
-355 -451 0
-356 -452 0
-357 -453 0
-358 -373 0
-359 -374 0
-360 -375 0
-358 -454 0
-359 -455 0
-360 -456 0
-361 -370 0
-362 -371 0
-363 -372 0
-361 -589 0
-362 -590 0
-363 -591 0
-364 -868 0
-365 -869 0
-366 -870 0
-364 -802 0
-365 -803 0
-366 -804 0
-364 -472 0
-365 -473 0
-366 -474 0
-367 -457 0
-368 -458 0
-369 -459 0
-367 -463 0
-368 -464 0
-369 -465 0
-367 -607 0
-368 -608 0
-369 -609 0
-367 -481 0
-368 -482 0
-369 -483 0
-367 -526 0
-368 -527 0
-369 -528 0
-367 -544 0
-368 -545 0
-369 -546 0
-367 -370 0
-368 -371 0
-369 -372 0
-367 -433 0
-368 -434 0
-369 -435 0
-367 -382 0
-368 -383 0
-369 -384 0
-370 -391 0
-371 -392 0
-372 -393 0
-370 -394 0
-371 -395 0
-372 -396 0
-370 -403 0
-371 -404 0
-372 -405 0
-370 -400 0
-371 -401 0
-372 -402 0
-370 -460 0
-371 -461 0
-372 -462 0
-370 -568 0
-371 -569 0
-372 -570 0
-370 -571 0
-371 -572 0
-372 -573 0
-370 -610 0
-371 -611 0
-372 -612 0
-370 -472 0
-371 -473 0
-372 -474 0
-370 -475 0
-371 -476 0
-372 -477 0
-370 -484 0
-371 -485 0
-372 -486 0
-370 -487 0
-371 -488 0
-372 -489 0
-370 -523 0
-371 -524 0
-372 -525 0
-370 -529 0
-371 -530 0
-372 -531 0
-370 -541 0
-371 -542 0
-372 -543 0
-370 -547 0
-371 -548 0
-372 -549 0
-370 -436 0
-371 -437 0
-372 -438 0
-370 -373 0
-371 -374 0
-372 -375 0
-370 -379 0
-371 -380 0
-372 -381 0
-370 -388 0
-371 -389 0
-372 -390 0
-370 -508 0
-371 -509 0
-372 -510 0
-370 -535 0
-371 -536 0
-372 -537 0
-370 -592 0
-371 -593 0
-372 -594 0
-370 -595 0
-371 -596 0
-372 -597 0
-370 -601 0
-371 -602 0
-372 -603 0
-373 -406 0
-374 -407 0
-375 -408 0
-373 -376 0
-374 -377 0
-375 -378 0
-373 -385 0
-374 -386 0
-375 -387 0
-373 -538 0
-374 -539 0
-375 -540 0
-376 -724 0
-377 -725 0
-378 -726 0
-376 -727 0
-377 -728 0
-378 -729 0
-379 -490 0
-380 -491 0
-381 -492 0
-379 -385 0
-380 -386 0
-381 -387 0
-379 -598 0
-380 -599 0
-381 -600 0
-382 -397 0
-383 -398 0
-384 -399 0
-382 -388 0
-383 -389 0
-384 -390 0
-382 -493 0
-383 -494 0
-384 -495 0
-382 -466 0
-383 -467 0
-384 -468 0
-385 -496 0
-386 -497 0
-387 -498 0
-385 -469 0
-386 -470 0
-387 -471 0
-388 -550 0
-389 -551 0
-390 -552 0
-391 -412 0
-392 -413 0
-393 -414 0
-391 -445 0
-392 -446 0
-393 -447 0
-394 -415 0
-395 -416 0
-396 -417 0
-394 -418 0
-395 -419 0
-396 -420 0
-397 -649 0
-398 -650 0
-399 -651 0
-397 -853 0
-398 -854 0
-399 -855 0
-397 -475 0
-398 -476 0
-399 -477 0
-400 -604 0
-401 -605 0
-402 -606 0
-400 -406 0
-401 -407 0
-402 -408 0
-400 -412 0
-401 -413 0
-402 -414 0
-400 -415 0
-401 -416 0
-402 -417 0
-400 -577 0
-401 -578 0
-402 -579 0
-400 -493 0
-401 -494 0
-402 -495 0
-403 -418 0
-404 -419 0
-405 -420 0
-403 -580 0
-404 -581 0
-405 -582 0
-403 -496 0
-404 -497 0
-405 -498 0
-406 -421 0
-407 -422 0
-408 -423 0
-409 -418 0
-410 -419 0
-411 -420 0
-409 -649 0
-410 -650 0
-411 -651 0
-412 -688 0
-413 -689 0
-414 -690 0
-412 -421 0
-413 -422 0
-414 -423 0
-412 -607 0
-413 -608 0
-414 -609 0
-415 -859 0
-416 -860 0
-417 -861 0
-415 -853 0
-416 -854 0
-417 -855 0
-418 -712 0
-419 -713 0
-420 -714 0
-418 -613 0
-419 -614 0
-420 -615 0
-418 -766 0
-419 -767 0
-420 -768 0
-424 -769 0
-425 -770 0
-426 -771 0
-424 -592 0
-425 -593 0
-426 -594 0
-424 -754 0
-425 -755 0
-426 -756 0
-427 -610 0
-428 -611 0
-429 -612 0
-427 -442 0
-428 -443 0
-429 -444 0
-427 -454 0
-428 -455 0
-429 -456 0
-427 -466 0
-428 -467 0
-429 -468 0
-430 -610 0
-431 -611 0
-432 -612 0
-430 -667 0
-431 -668 0
-432 -669 0
-430 -673 0
-431 -674 0
-432 -675 0
-433 -757 0
-434 -758 0
-435 -759 0
-433 -847 0
-434 -848 0
-435 -849 0
-433 -436 0
-434 -437 0
-435 -438 0
-433 -793 0
-434 -794 0
-435 -795 0
-436 -478 0
-437 -479 0
-438 -480 0
-436 -619 0
-437 -620 0
-438 -621 0
-439 -484 0
-440 -485 0
-441 -486 0
-439 -856 0
-440 -857 0
-441 -858 0
-442 -484 0
-443 -485 0
-444 -486 0
-442 -856 0
-443 -857 0
-444 -858 0
-445 -802 0
-446 -803 0
-447 -804 0
-448 -460 0
-449 -461 0
-450 -462 0
-448 -646 0
-449 -647 0
-450 -648 0
-448 -679 0
-449 -680 0
-450 -681 0
-451 -616 0
-452 -617 0
-453 -618 0
-451 -457 0
-452 -458 0
-453 -459 0
-451 -487 0
-452 -488 0
-453 -489 0
-451 -709 0
-452 -710 0
-453 -711 0
-454 -619 0
-455 -620 0
-456 -621 0
-454 -484 0
-455 -485 0
-456 -486 0
-457 -511 0
-458 -512 0
-459 -513 0
-457 -460 0
-458 -461 0
-459 -462 0
-457 -637 0
-458 -638 0
-459 -639 0
-460 -514 0
-461 -515 0
-462 -516 0
-460 -496 0
-461 -497 0
-462 -498 0
-463 -511 0
-464 -512 0
-465 -513 0
-463 -466 0
-464 -467 0
-465 -468 0
-466 -622 0
-467 -623 0
-468 -624 0
-466 -475 0
-467 -476 0
-468 -477 0
-466 -796 0
-467 -797 0
-468 -798 0
-469 -661 0
-470 -662 0
-471 -663 0
-469 -472 0
-470 -473 0
-471 -474 0
-472 -562 0
-473 -563 0
-474 -564 0
-472 -517 0
-473 -518 0
-474 -519 0
-472 -490 0
-473 -491 0
-474 -492 0
-472 -499 0
-473 -500 0
-474 -501 0
-475 -520 0
-476 -521 0
-477 -522 0
-478 -631 0
-479 -632 0
-480 -633 0
-478 -757 0
-479 -758 0
-480 -759 0
-478 -760 0
-479 -761 0
-480 -762 0
-481 -484 0
-482 -485 0
-483 -486 0
-481 -493 0
-482 -494 0
-483 -495 0
-484 -517 0
-485 -518 0
-486 -519 0
-487 -565 0
-488 -566 0
-489 -567 0
-487 -520 0
-488 -521 0
-489 -522 0
-487 -625 0
-488 -626 0
-489 -627 0
-490 -871 0
-491 -872 0
-492 -873 0
-493 -853 0
-494 -854 0
-495 -855 0
-496 -799 0
-497 -800 0
-498 -801 0
-499 -868 0
-500 -869 0
-501 -870 0
-499 -871 0
-500 -872 0
-501 -873 0
-502 -610 0
-503 -611 0
-504 -612 0
-502 -727 0
-503 -728 0
-504 -729 0
-502 -820 0
-503 -821 0
-504 -822 0
-505 -547 0
-506 -548 0
-507 -549 0
-505 -850 0
-506 -851 0
-507 -852 0
-505 -745 0
-506 -746 0
-507 -747 0
-508 -613 0
-509 -614 0
-510 -615 0
-508 -553 0
-509 -554 0
-510 -555 0
-511 -679 0
-512 -680 0
-513 -681 0
-511 -592 0
-512 -593 0
-513 -594 0
-511 -709 0
-512 -710 0
-513 -711 0
-511 -730 0
-512 -731 0
-513 -732 0
-511 -514 0
-512 -515 0
-513 -516 0
-514 -631 0
-515 -632 0
-516 -633 0
-517 -691 0
-518 -692 0
-519 -693 0
-517 -835 0
-518 -836 0
-519 -837 0
-517 -559 0
-518 -560 0
-519 -561 0
-520 -643 0
-521 -644 0
-522 -645 0
-520 -688 0
-521 -689 0
-522 -690 0
-520 -607 0
-521 -608 0
-522 -609 0
-523 -553 0
-524 -554 0
-525 -555 0
-526 -529 0
-527 -530 0
-528 -531 0
-526 -742 0
-527 -743 0
-528 -744 0
-526 -733 0
-527 -734 0
-528 -735 0
-529 -583 0
-530 -584 0
-531 -585 0
-529 -631 0
-530 -632 0
-531 -633 0
-532 -610 0
-533 -611 0
-534 -612 0
-532 -652 0
-533 -653 0
-534 -654 0
-532 -829 0
-533 -830 0
-534 -831 0
-532 -787 0
-533 -788 0
-534 -789 0
-532 -838 0
-533 -839 0
-534 -840 0
-532 -823 0
-533 -824 0
-534 -825 0
-535 -583 0
-536 -584 0
-537 -585 0
-535 -538 0
-536 -539 0
-537 -540 0
-538 -748 0
-539 -749 0
-540 -750 0
-538 -760 0
-539 -761 0
-540 -762 0
-538 -745 0
-539 -746 0
-540 -747 0
-541 -562 0
-542 -563 0
-543 -564 0
-541 -550 0
-542 -551 0
-543 -552 0
-544 -547 0
-545 -548 0
-546 -549 0
-544 -823 0
-545 -824 0
-546 -825 0
-547 -634 0
-548 -635 0
-549 -636 0
-547 -565 0
-548 -566 0
-549 -567 0
-550 -658 0
-551 -659 0
-552 -660 0
-553 -574 0
-554 -575 0
-555 -576 0
-553 -700 0
-554 -701 0
-555 -702 0
-556 -616 0
-557 -617 0
-558 -618 0
-556 -571 0
-557 -572 0
-558 -573 0
-556 -811 0
-557 -812 0
-558 -813 0
-559 -610 0
-560 -611 0
-561 -612 0
-562 -814 0
-563 -815 0
-564 -816 0
-562 -661 0
-563 -662 0
-564 -663 0
-565 -814 0
-566 -815 0
-567 -816 0
-565 -676 0
-566 -677 0
-567 -678 0
-568 -577 0
-569 -578 0
-570 -579 0
-568 -613 0
-569 -614 0
-570 -615 0
-568 -631 0
-569 -632 0
-570 -633 0
-571 -580 0
-572 -581 0
-573 -582 0
-574 -610 0
-575 -611 0
-576 -612 0
-577 -832 0
-578 -833 0
-579 -834 0
-577 -763 0
-578 -764 0
-579 -765 0
-580 -808 0
-581 -809 0
-582 -810 0
-580 -811 0
-581 -812 0
-582 -813 0
-583 -829 0
-584 -830 0
-585 -831 0
-583 -823 0
-584 -824 0
-585 -825 0
-586 -622 0
-587 -623 0
-588 -624 0
-586 -601 0
-587 -602 0
-588 -603 0
-589 -592 0
-590 -593 0
-591 -594 0
-589 -709 0
-590 -710 0
-591 -711 0
-589 -703 0
-590 -704 0
-591 -705 0
-595 -598 0
-596 -599 0
-597 -600 0
-598 -661 0
-599 -662 0
-600 -663 0
-598 -646 0
-599 -647 0
-600 -648 0
-601 -604 0
-602 -605 0
-603 -606 0
-604 -859 0
-605 -860 0
-606 -861 0
-607 -682 0
-608 -683 0
-609 -684 0
-610 -634 0
-611 -635 0
-612 -636 0
-610 -616 0
-611 -617 0
-612 -618 0
-610 -619 0
-611 -620 0
-612 -621 0
-610 -622 0
-611 -623 0
-612 -624 0
-610 -628 0
-611 -629 0
-612 -630 0
-613 -805 0
-614 -806 0
-615 -807 0
-616 -625 0
-617 -626 0
-618 -627 0
-619 -631 0
-620 -632 0
-621 -633 0
-625 -811 0
-626 -812 0
-627 -813 0
-628 -865 0
-629 -866 0
-630 -867 0
-628 -838 0
-629 -839 0
-630 -840 0
-628 -667 0
-629 -668 0
-630 -669 0
-634 -727 0
-635 -728 0
-636 -729 0
-637 -730 0
-638 -731 0
-639 -732 0
-637 -718 0
-638 -719 0
-639 -720 0
-643 -670 0
-644 -671 0
-645 -672 0
-643 -739 0
-644 -740 0
-645 -741 0
-643 -682 0
-644 -683 0
-645 -684 0
-646 -841 0
-647 -842 0
-648 -843 0
-646 -817 0
-647 -818 0
-648 -819 0
-649 -781 0
-650 -782 0
-651 -783 0
-652 -667 0
-653 -668 0
-654 -669 0
-655 -778 0
-656 -779 0
-657 -780 0
-655 -694 0
-656 -695 0
-657 -696 0
-655 -727 0
-656 -728 0
-657 -729 0
-655 -685 0
-656 -686 0
-657 -687 0
-658 -841 0
-659 -842 0
-660 -843 0
-664 -766 0
-665 -767 0
-666 -768 0
-667 -826 0
-668 -827 0
-669 -828 0
-670 -688 0
-671 -689 0
-672 -690 0
-673 -688 0
-674 -689 0
-675 -690 0
-676 -781 0
-677 -782 0
-678 -783 0
-679 -817 0
-680 -818 0
-681 -819 0
-682 -715 0
-683 -716 0
-684 -717 0
-685 -691 0
-686 -692 0
-687 -693 0
-688 -781 0
-689 -782 0
-690 -783 0
-688 -724 0
-689 -725 0
-690 -726 0
-691 -721 0
-692 -722 0
-693 -723 0
-694 -736 0
-695 -737 0
-696 -738 0
-700 -739 0
-701 -740 0
-702 -741 0
-703 -778 0
-704 -779 0
-705 -780 0
-706 -778 0
-707 -779 0
-708 -780 0
-712 -823 0
-713 -824 0
-714 -825 0
-715 -841 0
-716 -842 0
-717 -843 0
-715 -742 0
-716 -743 0
-717 -744 0
-715 -817 0
-716 -818 0
-717 -819 0
-718 -733 0
-719 -734 0
-720 -735 0
-730 -757 0
-731 -758 0
-732 -759 0
-733 -757 0
-734 -758 0
-735 -759 0
-733 -847 0
-734 -848 0
-735 -849 0
-739 -772 0
-740 -773 0
-741 -774 0
-739 -751 0
-740 -752 0
-741 -753 0
-754 -757 0
-755 -758 0
-756 -759 0
-754 -793 0
-755 -794 0
-756 -795 0
-766 -787 0
-767 -788 0
-768 -789 0
-769 -835 0
-770 -836 0
-771 -837 0
-775 -841 0
-776 -842 0
-777 -843 0
-790 -844 0
-791 -845 0
-792 -846 0
-799 -844 0
-800 -845 0
-801 -846 0
-805 -835 0
-806 -836 0
-807 -837 0
-808 -862 0
-809 -863 0
-810 -864 0
-814 -859 0
-815 -860 0
-816 -861 0
-826 -838 0
-827 -839 0
-828 -840 0
-829 -850 0
-830 -851 0
-831 -852 0
-832 -868 0
-833 -869 0
-834 -870 0
-832 -871 0
-833 -872 0
-834 -873 0
-838 -850 0
-839 -851 0
-840 -852 0
-853 -865 0
-854 -866 0
-855 -867 0
-856 -862 0
-857 -863 0
-858 -864 0
-859 -865 0
-860 -866 0
-861 -867 0
1 0
770 0
