p cnf 1182 3447
1 2 3 0
4 5 6 0
7 8 9 0
10 11 12 0
13 14 15 0
16 17 18 0
19 20 21 0
22 23 24 0
25 26 27 0
28 29 30 0
31 32 33 0
34 35 36 0
37 38 39 0
40 41 42 0
43 44 45 0
46 47 48 0
49 50 51 0
52 53 54 0
55 56 57 0
58 59 60 0
61 62 63 0
64 65 66 0
67 68 69 0
70 71 72 0
73 74 75 0
76 77 78 0
79 80 81 0
82 83 84 0
85 86 87 0
88 89 90 0
91 92 93 0
94 95 96 0
97 98 99 0
100 101 102 0
103 104 105 0
106 107 108 0
109 110 111 0
112 113 114 0
115 116 117 0
118 119 120 0
121 122 123 0
124 125 126 0
127 128 129 0
130 131 132 0
133 134 135 0
136 137 138 0
139 140 141 0
142 143 144 0
145 146 147 0
148 149 150 0
151 152 153 0
154 155 156 0
157 158 159 0
160 161 162 0
163 164 165 0
166 167 168 0
169 170 171 0
172 173 174 0
175 176 177 0
178 179 180 0
181 182 183 0
184 185 186 0
187 188 189 0
190 191 192 0
193 194 195 0
196 197 198 0
199 200 201 0
202 203 204 0
205 206 207 0
208 209 210 0
211 212 213 0
214 215 216 0
217 218 219 0
220 221 222 0
223 224 225 0
226 227 228 0
229 230 231 0
232 233 234 0
235 236 237 0
238 239 240 0
241 242 243 0
244 245 246 0
247 248 249 0
250 251 252 0
253 254 255 0
256 257 258 0
259 260 261 0
262 263 264 0
265 266 267 0
268 269 270 0
271 272 273 0
274 275 276 0
277 278 279 0
280 281 282 0
283 284 285 0
286 287 288 0
289 290 291 0
292 293 294 0
295 296 297 0
298 299 300 0
301 302 303 0
304 305 306 0
307 308 309 0
310 311 312 0
313 314 315 0
316 317 318 0
319 320 321 0
322 323 324 0
325 326 327 0
328 329 330 0
331 332 333 0
334 335 336 0
337 338 339 0
340 341 342 0
343 344 345 0
346 347 348 0
349 350 351 0
352 353 354 0
355 356 357 0
358 359 360 0
361 362 363 0
364 365 366 0
367 368 369 0
370 371 372 0
373 374 375 0
376 377 378 0
379 380 381 0
382 383 384 0
385 386 387 0
388 389 390 0
391 392 393 0
394 395 396 0
397 398 399 0
400 401 402 0
403 404 405 0
406 407 408 0
409 410 411 0
412 413 414 0
415 416 417 0
418 419 420 0
421 422 423 0
424 425 426 0
427 428 429 0
430 431 432 0
433 434 435 0
436 437 438 0
439 440 441 0
442 443 444 0
445 446 447 0
448 449 450 0
451 452 453 0
454 455 456 0
457 458 459 0
460 461 462 0
463 464 465 0
466 467 468 0
469 470 471 0
472 473 474 0
475 476 477 0
478 479 480 0
481 482 483 0
484 485 486 0
487 488 489 0
490 491 492 0
493 494 495 0
496 497 498 0
499 500 501 0
502 503 504 0
505 506 507 0
508 509 510 0
511 512 513 0
514 515 516 0
517 518 519 0
520 521 522 0
523 524 525 0
526 527 528 0
529 530 531 0
532 533 534 0
535 536 537 0
538 539 540 0
541 542 543 0
544 545 546 0
547 548 549 0
550 551 552 0
553 554 555 0
556 557 558 0
559 560 561 0
562 563 564 0
565 566 567 0
568 569 570 0
571 572 573 0
574 575 576 0
577 578 579 0
580 581 582 0
583 584 585 0
586 587 588 0
589 590 591 0
592 593 594 0
595 596 597 0
598 599 600 0
601 602 603 0
604 605 606 0
607 608 609 0
610 611 612 0
613 614 615 0
616 617 618 0
619 620 621 0
622 623 624 0
625 626 627 0
628 629 630 0
631 632 633 0
634 635 636 0
637 638 639 0
640 641 642 0
643 644 645 0
646 647 648 0
649 650 651 0
652 653 654 0
655 656 657 0
658 659 660 0
661 662 663 0
664 665 666 0
667 668 669 0
670 671 672 0
673 674 675 0
676 677 678 0
679 680 681 0
682 683 684 0
685 686 687 0
688 689 690 0
691 692 693 0
694 695 696 0
697 698 699 0
700 701 702 0
703 704 705 0
706 707 708 0
709 710 711 0
712 713 714 0
715 716 717 0
718 719 720 0
721 722 723 0
724 725 726 0
727 728 729 0
730 731 732 0
733 734 735 0
736 737 738 0
739 740 741 0
742 743 744 0
745 746 747 0
748 749 750 0
751 752 753 0
754 755 756 0
757 758 759 0
760 761 762 0
763 764 765 0
766 767 768 0
769 770 771 0
772 773 774 0
775 776 777 0
778 779 780 0
781 782 783 0
784 785 786 0
787 788 789 0
790 791 792 0
793 794 795 0
796 797 798 0
799 800 801 0
802 803 804 0
805 806 807 0
808 809 810 0
811 812 813 0
814 815 816 0
817 818 819 0
820 821 822 0
823 824 825 0
826 827 828 0
829 830 831 0
832 833 834 0
835 836 837 0
838 839 840 0
841 842 843 0
844 845 846 0
847 848 849 0
850 851 852 0
853 854 855 0
856 857 858 0
859 860 861 0
862 863 864 0
865 866 867 0
868 869 870 0
871 872 873 0
874 875 876 0
877 878 879 0
880 881 882 0
883 884 885 0
886 887 888 0
889 890 891 0
892 893 894 0
895 896 897 0
898 899 900 0
901 902 903 0
904 905 906 0
907 908 909 0
910 911 912 0
913 914 915 0
916 917 918 0
919 920 921 0
922 923 924 0
925 926 927 0
928 929 930 0
931 932 933 0
934 935 936 0
937 938 939 0
940 941 942 0
943 944 945 0
946 947 948 0
949 950 951 0
952 953 954 0
955 956 957 0
958 959 960 0
961 962 963 0
964 965 966 0
967 968 969 0
970 971 972 0
973 974 975 0
976 977 978 0
979 980 981 0
982 983 984 0
985 986 987 0
988 989 990 0
991 992 993 0
994 995 996 0
997 998 999 0
1000 1001 1002 0
1003 1004 1005 0
1006 1007 1008 0
1009 1010 1011 0
1012 1013 1014 0
1015 1016 1017 0
1018 1019 1020 0
1021 1022 1023 0
1024 1025 1026 0
1027 1028 1029 0
1030 1031 1032 0
1033 1034 1035 0
1036 1037 1038 0
1039 1040 1041 0
1042 1043 1044 0
1045 1046 1047 0
1048 1049 1050 0
1051 1052 1053 0
1054 1055 1056 0
1057 1058 1059 0
1060 1061 1062 0
1063 1064 1065 0
1066 1067 1068 0
1069 1070 1071 0
1072 1073 1074 0
1075 1076 1077 0
1078 1079 1080 0
1081 1082 1083 0
1084 1085 1086 0
1087 1088 1089 0
1090 1091 1092 0
1093 1094 1095 0
1096 1097 1098 0
1099 1100 1101 0
1102 1103 1104 0
1105 1106 1107 0
1108 1109 1110 0
1111 1112 1113 0
1114 1115 1116 0
1117 1118 1119 0
1120 1121 1122 0
1123 1124 1125 0
1126 1127 1128 0
1129 1130 1131 0
1132 1133 1134 0
1135 1136 1137 0
1138 1139 1140 0
1141 1142 1143 0
1144 1145 1146 0
1147 1148 1149 0
1150 1151 1152 0
1153 1154 1155 0
1156 1157 1158 0
1159 1160 1161 0
1162 1163 1164 0
1165 1166 1167 0
1168 1169 1170 0
1171 1172 1173 0
1174 1175 1176 0
1177 1178 1179 0
1180 1181 1182 0
-1 -1087 0
-2 -1088 0
-3 -1089 0
-1 -106 0
-2 -107 0
-3 -108 0
-1 -82 0
-2 -83 0
-3 -84 0
-4 -208 0
-5 -209 0
-6 -210 0
-4 -940 0
-5 -941 0
-6 -942 0
-4 -76 0
-5 -77 0
-6 -78 0
-4 -1111 0
-5 -1112 0
-6 -1113 0
-7 -211 0
-8 -212 0
-9 -213 0
-7 -1093 0
-8 -1094 0
-9 -1095 0
-7 -742 0
-8 -743 0
-9 -744 0
-7 -82 0
-8 -83 0
-9 -84 0
-7 -922 0
-8 -923 0
-9 -924 0
-10 -304 0
-11 -305 0
-12 -306 0
-10 -25 0
-11 -26 0
-12 -27 0
-10 -928 0
-11 -929 0
-12 -930 0
-13 -73 0
-14 -74 0
-15 -75 0
-13 -1180 0
-14 -1181 0
-15 -1182 0
-13 -280 0
-14 -281 0
-15 -282 0
-16 -832 0
-17 -833 0
-18 -834 0
-16 -61 0
-17 -62 0
-18 -63 0
-16 -76 0
-17 -77 0
-18 -78 0
-16 -52 0
-17 -53 0
-18 -54 0
-16 -34 0
-17 -35 0
-18 -36 0
-16 -184 0
-17 -185 0
-18 -186 0
-16 -283 0
-17 -284 0
-18 -285 0
-16 -826 0
-17 -827 0
-18 -828 0
-19 -73 0
-20 -74 0
-21 -75 0
-19 -49 0
-20 -50 0
-21 -51 0
-19 -187 0
-20 -188 0
-21 -189 0
-19 -31 0
-20 -32 0
-21 -33 0
-19 -1153 0
-20 -1154 0
-21 -1155 0
-19 -286 0
-20 -287 0
-21 -288 0
-19 -961 0
-20 -962 0
-21 -963 0
-19 -829 0
-20 -830 0
-21 -831 0
-22 -286 0
-23 -287 0
-24 -288 0
-22 -76 0
-23 -77 0
-24 -78 0
-22 -1015 0
-23 -1016 0
-24 -1017 0
-25 -424 0
-26 -425 0
-27 -426 0
-25 -37 0
-26 -38 0
-27 -39 0
-25 -55 0
-26 -56 0
-27 -57 0
-25 -151 0
-26 -152 0
-27 -153 0
-28 -73 0
-29 -74 0
-30 -75 0
-28 -319 0
-29 -320 0
-30 -321 0
-28 -862 0
-29 -863 0
-30 -864 0
-28 -1153 0
-29 -1154 0
-30 -1155 0
-28 -1033 0
-29 -1034 0
-30 -1035 0
-31 -67 0
-32 -68 0
-33 -69 0
-31 -850 0
-32 -851 0
-33 -852 0
-31 -346 0
-32 -347 0
-33 -348 0
-31 -751 0
-32 -752 0
-33 -753 0
-31 -85 0
-32 -86 0
-33 -87 0
-31 -298 0
-32 -299 0
-33 -300 0
-34 -964 0
-35 -965 0
-36 -966 0
-34 -292 0
-35 -293 0
-36 -294 0
-34 -304 0
-35 -305 0
-36 -306 0
-34 -79 0
-35 -80 0
-36 -81 0
-34 -82 0
-35 -83 0
-36 -84 0
-34 -754 0
-35 -755 0
-36 -756 0
-37 -163 0
-38 -164 0
-39 -165 0
-37 -745 0
-38 -746 0
-39 -747 0
-37 -457 0
-38 -458 0
-39 -459 0
-37 -970 0
-38 -971 0
-39 -972 0
-40 -208 0
-41 -209 0
-42 -210 0
-40 -139 0
-41 -140 0
-42 -141 0
-40 -1111 0
-41 -1112 0
-42 -1113 0
-43 -835 0
-44 -836 0
-45 -837 0
-43 -160 0
-44 -161 0
-45 -162 0
-43 -847 0
-44 -848 0
-45 -849 0
-43 -274 0
-44 -275 0
-45 -276 0
-43 -64 0
-44 -65 0
-45 -66 0
-43 -166 0
-44 -167 0
-45 -168 0
-43 -103 0
-44 -104 0
-45 -105 0
-43 -46 0
-44 -47 0
-45 -48 0
-43 -820 0
-44 -821 0
-45 -822 0
-43 -109 0
-44 -110 0
-45 -111 0
-46 -949 0
-47 -950 0
-48 -951 0
-46 -163 0
-47 -164 0
-48 -165 0
-46 -277 0
-47 -278 0
-48 -279 0
-46 -280 0
-47 -281 0
-48 -282 0
-46 -748 0
-47 -749 0
-48 -750 0
-46 -106 0
-47 -107 0
-48 -108 0
-46 -112 0
-47 -113 0
-48 -114 0
-49 -208 0
-50 -209 0
-51 -210 0
-49 -757 0
-50 -758 0
-51 -759 0
-49 -142 0
-50 -143 0
-51 -144 0
-49 -1012 0
-50 -1013 0
-51 -1014 0
-49 -376 0
-50 -377 0
-51 -378 0
-49 -1117 0
-50 -1118 0
-51 -1119 0
-52 -964 0
-53 -965 0
-54 -966 0
-52 -211 0
-53 -212 0
-54 -213 0
-52 -379 0
-53 -380 0
-54 -381 0
-52 -760 0
-53 -761 0
-54 -762 0
-55 -892 0
-56 -893 0
-57 -894 0
-55 -493 0
-56 -494 0
-57 -495 0
-55 -895 0
-56 -896 0
-57 -897 0
-58 -1087 0
-59 -1088 0
-60 -1089 0
-58 -1009 0
-59 -1010 0
-60 -1011 0
-58 -331 0
-59 -332 0
-60 -333 0
-58 -82 0
-59 -83 0
-60 -84 0
-58 -922 0
-59 -923 0
-60 -924 0
-58 -1090 0
-59 -1091 0
-60 -1092 0
-58 -1060 0
-59 -1061 0
-60 -1062 0
-61 -1009 0
-62 -1010 0
-63 -1011 0
-61 -340 0
-62 -341 0
-63 -342 0
-61 -394 0
-62 -395 0
-63 -396 0
-61 -82 0
-62 -83 0
-63 -84 0
-64 -796 0
-65 -797 0
-66 -798 0
-64 -193 0
-65 -194 0
-66 -195 0
-64 -739 0
-65 -740 0
-66 -741 0
-64 -310 0
-65 -311 0
-66 -312 0
-64 -178 0
-65 -179 0
-66 -180 0
-64 -1045 0
-65 -1046 0
-66 -1047 0
-67 -955 0
-68 -956 0
-69 -957 0
-67 -355 0
-68 -356 0
-69 -357 0
-67 -334 0
-68 -335 0
-69 -336 0
-67 -91 0
-68 -92 0
-69 -93 0
-67 -961 0
-68 -962 0
-69 -963 0
-67 -991 0
-68 -992 0
-69 -993 0
-70 -85 0
-71 -86 0
-72 -87 0
-70 -1162 0
-71 -1163 0
-72 -1164 0
-70 -358 0
-71 -359 0
-72 -360 0
-73 -370 0
-74 -371 0
-75 -372 0
-73 -424 0
-74 -425 0
-75 -426 0
-73 -148 0
-74 -149 0
-75 -150 0
-76 -424 0
-77 -425 0
-78 -426 0
-76 -373 0
-77 -374 0
-78 -375 0
-76 -229 0
-77 -230 0
-78 -231 0
-76 -343 0
-77 -344 0
-78 -345 0
-76 -145 0
-77 -146 0
-78 -147 0
-79 -115 0
-80 -116 0
-81 -117 0
-79 -358 0
-80 -359 0
-81 -360 0
-79 -88 0
-80 -89 0
-81 -90 0
-79 -1078 0
-80 -1079 0
-81 -1080 0
-82 -367 0
-83 -368 0
-84 -369 0
-82 -469 0
-83 -470 0
-84 -471 0
-82 -424 0
-83 -425 0
-84 -426 0
-82 -115 0
-83 -116 0
-84 -117 0
-82 -403 0
-83 -404 0
-84 -405 0
-82 -100 0
-83 -101 0
-84 -102 0
-85 -424 0
-86 -425 0
-87 -426 0
-85 -472 0
-86 -473 0
-87 -474 0
-88 -424 0
-89 -425 0
-90 -426 0
-88 -445 0
-89 -446 0
-90 -447 0
-88 -124 0
-89 -125 0
-90 -126 0
-88 -130 0
-89 -131 0
-90 -132 0
-91 -424 0
-92 -425 0
-93 -426 0
-91 -133 0
-92 -134 0
-93 -135 0
-91 -442 0
-92 -443 0
-93 -444 0
-91 -121 0
-92 -122 0
-93 -123 0
-94 -1087 0
-95 -1088 0
-96 -1089 0
-94 -208 0
-95 -209 0
-96 -210 0
-94 -175 0
-95 -176 0
-96 -177 0
-94 -1060 0
-95 -1061 0
-96 -1062 0
-97 -208 0
-98 -209 0
-99 -210 0
-97 -178 0
-98 -179 0
-99 -180 0
-97 -1174 0
-98 -1175 0
-99 -1176 0
-97 -1171 0
-98 -1172 0
-99 -1173 0
-100 -457 0
-101 -458 0
-102 -459 0
-100 -973 0
-101 -974 0
-102 -975 0
-100 -1018 0
-101 -1019 0
-102 -1020 0
-100 -946 0
-101 -947 0
-102 -948 0
-103 -421 0
-104 -422 0
-105 -423 0
-103 -1108 0
-104 -1109 0
-105 -1110 0
-103 -415 0
-104 -416 0
-105 -417 0
-103 -1027 0
-104 -1028 0
-105 -1029 0
-103 -760 0
-104 -761 0
-105 -762 0
-103 -106 0
-104 -107 0
-105 -108 0
-106 -424 0
-107 -425 0
-108 -426 0
-106 -568 0
-107 -569 0
-108 -570 0
-106 -220 0
-107 -221 0
-108 -222 0
-106 -226 0
-107 -227 0
-108 -228 0
-106 -118 0
-107 -119 0
-108 -120 0
-106 -127 0
-107 -128 0
-108 -129 0
-106 -214 0
-107 -215 0
-108 -216 0
-106 -217 0
-107 -218 0
-108 -219 0
-106 -418 0
-107 -419 0
-108 -420 0
-109 -424 0
-110 -425 0
-111 -426 0
-109 -223 0
-110 -224 0
-111 -225 0
-109 -430 0
-110 -431 0
-111 -432 0
-109 -112 0
-110 -113 0
-111 -114 0
-112 -1054 0
-113 -1055 0
-114 -1056 0
-112 -757 0
-113 -758 0
-114 -759 0
-112 -427 0
-113 -428 0
-114 -429 0
-112 -433 0
-113 -434 0
-114 -435 0
-115 -130 0
-116 -131 0
-117 -132 0
-115 -802 0
-116 -803 0
-117 -804 0
-115 -877 0
-116 -878 0
-117 -879 0
-115 -973 0
-116 -974 0
-117 -975 0
-115 -499 0
-116 -500 0
-117 -501 0
-118 -454 0
-119 -455 0
-120 -456 0
-118 -244 0
-119 -245 0
-120 -246 0
-118 -1108 0
-119 -1109 0
-120 -1110 0
-121 -508 0
-122 -509 0
-123 -510 0
-121 -955 0
-122 -956 0
-123 -957 0
-121 -751 0
-122 -752 0
-123 -753 0
-124 -889 0
-125 -890 0
-126 -891 0
-124 -754 0
-125 -755 0
-126 -756 0
-124 -742 0
-125 -743 0
-126 -744 0
-124 -511 0
-125 -512 0
-126 -513 0
-124 -1078 0
-125 -1079 0
-126 -1080 0
-124 -1030 0
-125 -1031 0
-126 -1032 0
-127 -1072 0
-128 -1073 0
-129 -1074 0
-127 -790 0
-128 -791 0
-129 -792 0
-127 -499 0
-128 -500 0
-129 -501 0
-130 -526 0
-131 -527 0
-132 -528 0
-130 -535 0
-131 -536 0
-132 -537 0
-130 -742 0
-131 -743 0
-132 -744 0
-133 -544 0
-134 -545 0
-135 -546 0
-133 -1000 0
-134 -1001 0
-135 -1002 0
-136 -967 0
-137 -968 0
-138 -969 0
-136 -280 0
-137 -281 0
-138 -282 0
-136 -970 0
-137 -971 0
-138 -972 0
-136 -178 0
-137 -179 0
-138 -180 0
-136 -1135 0
-137 -1136 0
-138 -1137 0
-136 -844 0
-137 -845 0
-138 -846 0
-139 -424 0
-140 -425 0
-141 -426 0
-139 -232 0
-140 -233 0
-141 -234 0
-142 -424 0
-143 -425 0
-144 -426 0
-142 -169 0
-143 -170 0
-144 -171 0
-142 -196 0
-143 -197 0
-144 -198 0
-142 -154 0
-143 -155 0
-144 -156 0
-145 -1129 0
-146 -1130 0
-147 -1131 0
-145 -604 0
-146 -605 0
-147 -606 0
-145 -199 0
-146 -200 0
-147 -201 0
-145 -463 0
-146 -464 0
-147 -465 0
-145 -883 0
-146 -884 0
-147 -885 0
-145 -1015 0
-146 -1016 0
-147 -1017 0
-145 -1084 0
-146 -1085 0
-147 -1086 0
-148 -196 0
-149 -197 0
-150 -198 0
-148 -1036 0
-149 -1037 0
-150 -1038 0
-148 -607 0
-149 -608 0
-150 -609 0
-148 -466 0
-149 -467 0
-150 -468 0
-148 -1165 0
-149 -1166 0
-150 -1167 0
-151 -163 0
-152 -164 0
-153 -165 0
-151 -928 0
-152 -929 0
-153 -930 0
-151 -337 0
-152 -338 0
-153 -339 0
-151 -634 0
-152 -635 0
-153 -636 0
-151 -895 0
-152 -896 0
-153 -897 0
-154 -1132 0
-155 -1133 0
-156 -1134 0
-154 -481 0
-155 -482 0
-156 -483 0
-154 -1117 0
-155 -1118 0
-156 -1119 0
-154 -829 0
-155 -830 0
-156 -831 0
-157 -904 0
-158 -905 0
-159 -906 0
-157 -979 0
-158 -980 0
-159 -981 0
-157 -193 0
-158 -194 0
-159 -195 0
-157 -340 0
-158 -341 0
-159 -342 0
-157 -739 0
-158 -740 0
-159 -741 0
-160 -967 0
-161 -968 0
-162 -969 0
-160 -748 0
-161 -749 0
-162 -750 0
-160 -178 0
-161 -179 0
-162 -180 0
-160 -382 0
-161 -383 0
-162 -384 0
-160 -952 0
-161 -953 0
-162 -954 0
-163 -640 0
-164 -641 0
-165 -642 0
-163 -580 0
-164 -581 0
-165 -582 0
-163 -1054 0
-164 -1055 0
-165 -1056 0
-163 -217 0
-164 -218 0
-165 -219 0
-163 -175 0
-164 -176 0
-165 -177 0
-163 -385 0
-164 -386 0
-165 -387 0
-163 -820 0
-164 -821 0
-165 -822 0
-163 -823 0
-164 -824 0
-165 -825 0
-166 -193 0
-167 -194 0
-168 -195 0
-166 -382 0
-167 -383 0
-168 -384 0
-166 -805 0
-167 -806 0
-168 -807 0
-166 -223 0
-167 -224 0
-168 -225 0
-166 -919 0
-167 -920 0
-168 -921 0
-169 -529 0
-170 -530 0
-171 -531 0
-169 -931 0
-170 -932 0
-171 -933 0
-169 -841 0
-170 -842 0
-171 -843 0
-172 -886 0
-173 -887 0
-174 -888 0
-172 -175 0
-173 -176 0
-174 -177 0
-172 -421 0
-173 -422 0
-174 -423 0
-172 -820 0
-173 -821 0
-174 -822 0
-175 -424 0
-176 -425 0
-177 -426 0
-175 -655 0
-176 -656 0
-177 -657 0
-175 -610 0
-176 -611 0
-177 -612 0
-175 -406 0
-176 -407 0
-177 -408 0
-175 -586 0
-176 -587 0
-177 -588 0
-178 -424 0
-179 -425 0
-180 -426 0
-178 -658 0
-179 -659 0
-180 -660 0
-178 -409 0
-179 -410 0
-180 -411 0
-178 -181 0
-179 -182 0
-180 -183 0
-178 -589 0
-179 -590 0
-180 -591 0
-178 -592 0
-179 -593 0
-180 -594 0
-181 -427 0
-182 -428 0
-183 -429 0
-181 -748 0
-182 -749 0
-183 -750 0
-181 -808 0
-182 -809 0
-183 -810 0
-184 -229 0
-185 -230 0
-186 -231 0
-184 -535 0
-185 -536 0
-186 -537 0
-184 -211 0
-185 -212 0
-186 -213 0
-184 -316 0
-185 -317 0
-186 -318 0
-184 -619 0
-185 -620 0
-186 -621 0
-187 -208 0
-188 -209 0
-189 -210 0
-187 -319 0
-188 -320 0
-189 -321 0
-187 -850 0
-188 -851 0
-189 -852 0
-187 -538 0
-188 -539 0
-189 -540 0
-190 -424 0
-191 -425 0
-192 -426 0
-190 -595 0
-191 -596 0
-192 -597 0
-190 -205 0
-191 -206 0
-192 -207 0
-190 -244 0
-191 -245 0
-192 -246 0
-190 -247 0
-191 -248 0
-192 -249 0
-193 -424 0
-194 -425 0
-195 -426 0
-193 -598 0
-194 -599 0
-195 -600 0
-193 -601 0
-194 -602 0
-195 -603 0
-193 -436 0
-194 -437 0
-195 -438 0
-193 -202 0
-194 -203 0
-195 -204 0
-193 -439 0
-194 -440 0
-195 -441 0
-193 -250 0
-194 -251 0
-195 -252 0
-196 -544 0
-197 -545 0
-198 -546 0
-196 -745 0
-197 -746 0
-198 -747 0
-196 -628 0
-197 -629 0
-198 -630 0
-199 -547 0
-200 -548 0
-201 -549 0
-199 -631 0
-200 -632 0
-201 -633 0
-202 -979 0
-203 -980 0
-204 -981 0
-202 -835 0
-203 -836 0
-204 -837 0
-202 -1045 0
-203 -1046 0
-204 -1047 0
-202 -454 0
-203 -455 0
-204 -456 0
-205 -844 0
-206 -845 0
-207 -846 0
-205 -865 0
-206 -866 0
-207 -867 0
-205 -457 0
-206 -458 0
-207 -459 0
-205 -949 0
-206 -950 0
-207 -951 0
-208 -424 0
-209 -425 0
-210 -426 0
-208 -661 0
-209 -662 0
-210 -663 0
-208 -289 0
-209 -290 0
-210 -291 0
-211 -424 0
-212 -425 0
-213 -426 0
-211 -664 0
-212 -665 0
-213 -666 0
-211 -583 0
-212 -584 0
-213 -585 0
-214 -748 0
-215 -749 0
-216 -750 0
-214 -931 0
-215 -932 0
-216 -933 0
-214 -622 0
-215 -623 0
-216 -624 0
-217 -625 0
-218 -626 0
-219 -627 0
-217 -760 0
-218 -761 0
-219 -762 0
-217 -517 0
-218 -518 0
-219 -519 0
-220 -1174 0
-221 -1175 0
-222 -1176 0
-220 -799 0
-221 -800 0
-222 -801 0
-220 -634 0
-221 -635 0
-222 -636 0
-223 -802 0
-224 -803 0
-225 -804 0
-223 -634 0
-224 -635 0
-225 -636 0
-223 -811 0
-224 -812 0
-225 -813 0
-223 -514 0
-224 -515 0
-225 -516 0
-226 -799 0
-227 -800 0
-228 -801 0
-226 -517 0
-227 -518 0
-228 -519 0
-226 -244 0
-227 -245 0
-228 -246 0
-229 -463 0
-230 -464 0
-231 -465 0
-232 -607 0
-233 -608 0
-234 -609 0
-232 -1042 0
-233 -1043 0
-234 -1044 0
-232 -268 0
-233 -269 0
-234 -270 0
-232 -1156 0
-233 -1157 0
-234 -1158 0
-235 -331 0
-236 -332 0
-237 -333 0
-235 -1096 0
-236 -1097 0
-237 -1098 0
-235 -280 0
-236 -281 0
-237 -282 0
-235 -1177 0
-236 -1178 0
-237 -1179 0
-238 -274 0
-239 -275 0
-240 -276 0
-238 -334 0
-239 -335 0
-240 -336 0
-238 -976 0
-239 -977 0
-240 -978 0
-238 -991 0
-239 -992 0
-240 -993 0
-241 -988 0
-242 -989 0
-243 -990 0
-241 -280 0
-242 -281 0
-243 -282 0
-241 -340 0
-242 -341 0
-243 -342 0
-244 -880 0
-245 -881 0
-246 -882 0
-244 -550 0
-245 -551 0
-246 -552 0
-247 -553 0
-248 -554 0
-249 -555 0
-247 -838 0
-248 -839 0
-249 -840 0
-247 -985 0
-248 -986 0
-249 -987 0
-250 -1075 0
-251 -1076 0
-252 -1077 0
-250 -814 0
-251 -815 0
-252 -816 0
-250 -550 0
-251 -551 0
-252 -552 0
-250 -889 0
-251 -890 0
-252 -891 0
-253 -304 0
-254 -305 0
-255 -306 0
-253 -775 0
-254 -776 0
-255 -777 0
-253 -1099 0
-254 -1100 0
-255 -1101 0
-253 -316 0
-254 -317 0
-255 -318 0
-256 -319 0
-257 -320 0
-258 -321 0
-256 -772 0
-257 -773 0
-258 -774 0
-256 -298 0
-257 -299 0
-258 -300 0
-256 -997 0
-257 -998 0
-258 -999 0
-259 -967 0
-260 -968 0
-261 -969 0
-259 -382 0
-260 -383 0
-261 -384 0
-259 -778 0
-260 -779 0
-261 -780 0
-259 -280 0
-260 -281 0
-261 -282 0
-259 -997 0
-260 -998 0
-261 -999 0
-262 -274 0
-263 -275 0
-264 -276 0
-262 -847 0
-263 -848 0
-264 -849 0
-262 -958 0
-263 -959 0
-264 -960 0
-262 -1099 0
-263 -1100 0
-264 -1101 0
-262 -385 0
-263 -386 0
-264 -387 0
-265 -304 0
-266 -305 0
-267 -306 0
-265 -937 0
-266 -938 0
-267 -939 0
-265 -382 0
-266 -383 0
-267 -384 0
-265 -781 0
-266 -782 0
-267 -783 0
-265 -898 0
-266 -899 0
-267 -900 0
-265 -934 0
-266 -935 0
-267 -936 0
-268 -319 0
-269 -320 0
-270 -321 0
-268 -994 0
-269 -995 0
-270 -996 0
-268 -958 0
-269 -959 0
-270 -960 0
-268 -613 0
-269 -614 0
-270 -615 0
-268 -349 0
-269 -350 0
-270 -351 0
-271 -778 0
-272 -779 0
-273 -780 0
-271 -358 0
-272 -359 0
-273 -360 0
-271 -769 0
-272 -770 0
-273 -771 0
-271 -316 0
-272 -317 0
-273 -318 0
-271 -1162 0
-272 -1163 0
-273 -1164 0
-271 -616 0
-272 -617 0
-273 -618 0
-274 -424 0
-275 -425 0
-276 -426 0
-274 -310 0
-275 -311 0
-276 -312 0
-274 -577 0
-275 -578 0
-276 -579 0
-274 -325 0
-275 -326 0
-276 -327 0
-274 -277 0
-275 -278 0
-276 -279 0
-274 -697 0
-275 -698 0
-276 -699 0
-274 -415 0
-275 -416 0
-276 -417 0
-277 -427 0
-278 -428 0
-279 -429 0
-277 -868 0
-278 -869 0
-279 -870 0
-277 -418 0
-278 -419 0
-279 -420 0
-280 -424 0
-281 -425 0
-282 -426 0
-280 -433 0
-281 -434 0
-282 -435 0
-280 -307 0
-281 -308 0
-282 -309 0
-280 -313 0
-281 -314 0
-282 -315 0
-280 -580 0
-281 -581 0
-282 -582 0
-280 -322 0
-281 -323 0
-282 -324 0
-280 -679 0
-281 -680 0
-282 -681 0
-280 -364 0
-281 -365 0
-282 -366 0
-283 -424 0
-284 -425 0
-285 -426 0
-283 -379 0
-284 -380 0
-285 -381 0
-283 -619 0
-284 -620 0
-285 -621 0
-283 -541 0
-284 -542 0
-285 -543 0
-283 -394 0
-284 -395 0
-285 -396 0
-283 -412 0
-284 -413 0
-285 -414 0
-286 -424 0
-287 -425 0
-288 -426 0
-286 -376 0
-287 -377 0
-288 -378 0
-286 -397 0
-287 -398 0
-288 -399 0
-286 -346 0
-287 -347 0
-288 -348 0
-289 -547 0
-290 -548 0
-291 -549 0
-289 -1012 0
-290 -1013 0
-291 -1014 0
-292 -832 0
-293 -833 0
-294 -834 0
-292 -631 0
-293 -632 0
-294 -633 0
-292 -331 0
-293 -332 0
-294 -333 0
-292 -358 0
-293 -359 0
-294 -360 0
-292 -403 0
-293 -404 0
-294 -405 0
-295 -385 0
-296 -386 0
-297 -387 0
-295 -316 0
-296 -317 0
-297 -318 0
-295 -910 0
-296 -911 0
-297 -912 0
-295 -901 0
-296 -902 0
-297 -903 0
-298 -424 0
-299 -425 0
-300 -426 0
-298 -355 0
-299 -356 0
-300 -357 0
-301 -1066 0
-302 -1067 0
-303 -1068 0
-301 -358 0
-302 -359 0
-303 -360 0
-301 -349 0
-302 -350 0
-303 -351 0
-301 -1063 0
-302 -1064 0
-303 -1065 0
-304 -424 0
-305 -425 0
-306 -426 0
-304 -400 0
-305 -401 0
-306 -402 0
-304 -328 0
-305 -329 0
-306 -330 0
-304 -637 0
-305 -638 0
-306 -639 0
-304 -448 0
-305 -449 0
-306 -450 0
-304 -352 0
-305 -353 0
-306 -354 0
-307 -1180 0
-308 -1181 0
-309 -1182 0
-307 -1039 0
-308 -1040 0
-309 -1041 0
-307 -775 0
-308 -776 0
-309 -777 0
-307 -454 0
-308 -455 0
-309 -456 0
-307 -586 0
-308 -587 0
-309 -588 0
-307 -781 0
-308 -782 0
-309 -783 0
-307 -766 0
-308 -767 0
-309 -768 0
-307 -784 0
-308 -785 0
-309 -786 0
-307 -595 0
-308 -596 0
-309 -597 0
-310 -772 0
-311 -773 0
-312 -774 0
-310 -589 0
-311 -590 0
-312 -591 0
-310 -763 0
-311 -764 0
-312 -765 0
-310 -787 0
-311 -788 0
-312 -789 0
-310 -457 0
-311 -458 0
-312 -459 0
-310 -598 0
-311 -599 0
-312 -600 0
-310 -946 0
-311 -947 0
-312 -948 0
-313 -775 0
-314 -776 0
-315 -777 0
-313 -457 0
-314 -458 0
-315 -459 0
-313 -808 0
-314 -809 0
-315 -810 0
-313 -1057 0
-314 -1058 0
-315 -1059 0
-316 -424 0
-317 -425 0
-318 -426 0
-316 -463 0
-317 -464 0
-318 -465 0
-319 -424 0
-320 -425 0
-321 -426 0
-319 -388 0
-320 -389 0
-321 -390 0
-319 -391 0
-320 -392 0
-321 -393 0
-319 -676 0
-320 -677 0
-321 -678 0
-319 -361 0
-320 -362 0
-321 -363 0
-319 -466 0
-320 -467 0
-321 -468 0
-322 -763 0
-323 -764 0
-324 -765 0
-322 -475 0
-323 -476 0
-324 -477 0
-322 -1057 0
-323 -1058 0
-324 -1059 0
-325 -1039 0
-326 -1040 0
-327 -1041 0
-325 -481 0
-326 -482 0
-327 -483 0
-325 -766 0
-326 -767 0
-327 -768 0
-325 -1102 0
-326 -1103 0
-327 -1104 0
-328 -454 0
-329 -455 0
-330 -456 0
-328 -1126 0
-329 -1127 0
-330 -1128 0
-328 -910 0
-329 -911 0
-330 -912 0
-331 -424 0
-332 -425 0
-333 -426 0
-331 -673 0
-332 -674 0
-333 -675 0
-331 -688 0
-332 -689 0
-333 -690 0
-334 -424 0
-335 -425 0
-336 -426 0
-334 -643 0
-335 -644 0
-336 -645 0
-337 -898 0
-338 -899 0
-339 -900 0
-337 -901 0
-338 -902 0
-339 -903 0
-337 -709 0
-338 -710 0
-339 -711 0
-337 -913 0
-338 -914 0
-339 -915 0
-337 -1024 0
-338 -1025 0
-339 -1026 0
-337 -853 0
-338 -854 0
-339 -855 0
-337 -382 0
-338 -383 0
-339 -384 0
-337 -385 0
-338 -386 0
-339 -387 0
-340 -424 0
-341 -425 0
-342 -426 0
-340 -484 0
-341 -485 0
-342 -486 0
-343 -832 0
-344 -833 0
-345 -834 0
-343 -925 0
-344 -926 0
-345 -927 0
-346 -490 0
-347 -491 0
-348 -492 0
-346 -472 0
-347 -473 0
-348 -474 0
-349 -424 0
-350 -425 0
-351 -426 0
-349 -649 0
-350 -650 0
-351 -651 0
-349 -478 0
-350 -479 0
-351 -480 0
-349 -451 0
-350 -452 0
-351 -453 0
-352 -763 0
-353 -764 0
-354 -765 0
-352 -445 0
-353 -446 0
-354 -447 0
-352 -475 0
-353 -476 0
-354 -477 0
-352 -934 0
-353 -935 0
-354 -936 0
-352 -787 0
-353 -788 0
-354 -789 0
-355 -481 0
-356 -482 0
-357 -483 0
-355 -766 0
-356 -767 0
-357 -768 0
-355 -442 0
-356 -443 0
-357 -444 0
-355 -784 0
-356 -785 0
-357 -786 0
-358 -424 0
-359 -425 0
-360 -426 0
-358 -652 0
-359 -653 0
-360 -654 0
-358 -505 0
-359 -506 0
-360 -507 0
-358 -460 0
-359 -461 0
-360 -462 0
-361 -1066 0
-362 -1067 0
-363 -1068 0
-361 -457 0
-362 -458 0
-363 -459 0
-361 -1069 0
-362 -1070 0
-363 -1071 0
-364 -1168 0
-365 -1169 0
-366 -1170 0
-364 -781 0
-365 -782 0
-366 -783 0
-364 -511 0
-365 -512 0
-366 -513 0
-364 -898 0
-365 -899 0
-366 -900 0
-364 -913 0
-365 -914 0
-366 -915 0
-367 -1093 0
-368 -1094 0
-369 -1095 0
-367 -682 0
-368 -683 0
-369 -684 0
-367 -1081 0
-368 -1082 0
-369 -1083 0
-370 -694 0
-371 -695 0
-372 -696 0
-370 -487 0
-371 -488 0
-372 -489 0
-370 -1051 0
-371 -1052 0
-372 -1053 0
-370 -1147 0
-371 -1148 0
-372 -1149 0
-373 -940 0
-374 -941 0
-375 -942 0
-373 -448 0
-374 -449 0
-375 -450 0
-373 -484 0
-374 -485 0
-375 -486 0
-376 -853 0
-377 -854 0
-378 -855 0
-376 -916 0
-377 -917 0
-378 -918 0
-376 -508 0
-377 -509 0
-378 -510 0
-376 -661 0
-377 -662 0
-378 -663 0
-379 -916 0
-380 -917 0
-381 -918 0
-379 -511 0
-380 -512 0
-381 -513 0
-379 -664 0
-380 -665 0
-381 -666 0
-379 -1024 0
-380 -1025 0
-381 -1026 0
-379 -898 0
-380 -899 0
-381 -900 0
-382 -424 0
-383 -425 0
-384 -426 0
-382 -514 0
-383 -515 0
-384 -516 0
-385 -424 0
-386 -425 0
-387 -426 0
-385 -502 0
-386 -503 0
-387 -504 0
-385 -718 0
-386 -719 0
-387 -720 0
-385 -517 0
-386 -518 0
-387 -519 0
-385 -520 0
-386 -521 0
-387 -522 0
-388 -1069 0
-389 -1070 0
-390 -1071 0
-388 -1132 0
-389 -1133 0
-390 -1134 0
-388 -481 0
-389 -482 0
-390 -483 0
-391 -850 0
-392 -851 0
-393 -852 0
-391 -490 0
-392 -491 0
-393 -492 0
-391 -862 0
-392 -863 0
-393 -864 0
-391 -1021 0
-392 -1022 0
-393 -1023 0
-394 -526 0
-395 -527 0
-396 -528 0
-394 -1024 0
-395 -1025 0
-396 -1026 0
-394 -469 0
-395 -470 0
-396 -471 0
-394 -901 0
-395 -902 0
-396 -903 0
-397 -853 0
-398 -854 0
-399 -855 0
-397 -529 0
-398 -530 0
-399 -531 0
-397 -472 0
-398 -473 0
-399 -474 0
-400 -937 0
-401 -938 0
-402 -939 0
-400 -511 0
-401 -512 0
-402 -513 0
-400 -910 0
-401 -911 0
-402 -912 0
-400 -964 0
-401 -965 0
-402 -966 0
-400 -787 0
-401 -788 0
-402 -789 0
-403 -1018 0
-404 -1019 0
-405 -1020 0
-403 -925 0
-404 -926 0
-405 -927 0
-403 -892 0
-404 -893 0
-405 -894 0
-403 -895 0
-404 -896 0
-405 -897 0
-406 -1120 0
-407 -1121 0
-408 -1122 0
-406 -622 0
-407 -623 0
-408 -624 0
-406 -823 0
-407 -824 0
-408 -825 0
-409 -625 0
-410 -626 0
-411 -627 0
-409 -952 0
-410 -953 0
-411 -954 0
-409 -970 0
-410 -971 0
-411 -972 0
-409 -1033 0
-410 -1034 0
-411 -1035 0
-412 -916 0
-413 -917 0
-414 -918 0
-412 -544 0
-413 -545 0
-414 -546 0
-412 -943 0
-413 -944 0
-414 -945 0
-415 -958 0
-416 -959 0
-417 -960 0
-415 -787 0
-416 -788 0
-417 -789 0
-415 -1141 0
-416 -1142 0
-417 -1143 0
-415 -550 0
-416 -551 0
-417 -552 0
-415 -934 0
-416 -935 0
-417 -936 0
-415 -418 0
-416 -419 0
-417 -420 0
-415 -937 0
-416 -938 0
-417 -939 0
-418 -1036 0
-419 -1037 0
-420 -1038 0
-418 -682 0
-419 -683 0
-420 -684 0
-418 -790 0
-419 -791 0
-420 -792 0
-421 -424 0
-422 -425 0
-423 -426 0
-424 -526 0
-425 -527 0
-426 -528 0
-424 -529 0
-425 -530 0
-426 -531 0
-424 -700 0
-425 -701 0
-426 -702 0
-424 -703 0
-425 -704 0
-426 -705 0
-424 -682 0
-425 -683 0
-426 -684 0
-424 -427 0
-425 -428 0
-426 -429 0
-424 -685 0
-425 -686 0
-426 -687 0
-424 -730 0
-425 -731 0
-426 -732 0
-424 -475 0
-425 -476 0
-426 -477 0
-424 -481 0
-425 -482 0
-426 -483 0
-424 -622 0
-425 -623 0
-426 -624 0
-424 -604 0
-425 -605 0
-426 -606 0
-424 -625 0
-425 -626 0
-426 -627 0
-424 -607 0
-425 -608 0
-426 -609 0
-424 -544 0
-425 -545 0
-426 -546 0
-424 -547 0
-425 -548 0
-426 -549 0
-424 -490 0
-425 -491 0
-426 -492 0
-424 -634 0
-425 -635 0
-426 -636 0
-424 -493 0
-425 -494 0
-426 -495 0
-424 -550 0
-425 -551 0
-426 -552 0
-424 -553 0
-425 -554 0
-426 -555 0
-424 -499 0
-425 -500 0
-426 -501 0
-424 -694 0
-425 -695 0
-426 -696 0
-424 -508 0
-425 -509 0
-426 -510 0
-424 -511 0
-425 -512 0
-426 -513 0
-424 -667 0
-425 -668 0
-426 -669 0
-424 -670 0
-425 -671 0
-426 -672 0
-424 -454 0
-425 -455 0
-426 -456 0
-424 -457 0
-425 -458 0
-426 -459 0
-430 -1171 0
-431 -1172 0
-432 -1173 0
-430 -433 0
-431 -434 0
-432 -435 0
-430 -811 0
-431 -812 0
-432 -813 0
-430 -685 0
-431 -686 0
-432 -687 0
-430 -883 0
-431 -884 0
-432 -885 0
-430 -1084 0
-431 -1085 0
-432 -1086 0
-433 -1168 0
-434 -1169 0
-435 -1170 0
-433 -778 0
-434 -779 0
-435 -780 0
-433 -784 0
-434 -785 0
-435 -786 0
-433 -1096 0
-434 -1097 0
-435 -1098 0
-433 -553 0
-434 -554 0
-435 -555 0
-433 -1135 0
-434 -1136 0
-435 -1137 0
-433 -769 0
-434 -770 0
-435 -771 0
-436 -904 0
-437 -905 0
-438 -906 0
-436 -625 0
-437 -626 0
-438 -627 0
-439 -835 0
-440 -836 0
-441 -837 0
-439 -847 0
-440 -848 0
-441 -849 0
-439 -889 0
-440 -890 0
-441 -891 0
-442 -694 0
-443 -695 0
-444 -696 0
-442 -538 0
-443 -539 0
-444 -540 0
-442 -793 0
-443 -794 0
-444 -795 0
-445 -535 0
-446 -536 0
-447 -537 0
-445 -907 0
-446 -908 0
-447 -909 0
-445 -1048 0
-446 -1049 0
-447 -1050 0
-445 -739 0
-446 -740 0
-447 -741 0
-445 -796 0
-446 -797 0
-447 -798 0
-448 -775 0
-449 -776 0
-450 -777 0
-448 -781 0
-449 -782 0
-450 -783 0
-448 -547 0
-449 -548 0
-450 -549 0
-451 -508 0
-452 -509 0
-453 -510 0
-451 -1063 0
-452 -1064 0
-453 -1065 0
-454 -532 0
-455 -533 0
-456 -534 0
-454 -496 0
-455 -497 0
-456 -498 0
-454 -562 0
-455 -563 0
-456 -564 0
-457 -496 0
-458 -497 0
-459 -498 0
-457 -640 0
-458 -641 0
-459 -642 0
-457 -523 0
-458 -524 0
-459 -525 0
-460 -1066 0
-461 -1067 0
-462 -1068 0
-460 -1069 0
-461 -1070 0
-462 -1071 0
-460 -511 0
-461 -512 0
-462 -513 0
-460 -1078 0
-461 -1079 0
-462 -1080 0
-463 -775 0
-464 -776 0
-465 -777 0
-463 -943 0
-464 -944 0
-465 -945 0
-463 -547 0
-464 -548 0
-465 -549 0
-466 -772 0
-467 -773 0
-468 -774 0
-466 -544 0
-467 -545 0
-468 -546 0
-466 -943 0
-467 -944 0
-468 -945 0
-466 -712 0
-467 -713 0
-468 -714 0
-469 -802 0
-470 -803 0
-471 -804 0
-469 -700 0
-470 -701 0
-471 -702 0
-472 -703 0
-473 -704 0
-474 -705 0
-472 -799 0
-473 -800 0
-474 -801 0
-475 -535 0
-476 -536 0
-477 -537 0
-478 -958 0
-479 -959 0
-480 -960 0
-478 -529 0
-479 -530 0
-480 -531 0
-481 -565 0
-482 -566 0
-483 -567 0
-481 -538 0
-482 -539 0
-483 -540 0
-481 -556 0
-482 -557 0
-483 -558 0
-484 -721 0
-485 -722 0
-486 -723 0
-484 -547 0
-485 -548 0
-486 -549 0
-487 -544 0
-488 -545 0
-489 -546 0
-487 -745 0
-488 -746 0
-489 -747 0
-487 -724 0
-488 -725 0
-489 -726 0
-490 -706 0
-491 -707 0
-492 -708 0
-493 -646 0
-494 -647 0
-495 -648 0
-496 -772 0
-497 -773 0
-498 -774 0
-496 -775 0
-497 -776 0
-498 -777 0
-496 -1063 0
-497 -1064 0
-498 -1065 0
-496 -1066 0
-497 -1067 0
-498 -1068 0
-496 -655 0
-497 -656 0
-498 -657 0
-496 -658 0
-497 -659 0
-498 -660 0
-499 -616 0
-500 -617 0
-501 -618 0
-499 -535 0
-500 -536 0
-501 -537 0
-499 -559 0
-500 -560 0
-501 -561 0
-499 -727 0
-500 -728 0
-501 -729 0
-499 -523 0
-500 -524 0
-501 -525 0
-502 -526 0
-503 -527 0
-504 -528 0
-502 -1099 0
-503 -1100 0
-504 -1101 0
-505 -937 0
-506 -938 0
-507 -939 0
-505 -550 0
-506 -551 0
-507 -552 0
-505 -1057 0
-506 -1058 0
-507 -1059 0
-508 -628 0
-509 -629 0
-510 -630 0
-508 -556 0
-509 -557 0
-510 -558 0
-511 -532 0
-512 -533 0
-513 -534 0
-511 -574 0
-512 -575 0
-513 -576 0
-511 -631 0
-512 -632 0
-513 -633 0
-511 -559 0
-512 -560 0
-513 -561 0
-514 -853 0
-515 -854 0
-516 -855 0
-514 -553 0
-515 -554 0
-516 -555 0
-514 -778 0
-515 -779 0
-516 -780 0
-517 -1024 0
-518 -1025 0
-519 -1026 0
-517 -958 0
-518 -959 0
-519 -960 0
-517 -550 0
-518 -551 0
-519 -552 0
-520 -853 0
-521 -854 0
-522 -855 0
-520 -553 0
-521 -554 0
-522 -555 0
-520 -1102 0
-521 -1103 0
-522 -1104 0
-520 -910 0
-521 -911 0
-522 -912 0
-520 -1054 0
-521 -1055 0
-522 -1056 0
-523 -973 0
-524 -974 0
-525 -975 0
-523 -1144 0
-524 -1145 0
-525 -1146 0
-526 -574 0
-527 -575 0
-528 -576 0
-526 -721 0
-527 -722 0
-528 -723 0
-529 -724 0
-530 -725 0
-531 -726 0
-532 -781 0
-533 -782 0
-534 -783 0
-532 -910 0
-533 -911 0
-534 -912 0
-535 -859 0
-536 -860 0
-537 -861 0
-535 -583 0
-536 -584 0
-537 -585 0
-535 -721 0
-536 -722 0
-537 -723 0
-535 -826 0
-536 -827 0
-537 -828 0
-538 -724 0
-539 -725 0
-540 -726 0
-538 -829 0
-539 -830 0
-540 -831 0
-541 -607 0
-542 -608 0
-543 -609 0
-541 -1165 0
-542 -1166 0
-543 -1167 0
-544 -565 0
-545 -566 0
-546 -567 0
-547 -733 0
-548 -734 0
-549 -735 0
-553 -715 0
-554 -716 0
-555 -717 0
-553 -562 0
-554 -563 0
-555 -564 0
-556 -1039 0
-557 -1040 0
-558 -1041 0
-556 -643 0
-557 -644 0
-558 -645 0
-556 -784 0
-557 -785 0
-558 -786 0
-559 -583 0
-560 -584 0
-561 -585 0
-559 -877 0
-560 -878 0
-561 -879 0
-559 -652 0
-560 -653 0
-561 -654 0
-562 -1126 0
-563 -1127 0
-564 -1128 0
-562 -784 0
-563 -785 0
-564 -786 0
-565 -1102 0
-566 -1103 0
-567 -1104 0
-568 -730 0
-569 -731 0
-570 -732 0
-568 -1021 0
-569 -1022 0
-570 -1023 0
-568 -949 0
-569 -950 0
-570 -951 0
-568 -871 0
-569 -872 0
-570 -873 0
-571 -1123 0
-572 -1124 0
-573 -1125 0
-571 -607 0
-572 -608 0
-573 -609 0
-571 -1006 0
-572 -1007 0
-573 -1008 0
-571 -1156 0
-572 -1157 0
-573 -1158 0
-571 -841 0
-572 -842 0
-573 -843 0
-571 -856 0
-572 -857 0
-573 -858 0
-574 -742 0
-575 -743 0
-576 -744 0
-574 -1126 0
-575 -1127 0
-576 -1128 0
-574 -1024 0
-575 -1025 0
-576 -1026 0
-574 -913 0
-575 -914 0
-576 -915 0
-577 -625 0
-578 -626 0
-579 -627 0
-577 -820 0
-578 -821 0
-579 -822 0
-577 -1033 0
-578 -1034 0
-579 -1035 0
-580 -625 0
-581 -626 0
-582 -627 0
-580 -586 0
-581 -587 0
-582 -588 0
-580 -970 0
-581 -971 0
-582 -972 0
-580 -1177 0
-581 -1178 0
-582 -1179 0
-583 -760 0
-584 -761 0
-585 -762 0
-583 -742 0
-584 -743 0
-585 -744 0
-583 -667 0
-584 -668 0
-585 -669 0
-586 -685 0
-587 -686 0
-588 -687 0
-586 -883 0
-587 -884 0
-588 -885 0
-586 -1129 0
-587 -1130 0
-588 -1131 0
-586 -1105 0
-587 -1106 0
-588 -1107 0
-586 -1090 0
-587 -1091 0
-588 -1092 0
-586 -1060 0
-587 -1061 0
-588 -1062 0
-586 -1147 0
-587 -1148 0
-588 -1149 0
-589 -682 0
-590 -683 0
-591 -684 0
-589 -1081 0
-590 -1082 0
-591 -1083 0
-592 -1072 0
-593 -1073 0
-594 -1074 0
-592 -685 0
-593 -686 0
-594 -687 0
-592 -1147 0
-593 -1148 0
-594 -1149 0
-592 -808 0
-593 -809 0
-594 -810 0
-595 -967 0
-596 -968 0
-597 -969 0
-595 -844 0
-596 -845 0
-597 -846 0
-595 -985 0
-596 -986 0
-597 -987 0
-595 -685 0
-596 -686 0
-597 -687 0
-598 -1075 0
-599 -1076 0
-600 -1077 0
-598 -1042 0
-599 -1043 0
-600 -1044 0
-598 -640 0
-599 -641 0
-600 -642 0
-598 -682 0
-599 -683 0
-600 -684 0
-601 -685 0
-602 -686 0
-603 -687 0
-601 -805 0
-602 -806 0
-603 -807 0
-601 -814 0
-602 -815 0
-603 -816 0
-604 -616 0
-605 -617 0
-606 -618 0
-604 -631 0
-605 -632 0
-606 -633 0
-607 -613 0
-608 -614 0
-609 -615 0
-607 -628 0
-608 -629 0
-609 -630 0
-607 -691 0
-608 -692 0
-609 -693 0
-607 -712 0
-608 -713 0
-609 -714 0
-607 -736 0
-608 -737 0
-609 -738 0
-610 -1093 0
-611 -1094 0
-612 -1095 0
-610 -1048 0
-611 -1049 0
-612 -1050 0
-610 -1105 0
-611 -1106 0
-612 -1107 0
-613 -940 0
-614 -941 0
-615 -942 0
-613 -649 0
-614 -650 0
-615 -651 0
-616 -1144 0
-617 -1145 0
-618 -1146 0
-616 -883 0
-617 -884 0
-618 -885 0
-616 -1051 0
-617 -1052 0
-618 -1053 0
-616 -652 0
-617 -653 0
-618 -654 0
-619 -859 0
-620 -860 0
-621 -861 0
-619 -664 0
-620 -665 0
-621 -666 0
-622 -646 0
-623 -647 0
-624 -648 0
-628 -643 0
-629 -644 0
-630 -645 0
-628 -649 0
-629 -650 0
-630 -651 0
-628 -841 0
-629 -842 0
-630 -843 0
-628 -751 0
-629 -752 0
-630 -753 0
-631 -733 0
-632 -734 0
-633 -735 0
-631 -652 0
-632 -653 0
-633 -654 0
-631 -754 0
-632 -755 0
-633 -756 0
-634 -709 0
-635 -710 0
-636 -711 0
-634 -691 0
-635 -692 0
-636 -693 0
-634 -640 0
-635 -641 0
-636 -642 0
-637 -886 0
-638 -887 0
-639 -888 0
-637 -667 0
-638 -668 0
-639 -669 0
-637 -754 0
-638 -755 0
-639 -756 0
-640 -718 0
-641 -719 0
-642 -720 0
-640 -715 0
-641 -716 0
-642 -717 0
-640 -814 0
-641 -815 0
-642 -816 0
-640 -655 0
-641 -656 0
-642 -657 0
-640 -949 0
-641 -950 0
-642 -951 0
-643 -670 0
-644 -671 0
-645 -672 0
-646 -904 0
-647 -905 0
-648 -906 0
-646 -1120 0
-647 -1121 0
-648 -1122 0
-646 -892 0
-647 -893 0
-648 -894 0
-649 -670 0
-650 -671 0
-651 -672 0
-649 -880 0
-650 -881 0
-651 -882 0
-649 -982 0
-650 -983 0
-651 -984 0
-652 -667 0
-653 -668 0
-654 -669 0
-655 -730 0
-656 -731 0
-657 -732 0
-655 -793 0
-656 -794 0
-657 -795 0
-658 -730 0
-659 -731 0
-660 -732 0
-658 -844 0
-659 -845 0
-660 -846 0
-658 -796 0
-659 -797 0
-660 -798 0
-661 -703 0
-662 -704 0
-663 -705 0
-661 -1171 0
-662 -1172 0
-663 -1173 0
-661 -811 0
-662 -812 0
-663 -813 0
-664 -1150 0
-665 -1151 0
-666 -1152 0
-664 -790 0
-665 -791 0
-666 -792 0
-664 -700 0
-665 -701 0
-666 -702 0
-673 -1072 0
-674 -1073 0
-675 -1074 0
-673 -685 0
-674 -686 0
-675 -687 0
-673 -1129 0
-674 -1130 0
-675 -1131 0
-673 -1084 0
-674 -1085 0
-675 -1086 0
-676 -1003 0
-677 -1004 0
-678 -1005 0
-676 -1033 0
-677 -1034 0
-678 -1035 0
-676 -817 0
-677 -818 0
-678 -819 0
-679 -988 0
-680 -989 0
-681 -990 0
-679 -700 0
-680 -701 0
-681 -702 0
-679 -1150 0
-680 -1151 0
-681 -1152 0
-682 -715 0
-683 -716 0
-684 -717 0
-688 -703 0
-689 -704 0
-690 -705 0
-688 -1105 0
-689 -1106 0
-690 -1107 0
-688 -1060 0
-689 -1061 0
-690 -1062 0
-691 -1036 0
-692 -1037 0
-693 -1038 0
-691 -1174 0
-692 -1175 0
-693 -1176 0
-694 -706 0
-695 -707 0
-696 -708 0
-694 -724 0
-695 -725 0
-696 -726 0
-697 -835 0
-698 -836 0
-699 -837 0
-697 -730 0
-698 -731 0
-699 -732 0
-697 -1021 0
-698 -1022 0
-699 -1023 0
-700 -733 0
-701 -734 0
-702 -735 0
-700 -727 0
-701 -728 0
-702 -729 0
-703 -736 0
-704 -737 0
-705 -738 0
-706 -793 0
-707 -794 0
-708 -795 0
-709 -718 0
-710 -719 0
-711 -720 0
-709 -799 0
-710 -800 0
-711 -801 0
-709 -802 0
-710 -803 0
-711 -804 0
-712 -1042 0
-713 -1043 0
-714 -1044 0
-712 -856 0
-713 -857 0
-714 -858 0
-715 -838 0
-716 -839 0
-717 -840 0
-715 -823 0
-716 -824 0
-717 -825 0
-718 -730 0
-719 -731 0
-720 -732 0
-718 -871 0
-719 -872 0
-720 -873 0
-721 -733 0
-722 -734 0
-723 -735 0
-724 -841 0
-725 -842 0
-726 -843 0
-724 -817 0
-725 -818 0
-726 -819 0
-724 -856 0
-725 -857 0
-726 -858 0
-727 -859 0
-728 -860 0
-729 -861 0
-727 -1072 0
-728 -1073 0
-729 -1074 0
-727 -802 0
-728 -803 0
-729 -804 0
-736 -1006 0
-737 -1007 0
-738 -1008 0
-736 -1105 0
-737 -1106 0
-738 -1107 0
-742 -874 0
-743 -875 0
-744 -876 0
-742 -877 0
-743 -878 0
-744 -879 0
-745 -823 0
-746 -824 0
-747 -825 0
-745 -841 0
-746 -842 0
-747 -843 0
-748 -838 0
-749 -839 0
-750 -840 0
-748 -757 0
-749 -758 0
-750 -759 0
-748 -823 0
-749 -824 0
-750 -825 0
-751 -880 0
-752 -881 0
-753 -882 0
-751 -829 0
-752 -830 0
-753 -831 0
-754 -826 0
-755 -827 0
-756 -828 0
-757 -829 0
-758 -830 0
-759 -831 0
-760 -820 0
-761 -821 0
-762 -822 0
-760 -826 0
-761 -827 0
-762 -828 0
-766 -991 0
-767 -992 0
-768 -993 0
-769 -1138 0
-770 -1139 0
-771 -1140 0
-769 -1144 0
-770 -1145 0
-771 -1146 0
-772 -1045 0
-773 -1046 0
-774 -1047 0
-772 -862 0
-773 -863 0
-774 -864 0
-772 -1159 0
-773 -1160 0
-774 -1161 0
-775 -865 0
-776 -866 0
-777 -867 0
-775 -844 0
-776 -845 0
-777 -846 0
-784 -955 0
-785 -956 0
-786 -957 0
-784 -1138 0
-785 -1139 0
-786 -1140 0
-784 -985 0
-785 -986 0
-786 -987 0
-787 -1075 0
-788 -1076 0
-789 -1077 0
-787 -1159 0
-788 -1160 0
-789 -1161 0
-787 -1030 0
-788 -1031 0
-789 -1032 0
-790 -868 0
-791 -869 0
-792 -870 0
-793 -949 0
-794 -950 0
-795 -951 0
-796 -835 0
-797 -836 0
-798 -837 0
-799 -871 0
-800 -872 0
-801 -873 0
-805 -811 0
-806 -812 0
-807 -813 0
-805 -976 0
-806 -977 0
-807 -978 0
-808 -1135 0
-809 -1136 0
-810 -1137 0
-814 -835 0
-815 -836 0
-816 -837 0
-814 -1042 0
-815 -1043 0
-816 -1044 0
-814 -820 0
-815 -821 0
-816 -822 0
-817 -1006 0
-818 -1007 0
-819 -1008 0
-820 -952 0
-821 -953 0
-822 -954 0
-823 -952 0
-824 -953 0
-825 -954 0
-823 -1018 0
-824 -1019 0
-825 -1020 0
-829 -1123 0
-830 -1124 0
-831 -1125 0
-829 -841 0
-830 -842 0
-831 -843 0
-832 -1114 0
-833 -1115 0
-834 -1116 0
-832 -928 0
-833 -929 0
-834 -930 0
-835 -907 0
-836 -908 0
-837 -909 0
-835 -949 0
-836 -950 0
-837 -951 0
-838 -880 0
-839 -881 0
-840 -882 0
-838 -949 0
-839 -950 0
-840 -951 0
-841 -982 0
-842 -983 0
-843 -984 0
-847 -1027 0
-848 -1028 0
-849 -1029 0
-850 -1000 0
-851 -1001 0
-852 -1002 0
-850 -919 0
-851 -920 0
-852 -921 0
-856 -1003 0
-857 -1004 0
-858 -1005 0
-862 -1000 0
-863 -1001 0
-864 -1002 0
-865 -1045 0
-866 -1046 0
-867 -1047 0
-868 -1150 0
-869 -1151 0
-870 -1152 0
-868 -928 0
-869 -929 0
-870 -930 0
-871 -889 0
-872 -890 0
-873 -891 0
-874 -1030 0
-875 -1031 0
-876 -1032 0
-874 -922 0
-875 -923 0
-876 -924 0
-877 -1078 0
-878 -1079 0
-879 -1080 0
-886 -1045 0
-887 -1046 0
-888 -1047 0
-889 -1027 0
-890 -1028 0
-891 -1029 0
-898 -1150 0
-899 -1151 0
-900 -1152 0
-898 -928 0
-899 -929 0
-900 -930 0
-901 -988 0
-902 -989 0
-903 -990 0
-907 -979 0
-908 -980 0
-909 -981 0
-907 -934 0
-908 -935 0
-909 -936 0
-910 -1159 0
-911 -1160 0
-912 -1161 0
-913 -1138 0
-914 -1139 0
-915 -1140 0
-916 -1012 0
-917 -1013 0
-918 -1014 0
-919 -976 0
-920 -977 0
-921 -978 0
-925 -1114 0
-926 -1115 0
-927 -1116 0
-931 -982 0
-932 -983 0
-933 -984 0
-940 -994 0
-941 -995 0
-942 -996 0
-943 -1015 0
-944 -1016 0
-945 -1017 0
-943 -1165 0
-944 -1166 0
-945 -1167 0
-946 -1081 0
-947 -1082 0
-948 -1083 0
-946 -1030 0
-947 -1031 0
-948 -1032 0
-955 -1117 0
-956 -1118 0
-957 -1119 0
-958 -1003 0
-959 -1004 0
-960 -1005 0
-958 -1027 0
-959 -1028 0
-960 -1029 0
-961 -1132 0
-962 -1133 0
-963 -1134 0
-961 -1117 0
-962 -1118 0
-963 -1119 0
-964 -1030 0
-965 -1031 0
-966 -1032 0
-964 -1078 0
-965 -1079 0
-966 -1080 0
-970 -1147 0
-971 -1148 0
-972 -1149 0
-973 -1168 0
-974 -1169 0
-975 -1170 0
-976 -1039 0
-977 -1040 0
-978 -1041 0
-979 -1048 0
-980 -1049 0
-981 -1050 0
-994 -1111 0
-995 -1112 0
-996 -1113 0
-997 -1159 0
-998 -1160 0
-999 -1161 0
-1009 -1114 0
-1010 -1115 0
-1011 -1116 0
-1018 -1120 0
-1019 -1121 0
-1020 -1122 0
-1018 -1168 0
-1019 -1169 0
-1020 -1170 0
-1018 -1096 0
-1019 -1097 0
-1020 -1098 0
-1021 -1075 0
-1022 -1076 0
-1023 -1077 0
-1033 -1156 0
-1034 -1157 0
-1035 -1158 0
-1051 -1162 0
-1052 -1163 0
-1053 -1164 0
-1063 -1138 0
-1064 -1139 0
-1065 -1140 0
-1084 -1096 0
-1085 -1097 0
-1086 -1098 0
-1090 -1180 0
-1091 -1181 0
-1092 -1182 0
-1108 -1141 0
-1109 -1142 0
-1110 -1143 0
-1123 -1132 0
-1124 -1133 0
-1125 -1134 0
-1123 -1153 0
-1124 -1154 0
-1125 -1155 0
-1126 -1138 0
-1127 -1139 0
-1128 -1140 0
-1129 -1177 0
-1130 -1178 0
-1131 -1179 0
-1141 -1159 0
-1142 -1160 0
-1143 -1161 0
-1153 -1156 0
-1154 -1157 0
-1155 -1158 0
1 0
1088 0
