p cnf 1950 5785
1 2 3 0
4 5 6 0
7 8 9 0
10 11 12 0
13 14 15 0
16 17 18 0
19 20 21 0
22 23 24 0
25 26 27 0
28 29 30 0
31 32 33 0
34 35 36 0
37 38 39 0
40 41 42 0
43 44 45 0
46 47 48 0
49 50 51 0
52 53 54 0
55 56 57 0
58 59 60 0
61 62 63 0
64 65 66 0
67 68 69 0
70 71 72 0
73 74 75 0
76 77 78 0
79 80 81 0
82 83 84 0
85 86 87 0
88 89 90 0
91 92 93 0
94 95 96 0
97 98 99 0
100 101 102 0
103 104 105 0
106 107 108 0
109 110 111 0
112 113 114 0
115 116 117 0
118 119 120 0
121 122 123 0
124 125 126 0
127 128 129 0
130 131 132 0
133 134 135 0
136 137 138 0
139 140 141 0
142 143 144 0
145 146 147 0
148 149 150 0
151 152 153 0
154 155 156 0
157 158 159 0
160 161 162 0
163 164 165 0
166 167 168 0
169 170 171 0
172 173 174 0
175 176 177 0
178 179 180 0
181 182 183 0
184 185 186 0
187 188 189 0
190 191 192 0
193 194 195 0
196 197 198 0
199 200 201 0
202 203 204 0
205 206 207 0
208 209 210 0
211 212 213 0
214 215 216 0
217 218 219 0
220 221 222 0
223 224 225 0
226 227 228 0
229 230 231 0
232 233 234 0
235 236 237 0
238 239 240 0
241 242 243 0
244 245 246 0
247 248 249 0
250 251 252 0
253 254 255 0
256 257 258 0
259 260 261 0
262 263 264 0
265 266 267 0
268 269 270 0
271 272 273 0
274 275 276 0
277 278 279 0
280 281 282 0
283 284 285 0
286 287 288 0
289 290 291 0
292 293 294 0
295 296 297 0
298 299 300 0
301 302 303 0
304 305 306 0
307 308 309 0
310 311 312 0
313 314 315 0
316 317 318 0
319 320 321 0
322 323 324 0
325 326 327 0
328 329 330 0
331 332 333 0
334 335 336 0
337 338 339 0
340 341 342 0
343 344 345 0
346 347 348 0
349 350 351 0
352 353 354 0
355 356 357 0
358 359 360 0
361 362 363 0
364 365 366 0
367 368 369 0
370 371 372 0
373 374 375 0
376 377 378 0
379 380 381 0
382 383 384 0
385 386 387 0
388 389 390 0
391 392 393 0
394 395 396 0
397 398 399 0
400 401 402 0
403 404 405 0
406 407 408 0
409 410 411 0
412 413 414 0
415 416 417 0
418 419 420 0
421 422 423 0
424 425 426 0
427 428 429 0
430 431 432 0
433 434 435 0
436 437 438 0
439 440 441 0
442 443 444 0
445 446 447 0
448 449 450 0
451 452 453 0
454 455 456 0
457 458 459 0
460 461 462 0
463 464 465 0
466 467 468 0
469 470 471 0
472 473 474 0
475 476 477 0
478 479 480 0
481 482 483 0
484 485 486 0
487 488 489 0
490 491 492 0
493 494 495 0
496 497 498 0
499 500 501 0
502 503 504 0
505 506 507 0
508 509 510 0
511 512 513 0
514 515 516 0
517 518 519 0
520 521 522 0
523 524 525 0
526 527 528 0
529 530 531 0
532 533 534 0
535 536 537 0
538 539 540 0
541 542 543 0
544 545 546 0
547 548 549 0
550 551 552 0
553 554 555 0
556 557 558 0
559 560 561 0
562 563 564 0
565 566 567 0
568 569 570 0
571 572 573 0
574 575 576 0
577 578 579 0
580 581 582 0
583 584 585 0
586 587 588 0
589 590 591 0
592 593 594 0
595 596 597 0
598 599 600 0
601 602 603 0
604 605 606 0
607 608 609 0
610 611 612 0
613 614 615 0
616 617 618 0
619 620 621 0
622 623 624 0
625 626 627 0
628 629 630 0
631 632 633 0
634 635 636 0
637 638 639 0
640 641 642 0
643 644 645 0
646 647 648 0
649 650 651 0
652 653 654 0
655 656 657 0
658 659 660 0
661 662 663 0
664 665 666 0
667 668 669 0
670 671 672 0
673 674 675 0
676 677 678 0
679 680 681 0
682 683 684 0
685 686 687 0
688 689 690 0
691 692 693 0
694 695 696 0
697 698 699 0
700 701 702 0
703 704 705 0
706 707 708 0
709 710 711 0
712 713 714 0
715 716 717 0
718 719 720 0
721 722 723 0
724 725 726 0
727 728 729 0
730 731 732 0
733 734 735 0
736 737 738 0
739 740 741 0
742 743 744 0
745 746 747 0
748 749 750 0
751 752 753 0
754 755 756 0
757 758 759 0
760 761 762 0
763 764 765 0
766 767 768 0
769 770 771 0
772 773 774 0
775 776 777 0
778 779 780 0
781 782 783 0
784 785 786 0
787 788 789 0
790 791 792 0
793 794 795 0
796 797 798 0
799 800 801 0
802 803 804 0
805 806 807 0
808 809 810 0
811 812 813 0
814 815 816 0
817 818 819 0
820 821 822 0
823 824 825 0
826 827 828 0
829 830 831 0
832 833 834 0
835 836 837 0
838 839 840 0
841 842 843 0
844 845 846 0
847 848 849 0
850 851 852 0
853 854 855 0
856 857 858 0
859 860 861 0
862 863 864 0
865 866 867 0
868 869 870 0
871 872 873 0
874 875 876 0
877 878 879 0
880 881 882 0
883 884 885 0
886 887 888 0
889 890 891 0
892 893 894 0
895 896 897 0
898 899 900 0
901 902 903 0
904 905 906 0
907 908 909 0
910 911 912 0
913 914 915 0
916 917 918 0
919 920 921 0
922 923 924 0
925 926 927 0
928 929 930 0
931 932 933 0
934 935 936 0
937 938 939 0
940 941 942 0
943 944 945 0
946 947 948 0
949 950 951 0
952 953 954 0
955 956 957 0
958 959 960 0
961 962 963 0
964 965 966 0
967 968 969 0
970 971 972 0
973 974 975 0
976 977 978 0
979 980 981 0
982 983 984 0
985 986 987 0
988 989 990 0
991 992 993 0
994 995 996 0
997 998 999 0
1000 1001 1002 0
1003 1004 1005 0
1006 1007 1008 0
1009 1010 1011 0
1012 1013 1014 0
1015 1016 1017 0
1018 1019 1020 0
1021 1022 1023 0
1024 1025 1026 0
1027 1028 1029 0
1030 1031 1032 0
1033 1034 1035 0
1036 1037 1038 0
1039 1040 1041 0
1042 1043 1044 0
1045 1046 1047 0
1048 1049 1050 0
1051 1052 1053 0
1054 1055 1056 0
1057 1058 1059 0
1060 1061 1062 0
1063 1064 1065 0
1066 1067 1068 0
1069 1070 1071 0
1072 1073 1074 0
1075 1076 1077 0
1078 1079 1080 0
1081 1082 1083 0
1084 1085 1086 0
1087 1088 1089 0
1090 1091 1092 0
1093 1094 1095 0
1096 1097 1098 0
1099 1100 1101 0
1102 1103 1104 0
1105 1106 1107 0
1108 1109 1110 0
1111 1112 1113 0
1114 1115 1116 0
1117 1118 1119 0
1120 1121 1122 0
1123 1124 1125 0
1126 1127 1128 0
1129 1130 1131 0
1132 1133 1134 0
1135 1136 1137 0
1138 1139 1140 0
1141 1142 1143 0
1144 1145 1146 0
1147 1148 1149 0
1150 1151 1152 0
1153 1154 1155 0
1156 1157 1158 0
1159 1160 1161 0
1162 1163 1164 0
1165 1166 1167 0
1168 1169 1170 0
1171 1172 1173 0
1174 1175 1176 0
1177 1178 1179 0
1180 1181 1182 0
1183 1184 1185 0
1186 1187 1188 0
1189 1190 1191 0
1192 1193 1194 0
1195 1196 1197 0
1198 1199 1200 0
1201 1202 1203 0
1204 1205 1206 0
1207 1208 1209 0
1210 1211 1212 0
1213 1214 1215 0
1216 1217 1218 0
1219 1220 1221 0
1222 1223 1224 0
1225 1226 1227 0
1228 1229 1230 0
1231 1232 1233 0
1234 1235 1236 0
1237 1238 1239 0
1240 1241 1242 0
1243 1244 1245 0
1246 1247 1248 0
1249 1250 1251 0
1252 1253 1254 0
1255 1256 1257 0
1258 1259 1260 0
1261 1262 1263 0
1264 1265 1266 0
1267 1268 1269 0
1270 1271 1272 0
1273 1274 1275 0
1276 1277 1278 0
1279 1280 1281 0
1282 1283 1284 0
1285 1286 1287 0
1288 1289 1290 0
1291 1292 1293 0
1294 1295 1296 0
1297 1298 1299 0
1300 1301 1302 0
1303 1304 1305 0
1306 1307 1308 0
1309 1310 1311 0
1312 1313 1314 0
1315 1316 1317 0
1318 1319 1320 0
1321 1322 1323 0
1324 1325 1326 0
1327 1328 1329 0
1330 1331 1332 0
1333 1334 1335 0
1336 1337 1338 0
1339 1340 1341 0
1342 1343 1344 0
1345 1346 1347 0
1348 1349 1350 0
1351 1352 1353 0
1354 1355 1356 0
1357 1358 1359 0
1360 1361 1362 0
1363 1364 1365 0
1366 1367 1368 0
1369 1370 1371 0
1372 1373 1374 0
1375 1376 1377 0
1378 1379 1380 0
1381 1382 1383 0
1384 1385 1386 0
1387 1388 1389 0
1390 1391 1392 0
1393 1394 1395 0
1396 1397 1398 0
1399 1400 1401 0
1402 1403 1404 0
1405 1406 1407 0
1408 1409 1410 0
1411 1412 1413 0
1414 1415 1416 0
1417 1418 1419 0
1420 1421 1422 0
1423 1424 1425 0
1426 1427 1428 0
1429 1430 1431 0
1432 1433 1434 0
1435 1436 1437 0
1438 1439 1440 0
1441 1442 1443 0
1444 1445 1446 0
1447 1448 1449 0
1450 1451 1452 0
1453 1454 1455 0
1456 1457 1458 0
1459 1460 1461 0
1462 1463 1464 0
1465 1466 1467 0
1468 1469 1470 0
1471 1472 1473 0
1474 1475 1476 0
1477 1478 1479 0
1480 1481 1482 0
1483 1484 1485 0
1486 1487 1488 0
1489 1490 1491 0
1492 1493 1494 0
1495 1496 1497 0
1498 1499 1500 0
1501 1502 1503 0
1504 1505 1506 0
1507 1508 1509 0
1510 1511 1512 0
1513 1514 1515 0
1516 1517 1518 0
1519 1520 1521 0
1522 1523 1524 0
1525 1526 1527 0
1528 1529 1530 0
1531 1532 1533 0
1534 1535 1536 0
1537 1538 1539 0
1540 1541 1542 0
1543 1544 1545 0
1546 1547 1548 0
1549 1550 1551 0
1552 1553 1554 0
1555 1556 1557 0
1558 1559 1560 0
1561 1562 1563 0
1564 1565 1566 0
1567 1568 1569 0
1570 1571 1572 0
1573 1574 1575 0
1576 1577 1578 0
1579 1580 1581 0
1582 1583 1584 0
1585 1586 1587 0
1588 1589 1590 0
1591 1592 1593 0
1594 1595 1596 0
1597 1598 1599 0
1600 1601 1602 0
1603 1604 1605 0
1606 1607 1608 0
1609 1610 1611 0
1612 1613 1614 0
1615 1616 1617 0
1618 1619 1620 0
1621 1622 1623 0
1624 1625 1626 0
1627 1628 1629 0
1630 1631 1632 0
1633 1634 1635 0
1636 1637 1638 0
1639 1640 1641 0
1642 1643 1644 0
1645 1646 1647 0
1648 1649 1650 0
1651 1652 1653 0
1654 1655 1656 0
1657 1658 1659 0
1660 1661 1662 0
1663 1664 1665 0
1666 1667 1668 0
1669 1670 1671 0
1672 1673 1674 0
1675 1676 1677 0
1678 1679 1680 0
1681 1682 1683 0
1684 1685 1686 0
1687 1688 1689 0
1690 1691 1692 0
1693 1694 1695 0
1696 1697 1698 0
1699 1700 1701 0
1702 1703 1704 0
1705 1706 1707 0
1708 1709 1710 0
1711 1712 1713 0
1714 1715 1716 0
1717 1718 1719 0
1720 1721 1722 0
1723 1724 1725 0
1726 1727 1728 0
1729 1730 1731 0
1732 1733 1734 0
1735 1736 1737 0
1738 1739 1740 0
1741 1742 1743 0
1744 1745 1746 0
1747 1748 1749 0
1750 1751 1752 0
1753 1754 1755 0
1756 1757 1758 0
1759 1760 1761 0
1762 1763 1764 0
1765 1766 1767 0
1768 1769 1770 0
1771 1772 1773 0
1774 1775 1776 0
1777 1778 1779 0
1780 1781 1782 0
1783 1784 1785 0
1786 1787 1788 0
1789 1790 1791 0
1792 1793 1794 0
1795 1796 1797 0
1798 1799 1800 0
1801 1802 1803 0
1804 1805 1806 0
1807 1808 1809 0
1810 1811 1812 0
1813 1814 1815 0
1816 1817 1818 0
1819 1820 1821 0
1822 1823 1824 0
1825 1826 1827 0
1828 1829 1830 0
1831 1832 1833 0
1834 1835 1836 0
1837 1838 1839 0
1840 1841 1842 0
1843 1844 1845 0
1846 1847 1848 0
1849 1850 1851 0
1852 1853 1854 0
1855 1856 1857 0
1858 1859 1860 0
1861 1862 1863 0
1864 1865 1866 0
1867 1868 1869 0
1870 1871 1872 0
1873 1874 1875 0
1876 1877 1878 0
1879 1880 1881 0
1882 1883 1884 0
1885 1886 1887 0
1888 1889 1890 0
1891 1892 1893 0
1894 1895 1896 0
1897 1898 1899 0
1900 1901 1902 0
1903 1904 1905 0
1906 1907 1908 0
1909 1910 1911 0
1912 1913 1914 0
1915 1916 1917 0
1918 1919 1920 0
1921 1922 1923 0
1924 1925 1926 0
1927 1928 1929 0
1930 1931 1932 0
1933 1934 1935 0
1936 1937 1938 0
1939 1940 1941 0
1942 1943 1944 0
1945 1946 1947 0
1948 1949 1950 0
-1 -103 0
-2 -104 0
-3 -105 0
-1 -61 0
-2 -62 0
-3 -63 0
-1 -178 0
-2 -179 0
-3 -180 0
-1 -4 0
-2 -5 0
-3 -6 0
-1 -1822 0
-2 -1823 0
-3 -1824 0
-1 -46 0
-2 -47 0
-3 -48 0
-1 -10 0
-2 -11 0
-3 -12 0
-4 -133 0
-5 -134 0
-6 -135 0
-4 -1885 0
-5 -1886 0
-6 -1887 0
-7 -136 0
-8 -137 0
-9 -138 0
-7 -1882 0
-8 -1883 0
-9 -1884 0
-7 -220 0
-8 -221 0
-9 -222 0
-10 -1885 0
-11 -1886 0
-12 -1887 0
-10 -148 0
-11 -149 0
-12 -150 0
-13 -1825 0
-14 -1826 0
-15 -1827 0
-13 -160 0
-14 -161 0
-15 -162 0
-13 -214 0
-14 -215 0
-15 -216 0
-16 -1807 0
-17 -1808 0
-18 -1809 0
-16 -160 0
-17 -161 0
-18 -162 0
-16 -337 0
-17 -338 0
-18 -339 0
-19 -376 0
-20 -377 0
-21 -378 0
-19 -1810 0
-20 -1811 0
-21 -1812 0
-19 -160 0
-20 -161 0
-21 -162 0
-22 -373 0
-23 -374 0
-24 -375 0
-22 -133 0
-23 -134 0
-24 -135 0
-22 -1786 0
-23 -1787 0
-24 -1788 0
-25 -1636 0
-26 -1637 0
-27 -1638 0
-25 -562 0
-26 -563 0
-27 -564 0
-25 -238 0
-26 -239 0
-27 -240 0
-28 -1534 0
-29 -1535 0
-30 -1536 0
-28 -1537 0
-29 -1538 0
-30 -1539 0
-28 -598 0
-29 -599 0
-30 -600 0
-28 -46 0
-29 -47 0
-30 -48 0
-28 -1495 0
-29 -1496 0
-30 -1497 0
-28 -1498 0
-29 -1499 0
-30 -1500 0
-31 -1501 0
-32 -1502 0
-33 -1503 0
-31 -1531 0
-32 -1532 0
-33 -1533 0
-31 -1540 0
-32 -1541 0
-33 -1542 0
-31 -601 0
-32 -602 0
-33 -603 0
-31 -46 0
-32 -47 0
-33 -48 0
-31 -1492 0
-32 -1493 0
-33 -1494 0
-34 -1513 0
-35 -1514 0
-36 -1515 0
-34 -658 0
-35 -659 0
-36 -660 0
-34 -1555 0
-35 -1556 0
-36 -1557 0
-34 -46 0
-35 -47 0
-36 -48 0
-37 -1507 0
-38 -1508 0
-39 -1509 0
-37 -46 0
-38 -47 0
-39 -48 0
-37 -1561 0
-38 -1562 0
-39 -1563 0
-37 -1831 0
-38 -1832 0
-39 -1833 0
-37 -673 0
-38 -674 0
-39 -675 0
-40 -649 0
-41 -650 0
-42 -651 0
-40 -1852 0
-41 -1853 0
-42 -1854 0
-40 -643 0
-41 -644 0
-42 -645 0
-40 -160 0
-41 -161 0
-42 -162 0
-43 -61 0
-44 -62 0
-45 -63 0
-43 -403 0
-44 -404 0
-45 -405 0
-43 -232 0
-44 -233 0
-45 -234 0
-43 -1813 0
-44 -1814 0
-45 -1815 0
-46 -172 0
-47 -173 0
-48 -174 0
-46 -712 0
-47 -713 0
-48 -714 0
-46 -49 0
-47 -50 0
-48 -51 0
-46 -262 0
-47 -263 0
-48 -264 0
-46 -118 0
-47 -119 0
-48 -120 0
-46 -817 0
-47 -818 0
-48 -819 0
-46 -397 0
-47 -398 0
-48 -399 0
-46 -577 0
-47 -578 0
-48 -579 0
-46 -223 0
-47 -224 0
-48 -225 0
-46 -226 0
-47 -227 0
-48 -228 0
-46 -268 0
-47 -269 0
-48 -270 0
-46 -271 0
-47 -272 0
-48 -273 0
-46 -580 0
-47 -581 0
-48 -582 0
-46 -583 0
-47 -584 0
-48 -585 0
-46 -586 0
-47 -587 0
-48 -588 0
-46 -589 0
-47 -590 0
-48 -591 0
-49 -820 0
-50 -821 0
-51 -822 0
-49 -1636 0
-50 -1637 0
-51 -1638 0
-49 -1684 0
-50 -1685 0
-51 -1686 0
-49 -1687 0
-50 -1688 0
-51 -1689 0
-52 -820 0
-53 -821 0
-54 -822 0
-52 -1852 0
-53 -1853 0
-54 -1854 0
-52 -1528 0
-53 -1529 0
-54 -1530 0
-55 -1705 0
-56 -1706 0
-57 -1707 0
-55 -610 0
-56 -611 0
-57 -612 0
-55 -1651 0
-56 -1652 0
-57 -1653 0
-55 -160 0
-56 -161 0
-57 -162 0
-58 -793 0
-59 -794 0
-60 -795 0
-58 -358 0
-59 -359 0
-60 -360 0
-58 -1642 0
-59 -1643 0
-60 -1644 0
-61 -325 0
-62 -326 0
-63 -327 0
-61 -655 0
-62 -656 0
-63 -657 0
-61 -898 0
-62 -899 0
-63 -900 0
-61 -493 0
-62 -494 0
-63 -495 0
-61 -580 0
-62 -581 0
-63 -582 0
-61 -148 0
-62 -149 0
-63 -150 0
-61 -1945 0
-62 -1946 0
-63 -1947 0
-61 -1573 0
-62 -1574 0
-63 -1575 0
-64 -322 0
-65 -323 0
-66 -324 0
-64 -658 0
-65 -659 0
-66 -660 0
-64 -901 0
-65 -902 0
-66 -903 0
-64 -142 0
-65 -143 0
-66 -144 0
-64 -490 0
-65 -491 0
-66 -492 0
-64 -583 0
-65 -584 0
-66 -585 0
-64 -1576 0
-65 -1577 0
-66 -1578 0
-67 -643 0
-68 -644 0
-69 -645 0
-67 -274 0
-68 -275 0
-69 -276 0
-67 -472 0
-68 -473 0
-69 -474 0
-67 -661 0
-68 -662 0
-69 -663 0
-67 -817 0
-68 -818 0
-69 -819 0
-67 -337 0
-68 -338 0
-69 -339 0
-67 -124 0
-68 -125 0
-69 -126 0
-67 -214 0
-68 -215 0
-69 -216 0
-67 -154 0
-68 -155 0
-69 -156 0
-70 -640 0
-71 -641 0
-72 -642 0
-70 -664 0
-71 -665 0
-72 -666 0
-70 -817 0
-71 -818 0
-72 -819 0
-70 -346 0
-71 -347 0
-72 -348 0
-70 -151 0
-71 -152 0
-72 -153 0
-73 -1585 0
-74 -1586 0
-75 -1587 0
-73 -370 0
-74 -371 0
-75 -372 0
-73 -355 0
-74 -356 0
-75 -357 0
-73 -79 0
-74 -80 0
-75 -81 0
-73 -823 0
-74 -824 0
-75 -825 0
-73 -808 0
-74 -809 0
-75 -810 0
-76 -817 0
-77 -818 0
-78 -819 0
-76 -826 0
-77 -827 0
-78 -828 0
-76 -82 0
-77 -83 0
-78 -84 0
-79 -874 0
-80 -875 0
-81 -876 0
-79 -817 0
-80 -818 0
-81 -819 0
-82 -820 0
-83 -821 0
-84 -822 0
-82 -367 0
-83 -368 0
-84 -369 0
-82 -352 0
-83 -353 0
-84 -354 0
-82 -85 0
-83 -86 0
-84 -87 0
-85 -736 0
-86 -737 0
-87 -738 0
-85 -373 0
-86 -374 0
-87 -375 0
-85 -358 0
-86 -359 0
-87 -360 0
-88 -379 0
-89 -380 0
-90 -381 0
-88 -826 0
-89 -827 0
-90 -828 0
-88 -94 0
-89 -95 0
-90 -96 0
-88 -808 0
-89 -809 0
-90 -810 0
-91 -649 0
-92 -650 0
-93 -651 0
-91 -469 0
-92 -470 0
-93 -471 0
-91 -817 0
-92 -818 0
-93 -819 0
-91 -823 0
-92 -824 0
-93 -825 0
-91 -361 0
-92 -362 0
-93 -363 0
-91 -376 0
-92 -377 0
-93 -378 0
-91 -130 0
-92 -131 0
-93 -132 0
-94 -646 0
-95 -647 0
-96 -648 0
-94 -466 0
-95 -467 0
-96 -468 0
-94 -667 0
-95 -668 0
-96 -669 0
-94 -817 0
-95 -818 0
-96 -819 0
-94 -97 0
-95 -98 0
-96 -99 0
-94 -385 0
-95 -386 0
-96 -387 0
-94 -127 0
-95 -128 0
-96 -129 0
-97 -820 0
-98 -821 0
-99 -822 0
-97 -1831 0
-98 -1832 0
-99 -1833 0
-97 -1834 0
-98 -1835 0
-99 -1836 0
-100 -904 0
-101 -905 0
-102 -906 0
-100 -136 0
-101 -137 0
-102 -138 0
-100 -586 0
-101 -587 0
-102 -588 0
-100 -319 0
-101 -320 0
-102 -321 0
-100 -670 0
-101 -671 0
-102 -672 0
-100 -499 0
-101 -500 0
-102 -501 0
-100 -1948 0
-101 -1949 0
-102 -1950 0
-100 -1579 0
-101 -1580 0
-102 -1581 0
-103 -1582 0
-104 -1583 0
-105 -1584 0
-103 -907 0
-104 -908 0
-105 -909 0
-103 -133 0
-104 -134 0
-105 -135 0
-103 -316 0
-104 -317 0
-105 -318 0
-103 -589 0
-104 -590 0
-105 -591 0
-103 -496 0
-104 -497 0
-105 -498 0
-103 -673 0
-104 -674 0
-105 -675 0
-106 -838 0
-107 -839 0
-108 -840 0
-106 -373 0
-107 -374 0
-108 -375 0
-106 -1645 0
-107 -1646 0
-108 -1647 0
-109 -598 0
-110 -599 0
-111 -600 0
-109 -178 0
-110 -179 0
-111 -180 0
-109 -1699 0
-110 -1700 0
-111 -1701 0
-112 -331 0
-113 -332 0
-114 -333 0
-112 -736 0
-113 -737 0
-114 -738 0
-112 -817 0
-113 -818 0
-114 -819 0
-112 -415 0
-113 -416 0
-114 -417 0
-115 -1816 0
-116 -1817 0
-117 -1818 0
-115 -133 0
-116 -134 0
-117 -135 0
-115 -757 0
-116 -758 0
-117 -759 0
-118 -1015 0
-119 -1016 0
-120 -1017 0
-118 -1747 0
-119 -1748 0
-120 -1749 0
-118 -1750 0
-119 -1751 0
-120 -1752 0
-121 -136 0
-122 -137 0
-123 -138 0
-121 -763 0
-122 -764 0
-123 -765 0
-121 -1831 0
-122 -1832 0
-123 -1833 0
-121 -1498 0
-122 -1499 0
-123 -1500 0
-124 -1639 0
-125 -1640 0
-126 -1641 0
-124 -1654 0
-125 -1655 0
-126 -1656 0
-124 -1945 0
-125 -1946 0
-126 -1947 0
-124 -946 0
-125 -947 0
-126 -948 0
-127 -1546 0
-128 -1547 0
-129 -1548 0
-127 -1945 0
-128 -1946 0
-129 -1947 0
-127 -1573 0
-128 -1574 0
-129 -1575 0
-127 -946 0
-128 -947 0
-129 -948 0
-130 -949 0
-131 -950 0
-132 -951 0
-130 -1543 0
-131 -1544 0
-132 -1545 0
-130 -1576 0
-131 -1577 0
-132 -1578 0
-130 -1687 0
-131 -1688 0
-132 -1689 0
-133 -706 0
-134 -707 0
-135 -708 0
-133 -796 0
-134 -797 0
-135 -798 0
-133 -817 0
-134 -818 0
-135 -819 0
-133 -952 0
-134 -953 0
-135 -954 0
-133 -769 0
-134 -770 0
-135 -771 0
-133 -199 0
-134 -200 0
-135 -201 0
-133 -478 0
-134 -479 0
-135 -480 0
-133 -217 0
-134 -218 0
-135 -219 0
-133 -1027 0
-134 -1028 0
-135 -1029 0
-136 -817 0
-137 -818 0
-138 -819 0
-136 -955 0
-137 -956 0
-138 -957 0
-136 -709 0
-137 -710 0
-138 -711 0
-136 -1030 0
-137 -1031 0
-138 -1032 0
-139 -1714 0
-140 -1715 0
-141 -1716 0
-139 -148 0
-140 -149 0
-141 -150 0
-139 -808 0
-140 -809 0
-141 -810 0
-142 -1033 0
-143 -1034 0
-144 -1035 0
-142 -715 0
-143 -716 0
-144 -717 0
-142 -817 0
-143 -818 0
-144 -819 0
-142 -205 0
-143 -206 0
-144 -207 0
-142 -487 0
-143 -488 0
-144 -489 0
-145 -328 0
-146 -329 0
-147 -330 0
-145 -484 0
-146 -485 0
-147 -486 0
-145 -190 0
-146 -191 0
-147 -192 0
-145 -811 0
-146 -812 0
-147 -813 0
-148 -1036 0
-149 -1037 0
-150 -1038 0
-148 -190 0
-149 -191 0
-150 -192 0
-148 -718 0
-149 -719 0
-150 -720 0
-148 -817 0
-149 -818 0
-150 -819 0
-148 -202 0
-149 -203 0
-150 -204 0
-148 -829 0
-149 -830 0
-150 -831 0
-151 -1543 0
-152 -1544 0
-153 -1545 0
-151 -958 0
-152 -959 0
-153 -960 0
-151 -1948 0
-152 -1949 0
-153 -1950 0
-151 -1579 0
-152 -1580 0
-153 -1581 0
-154 -1582 0
-155 -1583 0
-156 -1584 0
-154 -1546 0
-155 -1547 0
-156 -1548 0
-154 -961 0
-155 -962 0
-156 -963 0
-154 -1684 0
-155 -1685 0
-156 -1686 0
-157 -1855 0
-158 -1856 0
-159 -1857 0
-157 -1531 0
-158 -1532 0
-159 -1533 0
-157 -1657 0
-158 -1658 0
-159 -1659 0
-157 -163 0
-158 -164 0
-159 -165 0
-157 -787 0
-158 -788 0
-159 -789 0
-160 -1042 0
-161 -1043 0
-162 -1044 0
-160 -817 0
-161 -818 0
-162 -819 0
-160 -208 0
-161 -209 0
-162 -210 0
-160 -211 0
-161 -212 0
-162 -213 0
-160 -964 0
-161 -965 0
-162 -966 0
-160 -970 0
-161 -971 0
-162 -972 0
-160 -973 0
-161 -974 0
-162 -975 0
-163 -166 0
-164 -167 0
-165 -168 0
-163 -433 0
-164 -434 0
-165 -435 0
-163 -508 0
-164 -509 0
-165 -510 0
-163 -817 0
-164 -818 0
-165 -819 0
-163 -967 0
-164 -968 0
-165 -969 0
-163 -976 0
-164 -977 0
-165 -978 0
-166 -841 0
-167 -842 0
-168 -843 0
-166 -1657 0
-167 -1658 0
-168 -1659 0
-166 -1696 0
-167 -1697 0
-168 -1698 0
-169 -817 0
-170 -818 0
-171 -819 0
-169 -451 0
-170 -452 0
-171 -453 0
-169 -454 0
-170 -455 0
-171 -456 0
-172 -1585 0
-173 -1586 0
-174 -1587 0
-172 -1528 0
-173 -1529 0
-174 -1530 0
-172 -1054 0
-173 -1055 0
-174 -1056 0
-172 -1651 0
-173 -1652 0
-174 -1653 0
-172 -1654 0
-173 -1655 0
-174 -1656 0
-175 -817 0
-176 -818 0
-177 -819 0
-175 -616 0
-176 -617 0
-177 -618 0
-175 -220 0
-176 -221 0
-177 -222 0
-175 -229 0
-176 -230 0
-177 -231 0
-175 -904 0
-176 -905 0
-177 -906 0
-175 -901 0
-176 -902 0
-177 -903 0
-178 -817 0
-179 -818 0
-180 -819 0
-178 -613 0
-179 -614 0
-180 -615 0
-178 -619 0
-179 -620 0
-180 -621 0
-178 -907 0
-179 -908 0
-180 -909 0
-178 -898 0
-179 -899 0
-180 -900 0
-181 -1663 0
-182 -1664 0
-183 -1665 0
-181 -1495 0
-182 -1496 0
-183 -1497 0
-181 -373 0
-182 -374 0
-183 -375 0
-181 -1828 0
-182 -1829 0
-183 -1830 0
-181 -535 0
-182 -536 0
-183 -537 0
-181 -1684 0
-182 -1685 0
-183 -1686 0
-184 -1501 0
-185 -1502 0
-186 -1503 0
-184 -553 0
-185 -554 0
-186 -555 0
-184 -358 0
-185 -359 0
-186 -360 0
-184 -1789 0
-185 -1790 0
-186 -1791 0
-184 -1660 0
-185 -1661 0
-186 -1662 0
-184 -1687 0
-185 -1688 0
-186 -1689 0
-187 -1813 0
-188 -1814 0
-189 -1815 0
-187 -673 0
-188 -674 0
-189 -675 0
-187 -232 0
-188 -233 0
-189 -234 0
-190 -916 0
-191 -917 0
-192 -918 0
-193 -691 0
-194 -692 0
-195 -693 0
-193 -1675 0
-194 -1676 0
-195 -1677 0
-193 -238 0
-194 -239 0
-195 -240 0
-193 -1678 0
-194 -1679 0
-195 -1680 0
-196 -1666 0
-197 -1667 0
-198 -1668 0
-196 -697 0
-197 -698 0
-198 -699 0
-196 -238 0
-197 -239 0
-198 -240 0
-196 -1681 0
-197 -1682 0
-198 -1683 0
-199 -1501 0
-200 -1502 0
-201 -1503 0
-199 -949 0
-200 -950 0
-201 -951 0
-199 -1858 0
-200 -1859 0
-201 -1860 0
-202 -1561 0
-203 -1562 0
-204 -1563 0
-202 -958 0
-203 -959 0
-204 -960 0
-202 -1492 0
-203 -1493 0
-204 -1494 0
-205 -1558 0
-206 -1559 0
-207 -1560 0
-205 -1861 0
-206 -1862 0
-207 -1863 0
-205 -961 0
-206 -962 0
-207 -963 0
-205 -1495 0
-206 -1496 0
-207 -1497 0
-208 -1810 0
-209 -1811 0
-210 -1812 0
-208 -949 0
-209 -950 0
-210 -951 0
-211 -1807 0
-212 -1808 0
-213 -1809 0
-211 -961 0
-212 -962 0
-213 -963 0
-214 -964 0
-215 -965 0
-216 -966 0
-214 -1054 0
-215 -1055 0
-216 -1056 0
-217 -1516 0
-218 -1517 0
-219 -1518 0
-217 -1015 0
-218 -1016 0
-219 -1017 0
-217 -1873 0
-218 -1874 0
-219 -1875 0
-220 -1756 0
-221 -1757 0
-222 -1758 0
-220 -949 0
-221 -950 0
-222 -951 0
-220 -1030 0
-221 -1031 0
-222 -1032 0
-223 -1033 0
-224 -1034 0
-225 -1035 0
-223 -1027 0
-224 -1028 0
-225 -1029 0
-223 -1162 0
-224 -1163 0
-225 -1164 0
-223 -310 0
-224 -311 0
-225 -312 0
-223 -313 0
-224 -314 0
-225 -315 0
-226 -1036 0
-227 -1037 0
-228 -1038 0
-226 -1030 0
-227 -1031 0
-228 -1032 0
-226 -1528 0
-227 -1529 0
-228 -1530 0
-226 -562 0
-227 -563 0
-228 -564 0
-226 -1165 0
-227 -1166 0
-228 -1167 0
-226 -307 0
-227 -308 0
-228 -309 0
-229 -1756 0
-230 -1757 0
-231 -1758 0
-229 -1033 0
-230 -1034 0
-231 -1035 0
-229 -958 0
-230 -959 0
-231 -960 0
-232 -997 0
-233 -998 0
-234 -999 0
-232 -1000 0
-233 -1001 0
-234 -1002 0
-232 -817 0
-233 -818 0
-234 -819 0
-232 -319 0
-233 -320 0
-234 -321 0
-232 -325 0
-233 -326 0
-234 -327 0
-235 -1738 0
-236 -1739 0
-237 -1740 0
-235 -1609 0
-236 -1610 0
-237 -1611 0
-235 -1792 0
-236 -1793 0
-237 -1794 0
-235 -1825 0
-236 -1826 0
-237 -1827 0
-235 -808 0
-236 -809 0
-237 -810 0
-235 -238 0
-236 -239 0
-237 -240 0
-235 -1666 0
-236 -1667 0
-237 -1668 0
-238 -241 0
-239 -242 0
-240 -243 0
-238 -1003 0
-239 -1004 0
-240 -1005 0
-238 -1006 0
-239 -1007 0
-240 -1008 0
-238 -817 0
-239 -818 0
-240 -819 0
-238 -1171 0
-239 -1172 0
-240 -1173 0
-238 -316 0
-239 -317 0
-240 -318 0
-238 -322 0
-239 -323 0
-240 -324 0
-238 -1111 0
-239 -1112 0
-240 -1113 0
-238 -1150 0
-239 -1151 0
-240 -1152 0
-241 -820 0
-242 -821 0
-243 -822 0
-241 -1795 0
-242 -1796 0
-243 -1797 0
-241 -1798 0
-242 -1799 0
-243 -1800 0
-241 -1804 0
-242 -1805 0
-243 -1806 0
-244 -1663 0
-245 -1664 0
-246 -1665 0
-244 -820 0
-245 -821 0
-246 -822 0
-244 -1567 0
-245 -1568 0
-246 -1569 0
-244 -1681 0
-245 -1682 0
-246 -1683 0
-247 -820 0
-248 -821 0
-249 -822 0
-247 -1570 0
-248 -1571 0
-249 -1572 0
-247 -1678 0
-248 -1679 0
-249 -1680 0
-247 -1660 0
-248 -1661 0
-249 -1662 0
-250 -655 0
-251 -656 0
-252 -657 0
-250 -373 0
-251 -374 0
-252 -375 0
-250 -1867 0
-251 -1868 0
-252 -1869 0
-250 -1828 0
-251 -1829 0
-252 -1830 0
-250 -1885 0
-251 -1886 0
-252 -1887 0
-253 -364 0
-254 -365 0
-255 -366 0
-253 -658 0
-254 -659 0
-255 -660 0
-253 -1870 0
-254 -1871 0
-255 -1872 0
-253 -1882 0
-254 -1883 0
-255 -1884 0
-256 -358 0
-257 -359 0
-258 -360 0
-256 -1870 0
-257 -1871 0
-258 -1872 0
-256 -1882 0
-257 -1883 0
-258 -1884 0
-256 -670 0
-257 -671 0
-258 -672 0
-259 -349 0
-260 -350 0
-261 -351 0
-259 -1867 0
-260 -1868 0
-261 -1869 0
-259 -1885 0
-260 -1886 0
-261 -1887 0
-259 -673 0
-260 -674 0
-261 -675 0
-262 -1507 0
-263 -1508 0
-264 -1509 0
-262 -1588 0
-263 -1589 0
-264 -1590 0
-262 -1702 0
-263 -1703 0
-264 -1704 0
-265 -817 0
-266 -818 0
-267 -819 0
-265 -280 0
-266 -281 0
-267 -282 0
-265 -283 0
-266 -284 0
-267 -285 0
-268 -1198 0
-269 -1199 0
-270 -1200 0
-268 -1603 0
-269 -1604 0
-270 -1605 0
-268 -1831 0
-269 -1832 0
-270 -1833 0
-268 -1498 0
-269 -1499 0
-270 -1500 0
-271 -1501 0
-272 -1502 0
-273 -1503 0
-271 -1606 0
-272 -1607 0
-273 -1608 0
-271 -1687 0
-272 -1688 0
-273 -1689 0
-274 -1723 0
-275 -1724 0
-276 -1725 0
-274 -1690 0
-275 -1691 0
-276 -1692 0
-274 -1165 0
-275 -1166 0
-276 -1167 0
-277 -1603 0
-278 -1604 0
-279 -1605 0
-277 -694 0
-278 -695 0
-279 -696 0
-277 -403 0
-278 -404 0
-279 -405 0
-277 -1894 0
-278 -1895 0
-279 -1896 0
-280 -1756 0
-281 -1757 0
-282 -1758 0
-280 -853 0
-281 -854 0
-282 -855 0
-280 -445 0
-281 -446 0
-282 -447 0
-283 -1756 0
-284 -1757 0
-285 -1758 0
-283 -856 0
-284 -857 0
-285 -858 0
-283 -457 0
-284 -458 0
-285 -459 0
-286 -772 0
-287 -773 0
-288 -774 0
-286 -1888 0
-287 -1889 0
-288 -1890 0
-286 -289 0
-287 -290 0
-288 -291 0
-286 -535 0
-287 -536 0
-288 -537 0
-289 -430 0
-290 -431 0
-291 -432 0
-289 -541 0
-290 -542 0
-291 -543 0
-289 -781 0
-290 -782 0
-291 -783 0
-289 -298 0
-290 -299 0
-291 -300 0
-292 -451 0
-293 -452 0
-294 -453 0
-292 -727 0
-293 -728 0
-294 -729 0
-292 -412 0
-293 -413 0
-294 -414 0
-292 -1906 0
-293 -1907 0
-294 -1908 0
-292 -1090 0
-293 -1091 0
-294 -1092 0
-292 -751 0
-293 -752 0
-294 -753 0
-295 -817 0
-296 -818 0
-297 -819 0
-295 -532 0
-296 -533 0
-297 -534 0
-295 -1099 0
-296 -1100 0
-297 -1101 0
-295 -979 0
-296 -980 0
-297 -981 0
-298 -436 0
-299 -437 0
-300 -438 0
-298 -817 0
-299 -818 0
-300 -819 0
-298 -1102 0
-299 -1103 0
-300 -1104 0
-298 -421 0
-299 -422 0
-300 -423 0
-298 -559 0
-299 -560 0
-300 -561 0
-301 -1093 0
-302 -1094 0
-303 -1095 0
-301 -748 0
-302 -749 0
-303 -750 0
-301 -1909 0
-302 -1910 0
-303 -1911 0
-301 -406 0
-302 -407 0
-303 -408 0
-301 -730 0
-302 -731 0
-303 -732 0
-301 -454 0
-302 -455 0
-303 -456 0
-301 -394 0
-302 -395 0
-303 -396 0
-304 -1096 0
-305 -1097 0
-306 -1098 0
-304 -745 0
-305 -746 0
-306 -747 0
-304 -1912 0
-305 -1913 0
-306 -1914 0
-304 -409 0
-305 -410 0
-306 -411 0
-304 -391 0
-305 -392 0
-306 -393 0
-304 -733 0
-305 -734 0
-306 -735 0
-307 -418 0
-308 -419 0
-309 -420 0
-307 -658 0
-308 -659 0
-309 -660 0
-307 -1276 0
-308 -1277 0
-309 -1278 0
-310 -655 0
-311 -656 0
-312 -657 0
-310 -1858 0
-311 -1859 0
-312 -1860 0
-310 -1279 0
-311 -1280 0
-312 -1281 0
-313 -1861 0
-314 -1862 0
-315 -1863 0
-313 -670 0
-314 -671 0
-315 -672 0
-316 -1588 0
-317 -1589 0
-318 -1590 0
-316 -1762 0
-317 -1763 0
-318 -1764 0
-316 -1795 0
-317 -1796 0
-318 -1797 0
-316 -424 0
-317 -425 0
-318 -426 0
-316 -1267 0
-317 -1268 0
-318 -1269 0
-316 -1681 0
-317 -1682 0
-318 -1683 0
-316 -946 0
-317 -947 0
-318 -948 0
-319 -949 0
-320 -950 0
-321 -951 0
-319 -1591 0
-320 -1592 0
-321 -1593 0
-319 -1264 0
-320 -1265 0
-321 -1266 0
-322 -1594 0
-323 -1595 0
-324 -1596 0
-322 -1759 0
-323 -1760 0
-324 -1761 0
-322 -1117 0
-323 -1118 0
-324 -1119 0
-322 -1273 0
-323 -1274 0
-324 -1275 0
-322 -958 0
-323 -959 0
-324 -960 0
-322 -1798 0
-323 -1799 0
-324 -1800 0
-322 -424 0
-323 -425 0
-324 -426 0
-322 -1678 0
-323 -1679 0
-324 -1680 0
-325 -1597 0
-326 -1598 0
-327 -1599 0
-325 -1114 0
-326 -1115 0
-327 -1116 0
-325 -1270 0
-326 -1271 0
-327 -1272 0
-325 -961 0
-326 -962 0
-327 -963 0
-328 -1120 0
-329 -1121 0
-330 -1122 0
-328 -817 0
-329 -818 0
-330 -819 0
-328 -412 0
-329 -413 0
-330 -414 0
-331 -1609 0
-332 -1610 0
-333 -1611 0
-331 -1162 0
-332 -1163 0
-333 -1164 0
-334 -364 0
-335 -365 0
-336 -366 0
-334 -1519 0
-335 -1520 0
-336 -1521 0
-334 -1537 0
-335 -1538 0
-336 -1539 0
-334 -781 0
-335 -782 0
-336 -783 0
-337 -367 0
-338 -368 0
-339 -369 0
-337 -973 0
-338 -974 0
-339 -975 0
-337 -1546 0
-338 -1547 0
-339 -1548 0
-337 -1216 0
-338 -1217 0
-339 -1218 0
-337 -343 0
-338 -344 0
-339 -345 0
-340 -790 0
-341 -791 0
-342 -792 0
-340 -346 0
-341 -347 0
-342 -348 0
-340 -364 0
-341 -365 0
-342 -366 0
-340 -1219 0
-341 -1220 0
-342 -1221 0
-340 -1696 0
-341 -1697 0
-342 -1698 0
-343 -373 0
-344 -374 0
-345 -375 0
-343 -1801 0
-344 -1802 0
-345 -1803 0
-343 -1222 0
-344 -1223 0
-345 -1224 0
-343 -787 0
-344 -788 0
-345 -789 0
-346 -793 0
-347 -794 0
-348 -795 0
-346 -370 0
-347 -371 0
-348 -372 0
-346 -976 0
-347 -977 0
-348 -978 0
-346 -1543 0
-347 -1544 0
-348 -1545 0
-346 -1225 0
-347 -1226 0
-348 -1227 0
-349 -1201 0
-350 -1202 0
-351 -1203 0
-349 -1213 0
-350 -1214 0
-351 -1215 0
-349 -817 0
-350 -818 0
-351 -819 0
-349 -355 0
-350 -356 0
-351 -357 0
-349 -379 0
-350 -380 0
-351 -381 0
-352 -1501 0
-353 -1502 0
-354 -1503 0
-352 -1522 0
-353 -1523 0
-354 -1524 0
-352 -358 0
-353 -359 0
-354 -360 0
-352 -376 0
-353 -377 0
-354 -378 0
-352 -1204 0
-353 -1205 0
-354 -1206 0
-352 -1222 0
-353 -1223 0
-354 -1224 0
-352 -808 0
-353 -809 0
-354 -810 0
-355 -820 0
-356 -821 0
-357 -822 0
-355 -1855 0
-356 -1856 0
-357 -1857 0
-355 -1525 0
-356 -1526 0
-357 -1527 0
-355 -1207 0
-356 -1208 0
-357 -1209 0
-355 -385 0
-356 -386 0
-357 -387 0
-355 -1219 0
-356 -1220 0
-357 -1221 0
-355 -1498 0
-356 -1499 0
-357 -1500 0
-358 -1210 0
-359 -1211 0
-360 -1212 0
-358 -817 0
-359 -818 0
-360 -819 0
-358 -1306 0
-359 -1307 0
-360 -1308 0
-358 -382 0
-359 -383 0
-360 -384 0
-358 -388 0
-359 -389 0
-360 -390 0
-358 -1168 0
-359 -1169 0
-360 -1170 0
-361 -1225 0
-362 -1226 0
-363 -1227 0
-361 -1642 0
-362 -1643 0
-363 -1644 0
-364 -1240 0
-365 -1241 0
-366 -1242 0
-364 -1243 0
-365 -1244 0
-366 -1245 0
-364 -817 0
-365 -818 0
-366 -819 0
-364 -370 0
-365 -371 0
-366 -372 0
-367 -808 0
-368 -809 0
-369 -810 0
-367 -1516 0
-368 -1517 0
-369 -1518 0
-367 -373 0
-368 -374 0
-369 -375 0
-367 -1234 0
-368 -1235 0
-369 -1236 0
-367 -1246 0
-368 -1247 0
-369 -1248 0
-367 -1495 0
-368 -1496 0
-369 -1497 0
-370 -820 0
-371 -821 0
-372 -822 0
-370 -1519 0
-371 -1520 0
-372 -1521 0
-370 -1876 0
-371 -1877 0
-372 -1878 0
-370 -1231 0
-371 -1232 0
-372 -1233 0
-370 -1492 0
-371 -1493 0
-372 -1494 0
-370 -1249 0
-371 -1250 0
-372 -1251 0
-373 -1174 0
-374 -1175 0
-375 -1176 0
-373 -463 0
-374 -464 0
-375 -465 0
-373 -1252 0
-374 -1253 0
-375 -1254 0
-373 -817 0
-374 -818 0
-375 -819 0
-376 -964 0
-377 -965 0
-378 -966 0
-376 -382 0
-377 -383 0
-378 -384 0
-376 -1543 0
-377 -1544 0
-378 -1545 0
-376 -1228 0
-377 -1229 0
-378 -1230 0
-379 -385 0
-380 -386 0
-381 -387 0
-379 -1231 0
-380 -1232 0
-381 -1233 0
-379 -835 0
-380 -836 0
-381 -837 0
-382 -832 0
-383 -833 0
-384 -834 0
-382 -1234 0
-383 -1235 0
-384 -1236 0
-385 -838 0
-386 -839 0
-387 -840 0
-385 -967 0
-386 -968 0
-387 -969 0
-385 -1546 0
-386 -1547 0
-387 -1548 0
-385 -1237 0
-386 -1238 0
-387 -1239 0
-385 -1126 0
-386 -1127 0
-387 -1128 0
-388 -841 0
-389 -842 0
-390 -843 0
-388 -1522 0
-389 -1523 0
-390 -1524 0
-388 -1534 0
-389 -1535 0
-390 -1536 0
-388 -1831 0
-389 -1832 0
-390 -1833 0
-391 -427 0
-392 -428 0
-393 -429 0
-391 -817 0
-392 -818 0
-393 -819 0
-391 -511 0
-392 -512 0
-393 -513 0
-391 -439 0
-392 -440 0
-393 -441 0
-391 -1135 0
-392 -1136 0
-393 -1137 0
-394 -400 0
-395 -401 0
-396 -402 0
-394 -817 0
-395 -818 0
-396 -819 0
-394 -514 0
-395 -515 0
-396 -516 0
-394 -889 0
-395 -890 0
-396 -891 0
-394 -1138 0
-395 -1139 0
-396 -1140 0
-397 -1708 0
-398 -1709 0
-399 -1710 0
-397 -1312 0
-398 -1313 0
-399 -1314 0
-397 -1702 0
-398 -1703 0
-399 -1704 0
-400 -1582 0
-401 -1583 0
-402 -1584 0
-400 -841 0
-401 -842 0
-402 -843 0
-403 -817 0
-404 -818 0
-405 -819 0
-403 -1315 0
-404 -1316 0
-405 -1317 0
-403 -493 0
-404 -494 0
-405 -495 0
-406 -1840 0
-407 -1841 0
-408 -1842 0
-406 -886 0
-407 -887 0
-408 -888 0
-406 -865 0
-407 -866 0
-408 -867 0
-406 -1768 0
-407 -1769 0
-408 -1770 0
-406 -1699 0
-407 -1700 0
-408 -1701 0
-409 -1843 0
-410 -1844 0
-411 -1845 0
-409 -883 0
-410 -884 0
-411 -885 0
-409 -868 0
-410 -869 0
-411 -870 0
-409 -439 0
-410 -440 0
-411 -441 0
-412 -1849 0
-413 -1850 0
-414 -1851 0
-412 -892 0
-413 -893 0
-414 -894 0
-412 -862 0
-413 -863 0
-414 -864 0
-415 -1174 0
-416 -1175 0
-417 -1176 0
-415 -1228 0
-416 -1229 0
-417 -1230 0
-418 -1342 0
-419 -1343 0
-420 -1344 0
-418 -817 0
-419 -818 0
-420 -819 0
-418 -1309 0
-419 -1310 0
-420 -1311 0
-421 -475 0
-422 -476 0
-423 -477 0
-421 -652 0
-422 -653 0
-423 -654 0
-421 -1057 0
-422 -1058 0
-423 -1059 0
-421 -1009 0
-422 -1010 0
-423 -1011 0
-421 -1924 0
-422 -1925 0
-423 -1926 0
-424 -1333 0
-425 -1334 0
-426 -1335 0
-424 -1528 0
-425 -1529 0
-426 -1530 0
-427 -529 0
-428 -530 0
-429 -531 0
-427 -1789 0
-428 -1790 0
-429 -1791 0
-430 -604 0
-431 -605 0
-432 -606 0
-430 -571 0
-431 -572 0
-432 -573 0
-430 -1735 0
-431 -1736 0
-432 -1737 0
-430 -1942 0
-431 -1943 0
-432 -1944 0
-430 -1012 0
-431 -1013 0
-432 -1014 0
-430 -436 0
-431 -437 0
-432 -438 0
-433 -1537 0
-434 -1538 0
-435 -1539 0
-433 -1696 0
-434 -1697 0
-435 -1698 0
-433 -1942 0
-434 -1943 0
-435 -1944 0
-436 -1783 0
-437 -1784 0
-438 -1785 0
-436 -607 0
-437 -608 0
-438 -609 0
-439 -529 0
-440 -530 0
-441 -531 0
-439 -916 0
-440 -917 0
-441 -918 0
-442 -1513 0
-443 -1514 0
-444 -1515 0
-442 -517 0
-443 -518 0
-444 -519 0
-442 -1045 0
-443 -1046 0
-444 -1047 0
-442 -1615 0
-443 -1616 0
-444 -1617 0
-442 -598 0
-443 -599 0
-444 -600 0
-445 -1510 0
-446 -1511 0
-447 -1512 0
-445 -592 0
-446 -593 0
-447 -594 0
-445 -520 0
-446 -521 0
-447 -522 0
-445 -1048 0
-446 -1049 0
-447 -1050 0
-445 -1612 0
-446 -1613 0
-447 -1614 0
-445 -601 0
-446 -602 0
-447 -603 0
-445 -928 0
-446 -929 0
-447 -930 0
-448 -1846 0
-449 -1847 0
-450 -1848 0
-448 -1192 0
-449 -1193 0
-450 -1194 0
-448 -520 0
-449 -521 0
-450 -522 0
-448 -1891 0
-449 -1892 0
-450 -1893 0
-451 -517 0
-452 -518 0
-453 -519 0
-451 -1849 0
-452 -1850 0
-453 -1851 0
-451 -1195 0
-452 -1196 0
-453 -1197 0
-451 -931 0
-452 -932 0
-453 -933 0
-454 -1840 0
-455 -1841 0
-456 -1842 0
-454 -1198 0
-455 -1199 0
-456 -1200 0
-454 -514 0
-455 -515 0
-456 -516 0
-454 -1894 0
-455 -1895 0
-456 -1896 0
-457 -1507 0
-458 -1508 0
-459 -1509 0
-457 -595 0
-458 -596 0
-459 -597 0
-457 -1051 0
-458 -1052 0
-459 -1053 0
-457 -1621 0
-458 -1622 0
-459 -1623 0
-457 -511 0
-458 -512 0
-459 -513 0
-457 -601 0
-458 -602 0
-459 -603 0
-460 -1504 0
-461 -1505 0
-462 -1506 0
-460 -1618 0
-461 -1619 0
-462 -1620 0
-460 -598 0
-461 -599 0
-462 -600 0
-460 -514 0
-461 -515 0
-462 -516 0
-460 -943 0
-461 -944 0
-462 -945 0
-463 -1801 0
-464 -1802 0
-465 -1803 0
-463 -961 0
-464 -962 0
-465 -963 0
-466 -967 0
-467 -968 0
-468 -969 0
-466 -1201 0
-467 -1202 0
-468 -1203 0
-466 -1921 0
-467 -1922 0
-468 -1923 0
-469 -964 0
-470 -965 0
-471 -966 0
-469 -1729 0
-470 -1730 0
-471 -1731 0
-469 -1210 0
-470 -1211 0
-471 -1212 0
-469 -1549 0
-470 -1550 0
-471 -1551 0
-469 -1330 0
-470 -1331 0
-471 -1332 0
-472 -1252 0
-473 -1253 0
-474 -1254 0
-472 -973 0
-473 -974 0
-474 -975 0
-472 -1732 0
-473 -1733 0
-474 -1734 0
-472 -1552 0
-473 -1553 0
-474 -1554 0
-475 -1897 0
-476 -1898 0
-477 -1899 0
-475 -610 0
-476 -611 0
-477 -612 0
-475 -1549 0
-476 -1550 0
-477 -1551 0
-475 -1021 0
-476 -1022 0
-477 -1023 0
-475 -571 0
-476 -572 0
-477 -573 0
-478 -565 0
-479 -566 0
-480 -567 0
-478 -814 0
-479 -815 0
-480 -816 0
-478 -1258 0
-479 -1259 0
-480 -1260 0
-481 -817 0
-482 -818 0
-483 -819 0
-481 -565 0
-482 -566 0
-483 -567 0
-481 -505 0
-482 -506 0
-483 -507 0
-484 -817 0
-485 -818 0
-486 -819 0
-484 -502 0
-485 -503 0
-486 -504 0
-487 -811 0
-488 -812 0
-489 -813 0
-487 -1261 0
-488 -1262 0
-489 -1263 0
-490 -1267 0
-491 -1268 0
-492 -1269 0
-490 -958 0
-491 -959 0
-492 -960 0
-490 -1753 0
-491 -1754 0
-492 -1755 0
-493 -961 0
-494 -962 0
-495 -963 0
-493 -1624 0
-494 -1625 0
-495 -1626 0
-493 -1264 0
-494 -1265 0
-495 -1266 0
-493 -1657 0
-494 -1658 0
-495 -1659 0
-493 -1750 0
-494 -1751 0
-495 -1752 0
-496 -1273 0
-497 -1274 0
-498 -1275 0
-496 -946 0
-497 -947 0
-498 -948 0
-496 -1627 0
-497 -1628 0
-498 -1629 0
-496 -1747 0
-497 -1748 0
-498 -1749 0
-499 -949 0
-500 -950 0
-501 -951 0
-499 -1270 0
-500 -1271 0
-501 -1272 0
-499 -1630 0
-500 -1631 0
-501 -1632 0
-499 -1744 0
-500 -1745 0
-501 -1746 0
-502 -631 0
-503 -632 0
-504 -633 0
-502 -853 0
-503 -854 0
-504 -855 0
-502 -574 0
-503 -575 0
-504 -576 0
-505 -568 0
-506 -569 0
-507 -570 0
-505 -856 0
-506 -857 0
-507 -858 0
-505 -628 0
-506 -629 0
-507 -630 0
-508 -1297 0
-509 -1298 0
-510 -1299 0
-508 -1930 0
-509 -1931 0
-510 -1932 0
-511 -1288 0
-512 -1289 0
-513 -1290 0
-511 -1015 0
-512 -1016 0
-513 -1017 0
-511 -1879 0
-512 -1880 0
-513 -1881 0
-511 -1558 0
-512 -1559 0
-513 -1560 0
-511 -679 0
-512 -680 0
-513 -681 0
-514 -1291 0
-515 -1292 0
-516 -1293 0
-514 -1018 0
-515 -1019 0
-516 -1020 0
-514 -1561 0
-515 -1562 0
-516 -1563 0
-514 -1777 0
-515 -1778 0
-516 -1779 0
-514 -682 0
-515 -683 0
-516 -684 0
-517 -1018 0
-518 -1019 0
-519 -1020 0
-517 -1300 0
-518 -1301 0
-519 -1302 0
-520 -1015 0
-521 -1016 0
-522 -1017 0
-520 -1303 0
-521 -1304 0
-522 -1305 0
-520 -1555 0
-521 -1556 0
-522 -1557 0
-520 -685 0
-521 -686 0
-522 -687 0
-520 -1780 0
-521 -1781 0
-522 -1782 0
-523 -1528 0
-524 -1529 0
-525 -1530 0
-523 -1690 0
-524 -1691 0
-525 -1692 0
-523 -721 0
-524 -722 0
-525 -723 0
-526 -1528 0
-527 -1529 0
-528 -1530 0
-526 -1693 0
-527 -1694 0
-528 -1695 0
-526 -571 0
-527 -572 0
-528 -573 0
-529 -1786 0
-530 -1787 0
-531 -1788 0
-529 -1024 0
-530 -1025 0
-531 -1026 0
-529 -595 0
-530 -596 0
-531 -597 0
-532 -772 0
-533 -773 0
-534 -774 0
-532 -538 0
-533 -539 0
-534 -540 0
-532 -637 0
-533 -638 0
-534 -639 0
-532 -1060 0
-533 -1061 0
-534 -1062 0
-532 -1900 0
-533 -1901 0
-534 -1902 0
-535 -1057 0
-536 -1058 0
-537 -1059 0
-535 -817 0
-536 -818 0
-537 -819 0
-535 -541 0
-536 -542 0
-537 -543 0
-535 -700 0
-536 -701 0
-537 -702 0
-535 -547 0
-536 -548 0
-537 -549 0
-538 -550 0
-539 -551 0
-540 -552 0
-538 -1066 0
-539 -1067 0
-540 -1068 0
-538 -607 0
-539 -608 0
-540 -609 0
-538 -781 0
-539 -782 0
-540 -783 0
-538 -1837 0
-539 -1838 0
-540 -1839 0
-541 -1663 0
-542 -1664 0
-543 -1665 0
-541 -1063 0
-542 -1064 0
-543 -1065 0
-541 -559 0
-542 -560 0
-543 -561 0
-541 -1765 0
-542 -1766 0
-543 -1767 0
-541 -1567 0
-542 -1568 0
-543 -1569 0
-544 -553 0
-545 -554 0
-546 -555 0
-544 -1072 0
-545 -1073 0
-546 -1074 0
-544 -1570 0
-545 -1571 0
-546 -1572 0
-544 -1660 0
-545 -1661 0
-546 -1662 0
-547 -841 0
-548 -842 0
-549 -843 0
-547 -1069 0
-548 -1070 0
-549 -1071 0
-547 -559 0
-548 -560 0
-549 -561 0
-547 -1834 0
-548 -1835 0
-549 -1836 0
-550 -1081 0
-551 -1082 0
-552 -1083 0
-550 -817 0
-551 -818 0
-552 -819 0
-550 -556 0
-551 -557 0
-552 -558 0
-553 -817 0
-554 -818 0
-555 -819 0
-553 -703 0
-554 -704 0
-555 -705 0
-553 -1351 0
-554 -1352 0
-555 -1353 0
-556 -820 0
-557 -821 0
-558 -822 0
-556 -1498 0
-557 -1499 0
-558 -1500 0
-556 -1837 0
-557 -1838 0
-558 -1839 0
-559 -1078 0
-560 -1079 0
-561 -1080 0
-559 -652 0
-560 -653 0
-561 -654 0
-559 -1159 0
-560 -1160 0
-561 -1161 0
-559 -1900 0
-560 -1901 0
-561 -1902 0
-562 -1372 0
-563 -1373 0
-564 -1374 0
-562 -1150 0
-563 -1151 0
-564 -1152 0
-562 -658 0
-563 -659 0
-564 -660 0
-562 -673 0
-563 -674 0
-564 -675 0
-565 -922 0
-566 -923 0
-567 -924 0
-568 -1132 0
-569 -1133 0
-570 -1134 0
-568 -988 0
-569 -989 0
-570 -990 0
-568 -1711 0
-569 -1712 0
-570 -1713 0
-568 -757 0
-569 -758 0
-570 -759 0
-568 -1816 0
-569 -1817 0
-570 -1818 0
-568 -595 0
-569 -596 0
-570 -597 0
-571 -817 0
-572 -818 0
-573 -819 0
-571 -1357 0
-572 -1358 0
-573 -1359 0
-574 -1144 0
-575 -1145 0
-576 -1146 0
-574 -592 0
-575 -593 0
-576 -594 0
-574 -1714 0
-575 -1715 0
-576 -1716 0
-574 -760 0
-575 -761 0
-576 -762 0
-574 -985 0
-575 -986 0
-576 -987 0
-577 -1585 0
-578 -1586 0
-579 -1587 0
-577 -1636 0
-578 -1637 0
-579 -1638 0
-577 -1387 0
-578 -1388 0
-579 -1389 0
-580 -1399 0
-581 -1400 0
-582 -1401 0
-580 -1597 0
-581 -1598 0
-582 -1599 0
-580 -1030 0
-581 -1031 0
-582 -1032 0
-580 -1603 0
-581 -1604 0
-582 -1605 0
-580 -1531 0
-581 -1532 0
-582 -1533 0
-580 -718 0
-581 -719 0
-582 -720 0
-580 -1555 0
-581 -1556 0
-582 -1557 0
-580 -1342 0
-581 -1343 0
-582 -1344 0
-583 -1027 0
-584 -1028 0
-585 -1029 0
-583 -1594 0
-584 -1595 0
-585 -1596 0
-583 -1402 0
-584 -1403 0
-585 -1404 0
-583 -1606 0
-584 -1607 0
-585 -1608 0
-583 -1534 0
-584 -1535 0
-585 -1536 0
-583 -715 0
-584 -716 0
-585 -717 0
-583 -1345 0
-584 -1346 0
-585 -1347 0
-586 -1591 0
-587 -1592 0
-588 -1593 0
-586 -1036 0
-587 -1037 0
-588 -1038 0
-586 -1537 0
-587 -1538 0
-588 -1539 0
-586 -1561 0
-587 -1562 0
-588 -1563 0
-586 -1342 0
-587 -1343 0
-588 -1344 0
-586 -709 0
-587 -710 0
-588 -711 0
-589 -1558 0
-590 -1559 0
-591 -1560 0
-589 -1588 0
-590 -1589 0
-591 -1590 0
-589 -1033 0
-590 -1034 0
-591 -1035 0
-589 -1600 0
-590 -1601 0
-591 -1602 0
-589 -1540 0
-590 -1541 0
-591 -1542 0
-589 -1408 0
-590 -1409 0
-591 -1410 0
-589 -706 0
-590 -707 0
-591 -708 0
-589 -1345 0
-590 -1346 0
-591 -1347 0
-592 -817 0
-593 -818 0
-594 -819 0
-592 -1153 0
-593 -1154 0
-594 -1155 0
-595 -1156 0
-596 -1157 0
-597 -1158 0
-595 -817 0
-596 -818 0
-597 -819 0
-598 -910 0
-599 -911 0
-600 -912 0
-598 -1090 0
-599 -1091 0
-600 -1092 0
-598 -1093 0
-599 -1094 0
-600 -1095 0
-598 -817 0
-599 -818 0
-600 -819 0
-598 -682 0
-599 -683 0
-600 -684 0
-601 -685 0
-602 -686 0
-603 -687 0
-601 -1087 0
-602 -1088 0
-603 -1089 0
-601 -1096 0
-602 -1097 0
-603 -1098 0
-601 -817 0
-602 -818 0
-603 -819 0
-601 -679 0
-602 -680 0
-603 -681 0
-604 -1369 0
-605 -1370 0
-606 -1371 0
-604 -913 0
-605 -914 0
-606 -915 0
-604 -817 0
-605 -818 0
-606 -819 0
-604 -607 0
-605 -608 0
-606 -609 0
-607 -841 0
-608 -842 0
-609 -843 0
-607 -937 0
-608 -938 0
-609 -939 0
-607 -1915 0
-608 -1916 0
-609 -1917 0
-610 -1159 0
-611 -1160 0
-612 -1161 0
-610 -817 0
-611 -818 0
-612 -819 0
-613 -1333 0
-614 -1334 0
-615 -1335 0
-613 -1849 0
-614 -1850 0
-615 -1851 0
-613 -1516 0
-614 -1517 0
-615 -1518 0
-613 -1627 0
-614 -1628 0
-615 -1629 0
-616 -1846 0
-617 -1847 0
-618 -1848 0
-616 -1339 0
-617 -1340 0
-618 -1341 0
-616 -1519 0
-617 -1520 0
-618 -1521 0
-616 -1630 0
-617 -1631 0
-618 -1632 0
-619 -1840 0
-620 -1841 0
-621 -1842 0
-619 -1339 0
-620 -1340 0
-621 -1341 0
-619 -1525 0
-620 -1526 0
-621 -1527 0
-619 -1624 0
-620 -1625 0
-621 -1626 0
-619 -1699 0
-620 -1700 0
-621 -1701 0
-622 -733 0
-623 -734 0
-624 -735 0
-622 -721 0
-623 -722 0
-624 -723 0
-622 -1555 0
-623 -1556 0
-624 -1557 0
-622 -685 0
-623 -686 0
-624 -687 0
-625 -724 0
-626 -725 0
-627 -726 0
-625 -679 0
-626 -680 0
-627 -681 0
-625 -1558 0
-626 -1559 0
-627 -1560 0
-628 -1507 0
-629 -1508 0
-630 -1509 0
-628 -757 0
-629 -758 0
-630 -759 0
-628 -868 0
-629 -869 0
-630 -870 0
-628 -1051 0
-629 -1052 0
-630 -1053 0
-628 -697 0
-629 -698 0
-630 -699 0
-628 -1702 0
-629 -1703 0
-630 -1704 0
-631 -1708 0
-632 -1709 0
-633 -1710 0
-631 -1510 0
-632 -1511 0
-633 -1512 0
-631 -1048 0
-632 -1049 0
-633 -1050 0
-631 -688 0
-632 -689 0
-633 -690 0
-631 -760 0
-632 -761 0
-633 -762 0
-631 -859 0
-632 -860 0
-633 -861 0
-634 -1705 0
-635 -1706 0
-636 -1707 0
-634 -1513 0
-635 -1514 0
-636 -1515 0
-634 -862 0
-635 -863 0
-636 -864 0
-634 -1045 0
-635 -1046 0
-636 -1047 0
-634 -691 0
-635 -692 0
-636 -693 0
-634 -763 0
-635 -764 0
-636 -765 0
-634 -739 0
-635 -740 0
-636 -741 0
-637 -1297 0
-638 -1298 0
-639 -1299 0
-637 -1939 0
-638 -1940 0
-639 -1941 0
-637 -1741 0
-638 -1742 0
-639 -1743 0
-640 -1381 0
-641 -1382 0
-642 -1383 0
-640 -1672 0
-641 -1673 0
-642 -1674 0
-640 -1240 0
-641 -1241 0
-642 -1242 0
-640 -967 0
-641 -968 0
-642 -969 0
-643 -1252 0
-644 -1253 0
-645 -1254 0
-643 -1387 0
-644 -1388 0
-645 -1389 0
-643 -1720 0
-644 -1721 0
-645 -1722 0
-643 -1765 0
-644 -1766 0
-645 -1767 0
-643 -1675 0
-644 -1676 0
-645 -1677 0
-643 -964 0
-644 -965 0
-645 -966 0
-643 -1567 0
-644 -1568 0
-645 -1569 0
-646 -1381 0
-647 -1382 0
-648 -1383 0
-646 -976 0
-647 -977 0
-648 -978 0
-646 -1201 0
-647 -1202 0
-648 -1203 0
-646 -1669 0
-647 -1670 0
-648 -1671 0
-646 -1126 0
-647 -1127 0
-648 -1128 0
-649 -1387 0
-650 -1388 0
-651 -1389 0
-649 -973 0
-650 -974 0
-651 -975 0
-649 -1717 0
-650 -1718 0
-651 -1719 0
-649 -1210 0
-650 -1211 0
-651 -1212 0
-649 -1570 0
-650 -1571 0
-651 -1572 0
-652 -1294 0
-653 -1295 0
-654 -1296 0
-652 -1567 0
-653 -1568 0
-654 -1569 0
-655 -1114 0
-656 -1115 0
-657 -1116 0
-655 -1264 0
-656 -1265 0
-657 -1266 0
-655 -817 0
-656 -818 0
-657 -819 0
-655 -1393 0
-656 -1394 0
-657 -1395 0
-658 -1117 0
-659 -1118 0
-660 -1119 0
-658 -1267 0
-659 -1268 0
-660 -1269 0
-658 -817 0
-659 -818 0
-660 -819 0
-658 -766 0
-659 -767 0
-660 -768 0
-658 -1396 0
-659 -1397 0
-660 -1398 0
-661 -1582 0
-662 -1583 0
-663 -1584 0
-661 -1399 0
-662 -1400 0
-663 -1401 0
-661 -1639 0
-662 -1640 0
-663 -1641 0
-664 -1402 0
-665 -1403 0
-666 -1404 0
-664 -1642 0
-665 -1643 0
-666 -1644 0
-664 -1579 0
-665 -1580 0
-666 -1581 0
-667 -1864 0
-668 -1865 0
-669 -1866 0
-667 -1645 0
-668 -1646 0
-669 -1647 0
-667 -1408 0
-668 -1409 0
-669 -1410 0
-667 -1573 0
-668 -1574 0
-669 -1575 0
-670 -1270 0
-671 -1271 0
-672 -1272 0
-670 -1354 0
-671 -1355 0
-672 -1356 0
-670 -817 0
-671 -818 0
-672 -819 0
-673 -1411 0
-674 -1412 0
-675 -1413 0
-673 -1273 0
-674 -1274 0
-675 -1275 0
-673 -817 0
-674 -818 0
-675 -819 0
-676 -1585 0
-677 -1586 0
-678 -1587 0
-676 -856 0
-677 -857 0
-678 -858 0
-676 -1654 0
-677 -1655 0
-678 -1656 0
-679 -1132 0
-680 -1133 0
-681 -1134 0
-679 -1918 0
-680 -1919 0
-681 -1920 0
-682 -880 0
-683 -881 0
-684 -882 0
-682 -1129 0
-683 -1130 0
-684 -1131 0
-682 -1903 0
-683 -1904 0
-684 -1905 0
-685 -1144 0
-686 -1145 0
-687 -1146 0
-685 -742 0
-686 -743 0
-687 -744 0
-685 -895 0
-686 -896 0
-687 -897 0
-688 -814 0
-689 -815 0
-690 -816 0
-688 -817 0
-689 -818 0
-690 -819 0
-688 -754 0
-689 -755 0
-690 -756 0
-691 -844 0
-692 -845 0
-693 -846 0
-691 -817 0
-692 -818 0
-693 -819 0
-691 -751 0
-692 -752 0
-693 -753 0
-691 -877 0
-692 -878 0
-693 -879 0
-694 -811 0
-695 -812 0
-696 -813 0
-694 -748 0
-695 -749 0
-696 -750 0
-694 -817 0
-695 -818 0
-696 -819 0
-697 -745 0
-698 -746 0
-699 -747 0
-697 -817 0
-698 -818 0
-699 -819 0
-697 -847 0
-698 -848 0
-699 -849 0
-700 -1018 0
-701 -1019 0
-702 -1020 0
-700 -1546 0
-701 -1547 0
-702 -1548 0
-700 -1684 0
-701 -1685 0
-702 -1686 0
-703 -1015 0
-704 -1016 0
-705 -1017 0
-703 -1543 0
-704 -1544 0
-705 -1545 0
-703 -1633 0
-704 -1634 0
-705 -1635 0
-703 -1687 0
-704 -1688 0
-705 -1689 0
-706 -1507 0
-707 -1508 0
-708 -1509 0
-706 -1360 0
-707 -1361 0
-708 -1362 0
-706 -1933 0
-707 -1934 0
-708 -1935 0
-706 -1429 0
-707 -1430 0
-708 -1431 0
-709 -1504 0
-710 -1505 0
-711 -1506 0
-709 -1363 0
-710 -1364 0
-711 -1365 0
-709 -1432 0
-710 -1433 0
-711 -1434 0
-712 -1822 0
-713 -1823 0
-714 -1824 0
-712 -1462 0
-713 -1463 0
-714 -1464 0
-712 -1819 0
-713 -1820 0
-714 -1821 0
-715 -1513 0
-716 -1514 0
-717 -1515 0
-715 -1363 0
-716 -1364 0
-717 -1365 0
-715 -1465 0
-716 -1466 0
-717 -1467 0
-718 -1510 0
-719 -1511 0
-720 -1512 0
-718 -1360 0
-719 -1361 0
-720 -1362 0
-718 -1468 0
-719 -1469 0
-720 -1470 0
-721 -817 0
-722 -818 0
-723 -819 0
-721 -928 0
-722 -929 0
-723 -930 0
-724 -1180 0
-725 -1181 0
-726 -1182 0
-724 -859 0
-725 -860 0
-726 -861 0
-724 -817 0
-725 -818 0
-726 -819 0
-727 -1177 0
-728 -1178 0
-729 -1179 0
-727 -862 0
-728 -863 0
-729 -864 0
-727 -817 0
-728 -818 0
-729 -819 0
-727 -931 0
-728 -932 0
-729 -933 0
-730 -1186 0
-731 -1187 0
-732 -1188 0
-730 -817 0
-731 -818 0
-732 -819 0
-730 -865 0
-731 -866 0
-732 -867 0
-733 -742 0
-734 -743 0
-735 -744 0
-733 -1183 0
-734 -1184 0
-735 -1185 0
-733 -817 0
-734 -818 0
-735 -819 0
-733 -868 0
-734 -869 0
-735 -870 0
-736 -1174 0
-737 -1175 0
-738 -1176 0
-736 -1387 0
-737 -1388 0
-738 -1389 0
-736 -1609 0
-737 -1610 0
-738 -1611 0
-736 -1168 0
-737 -1169 0
-738 -1170 0
-739 -1903 0
-740 -1904 0
-741 -1905 0
-739 -922 0
-740 -923 0
-741 -924 0
-739 -751 0
-740 -752 0
-741 -753 0
-742 -856 0
-743 -857 0
-744 -858 0
-745 -988 0
-746 -989 0
-747 -990 0
-745 -883 0
-746 -884 0
-747 -885 0
-745 -1183 0
-746 -1184 0
-747 -1185 0
-748 -991 0
-749 -992 0
-750 -993 0
-748 -886 0
-749 -887 0
-750 -888 0
-748 -1186 0
-749 -1187 0
-750 -1188 0
-748 -1669 0
-749 -1670 0
-750 -1671 0
-751 -1177 0
-752 -1178 0
-753 -1179 0
-751 -892 0
-752 -893 0
-753 -894 0
-751 -1675 0
-752 -1676 0
-753 -1677 0
-751 -982 0
-752 -983 0
-753 -984 0
-754 -1180 0
-755 -1181 0
-756 -1182 0
-754 -1672 0
-755 -1673 0
-756 -1674 0
-754 -985 0
-755 -986 0
-756 -987 0
-757 -817 0
-758 -818 0
-759 -819 0
-760 -817 0
-761 -818 0
-762 -819 0
-763 -817 0
-764 -818 0
-765 -819 0
-763 -871 0
-764 -872 0
-765 -873 0
-766 -1897 0
-767 -1898 0
-768 -1899 0
-766 -1717 0
-767 -1718 0
-768 -1719 0
-766 -922 0
-767 -923 0
-768 -924 0
-769 -1933 0
-770 -1934 0
-771 -1935 0
-769 -1375 0
-770 -1376 0
-771 -1377 0
-772 -1285 0
-773 -1286 0
-774 -1287 0
-772 -1057 0
-773 -1058 0
-774 -1059 0
-772 -781 0
-773 -782 0
-774 -783 0
-775 -1516 0
-776 -1517 0
-777 -1518 0
-775 -1612 0
-776 -1613 0
-777 -1614 0
-775 -808 0
-776 -809 0
-777 -810 0
-778 -1771 0
-779 -1772 0
-780 -1773 0
-778 -781 0
-779 -782 0
-780 -783 0
-778 -1741 0
-779 -1742 0
-780 -1743 0
-778 -808 0
-779 -809 0
-780 -810 0
-781 -784 0
-782 -785 0
-783 -786 0
-781 -802 0
-782 -803 0
-783 -804 0
-781 -1012 0
-782 -1013 0
-783 -1014 0
-781 -1063 0
-782 -1064 0
-783 -1065 0
-781 -817 0
-782 -818 0
-783 -819 0
-781 -1189 0
-782 -1190 0
-783 -1191 0
-781 -937 0
-782 -938 0
-783 -939 0
-784 -820 0
-785 -821 0
-786 -822 0
-784 -1519 0
-785 -1520 0
-786 -1521 0
-784 -1600 0
-785 -1601 0
-786 -1602 0
-784 -1615 0
-785 -1616 0
-786 -1617 0
-784 -1837 0
-785 -1838 0
-786 -1839 0
-787 -1207 0
-788 -1208 0
-789 -1209 0
-787 -817 0
-788 -818 0
-789 -819 0
-787 -1378 0
-788 -1379 0
-789 -1380 0
-790 -793 0
-791 -794 0
-792 -795 0
-790 -1204 0
-791 -1205 0
-792 -1206 0
-790 -817 0
-791 -818 0
-792 -819 0
-793 -820 0
-794 -821 0
-795 -822 0
-793 -1426 0
-794 -1427 0
-795 -1428 0
-793 -1210 0
-794 -1211 0
-795 -1212 0
-796 -1399 0
-797 -1400 0
-798 -1401 0
-796 -1909 0
-797 -1910 0
-798 -1911 0
-796 -1711 0
-797 -1712 0
-798 -1713 0
-799 -1936 0
-800 -1937 0
-801 -1938 0
-799 -1672 0
-800 -1673 0
-801 -1674 0
-799 -832 0
-800 -833 0
-801 -834 0
-802 -1939 0
-803 -1940 0
-804 -1941 0
-802 -1675 0
-803 -1676 0
-804 -1677 0
-802 -1930 0
-803 -1931 0
-804 -1932 0
-802 -835 0
-803 -836 0
-804 -837 0
-805 -1441 0
-806 -1442 0
-807 -1443 0
-805 -1825 0
-806 -1826 0
-807 -1827 0
-805 -1213 0
-806 -1214 0
-807 -1215 0
-805 -808 0
-806 -809 0
-807 -810 0
-808 -1231 0
-809 -1232 0
-810 -1233 0
-808 -1327 0
-809 -1328 0
-810 -1329 0
-808 -1444 0
-809 -1445 0
-810 -1446 0
-808 -1456 0
-809 -1457 0
-810 -1458 0
-808 -1219 0
-809 -1220 0
-810 -1221 0
-808 -817 0
-809 -818 0
-810 -819 0
-808 -1384 0
-809 -1385 0
-810 -1386 0
-811 -916 0
-812 -917 0
-813 -918 0
-811 -1120 0
-812 -1121 0
-813 -1122 0
-814 -922 0
-815 -923 0
-816 -924 0
-817 -1294 0
-818 -1295 0
-819 -1296 0
-817 -1399 0
-818 -1400 0
-819 -1401 0
-817 -1402 0
-818 -1403 0
-819 -1404 0
-817 -1297 0
-818 -1298 0
-819 -1299 0
-817 -1408 0
-818 -1409 0
-819 -1410 0
-817 -856 0
-818 -857 0
-819 -858 0
-817 -1216 0
-818 -1217 0
-819 -1218 0
-817 -892 0
-818 -893 0
-819 -894 0
-817 -895 0
-818 -896 0
-819 -897 0
-817 -1228 0
-818 -1229 0
-819 -1230 0
-817 -1237 0
-818 -1238 0
-819 -1239 0
-817 -1330 0
-818 -1331 0
-819 -1332 0
-817 -1312 0
-818 -1313 0
-819 -1314 0
-817 -1477 0
-818 -1478 0
-819 -1479 0
-817 -1435 0
-818 -1436 0
-819 -1437 0
-817 -1438 0
-818 -1439 0
-819 -1440 0
-817 -1360 0
-818 -1361 0
-819 -1362 0
-817 -1363 0
-818 -1364 0
-819 -1365 0
-817 -1447 0
-818 -1448 0
-819 -1449 0
-817 -1459 0
-818 -1460 0
-819 -1461 0
-817 -1060 0
-818 -1061 0
-819 -1062 0
-817 -1462 0
-818 -1463 0
-819 -1464 0
-817 -1225 0
-818 -1226 0
-819 -1227 0
-817 -1009 0
-818 -1010 0
-819 -1011 0
-817 -1078 0
-818 -1079 0
-819 -1080 0
-817 -1162 0
-818 -1163 0
-819 -1164 0
-817 -1165 0
-818 -1166 0
-819 -1167 0
-817 -946 0
-818 -947 0
-819 -948 0
-817 -949 0
-818 -950 0
-819 -951 0
-817 -1480 0
-818 -1481 0
-819 -1482 0
-817 -820 0
-818 -821 0
-819 -822 0
-817 -958 0
-818 -959 0
-819 -960 0
-817 -961 0
-818 -962 0
-819 -963 0
-817 -916 0
-818 -917 0
-819 -918 0
-817 -919 0
-818 -920 0
-819 -921 0
-817 -1375 0
-818 -1376 0
-819 -1377 0
-817 -1192 0
-818 -1193 0
-819 -1194 0
-817 -1195 0
-818 -1196 0
-819 -1197 0
-817 -922 0
-818 -923 0
-819 -924 0
-817 -925 0
-818 -926 0
-819 -927 0
-817 -1258 0
-818 -1259 0
-819 -1260 0
-817 -832 0
-818 -833 0
-819 -834 0
-817 -835 0
-818 -836 0
-819 -837 0
-817 -1333 0
-818 -1334 0
-819 -1335 0
-817 -1198 0
-818 -1199 0
-819 -1200 0
-817 -1339 0
-818 -1340 0
-819 -1341 0
-817 -1261 0
-818 -1262 0
-819 -1263 0
-817 -1381 0
-818 -1382 0
-819 -1383 0
-817 -841 0
-818 -842 0
-819 -843 0
-817 -1387 0
-818 -1388 0
-819 -1389 0
-817 -880 0
-818 -881 0
-819 -882 0
-817 -883 0
-818 -884 0
-819 -885 0
-817 -886 0
-818 -887 0
-819 -888 0
-817 -850 0
-818 -851 0
-819 -852 0
-817 -853 0
-818 -854 0
-819 -855 0
-817 -1015 0
-818 -1016 0
-819 -1017 0
-817 -1018 0
-818 -1019 0
-819 -1020 0
-817 -1054 0
-818 -1055 0
-819 -1056 0
-820 -1405 0
-821 -1406 0
-822 -1407 0
-820 -1222 0
-821 -1223 0
-822 -1224 0
-820 -1234 0
-821 -1235 0
-822 -1236 0
-820 -1453 0
-821 -1454 0
-822 -1455 0
-820 -1483 0
-821 -1484 0
-822 -1485 0
-820 -838 0
-821 -839 0
-822 -840 0
-820 -1336 0
-821 -1337 0
-822 -1338 0
-823 -1447 0
-824 -1448 0
-825 -1449 0
-823 -1456 0
-824 -1457 0
-825 -1458 0
-823 -1876 0
-824 -1877 0
-825 -1878 0
-826 -1444 0
-827 -1445 0
-828 -1446 0
-826 -1459 0
-827 -1460 0
-828 -1461 0
-826 -1834 0
-827 -1835 0
-828 -1836 0
-829 -1714 0
-830 -1715 0
-831 -1716 0
-829 -1408 0
-830 -1409 0
-831 -1410 0
-829 -1906 0
-830 -1907 0
-831 -1908 0
-832 -1414 0
-833 -1415 0
-834 -1416 0
-832 -1249 0
-833 -1250 0
-834 -1251 0
-832 -1390 0
-833 -1391 0
-834 -1392 0
-835 -1246 0
-836 -1247 0
-837 -1248 0
-835 -838 0
-836 -839 0
-837 -840 0
-838 -1252 0
-839 -1253 0
-840 -1254 0
-838 -1471 0
-839 -1472 0
-840 -1473 0
-841 -1075 0
-842 -1076 0
-843 -1077 0
-841 -940 0
-842 -941 0
-843 -942 0
-844 -1705 0
-845 -1706 0
-846 -1707 0
-844 -1651 0
-845 -1652 0
-846 -1653 0
-844 -958 0
-845 -959 0
-846 -960 0
-844 -1678 0
-845 -1679 0
-846 -1680 0
-847 -1702 0
-848 -1703 0
-849 -1704 0
-847 -1654 0
-848 -1655 0
-849 -1656 0
-847 -1681 0
-848 -1682 0
-849 -1683 0
-847 -946 0
-848 -947 0
-849 -948 0
-850 -982 0
-851 -983 0
-852 -984 0
-850 -1045 0
-851 -1046 0
-852 -1047 0
-853 -985 0
-854 -986 0
-855 -987 0
-853 -1048 0
-854 -1049 0
-855 -1050 0
-856 -988 0
-857 -989 0
-858 -990 0
-856 -1039 0
-857 -1040 0
-858 -1041 0
-856 -1051 0
-857 -1052 0
-858 -1053 0
-859 -925 0
-860 -926 0
-861 -927 0
-859 -1303 0
-860 -1304 0
-861 -1305 0
-862 -877 0
-863 -878 0
-864 -879 0
-862 -922 0
-863 -923 0
-864 -924 0
-862 -1300 0
-863 -1301 0
-864 -1302 0
-865 -919 0
-866 -920 0
-867 -921 0
-865 -1930 0
-866 -1931 0
-867 -1932 0
-865 -1291 0
-866 -1292 0
-867 -1293 0
-868 -916 0
-869 -917 0
-870 -918 0
-868 -1288 0
-869 -1289 0
-870 -1290 0
-871 -880 0
-872 -881 0
-873 -882 0
-871 -931 0
-872 -932 0
-873 -933 0
-871 -943 0
-872 -944 0
-873 -945 0
-874 -1585 0
-875 -1586 0
-876 -1587 0
-874 -1636 0
-875 -1637 0
-876 -1638 0
-874 -1477 0
-875 -1478 0
-876 -1479 0
-877 -1723 0
-878 -1724 0
-879 -1725 0
-877 -982 0
-878 -983 0
-879 -984 0
-883 -994 0
-884 -995 0
-885 -996 0
-883 -1288 0
-884 -1289 0
-885 -1290 0
-886 -1105 0
-887 -1106 0
-888 -1107 0
-886 -1291 0
-887 -1292 0
-888 -1293 0
-889 -1909 0
-890 -1910 0
-891 -1911 0
-889 -1294 0
-890 -1295 0
-891 -1296 0
-889 -1888 0
-890 -1889 0
-891 -1890 0
-892 -1300 0
-893 -1301 0
-894 -1302 0
-892 -1108 0
-893 -1109 0
-894 -1110 0
-895 -994 0
-896 -995 0
-897 -996 0
-895 -1084 0
-896 -1085 0
-897 -1086 0
-898 -1036 0
-899 -1037 0
-900 -1038 0
-898 -1399 0
-899 -1400 0
-900 -1401 0
-898 -1624 0
-899 -1625 0
-900 -1626 0
-901 -1033 0
-902 -1034 0
-903 -1035 0
-901 -1402 0
-902 -1403 0
-903 -1404 0
-901 -1660 0
-902 -1661 0
-903 -1662 0
-904 -1030 0
-905 -1031 0
-906 -1032 0
-904 -1630 0
-905 -1631 0
-906 -1632 0
-907 -1663 0
-908 -1664 0
-909 -1665 0
-907 -1027 0
-908 -1028 0
-909 -1029 0
-907 -1408 0
-908 -1409 0
-909 -1410 0
-907 -1627 0
-908 -1628 0
-909 -1629 0
-910 -1867 0
-911 -1868 0
-912 -1869 0
-910 -1060 0
-911 -1061 0
-912 -1062 0
-910 -1828 0
-911 -1829 0
-912 -1830 0
-913 -1054 0
-914 -1055 0
-915 -1056 0
-913 -1651 0
-914 -1652 0
-915 -1653 0
-916 -988 0
-917 -989 0
-918 -990 0
-916 -1024 0
-917 -1025 0
-918 -1026 0
-919 -991 0
-920 -992 0
-921 -993 0
-922 -982 0
-923 -983 0
-924 -984 0
-925 -985 0
-926 -986 0
-927 -987 0
-928 -1015 0
-929 -1016 0
-930 -1017 0
-928 -994 0
-929 -995 0
-930 -996 0
-928 -1087 0
-929 -1088 0
-930 -1089 0
-931 -1018 0
-932 -1019 0
-933 -1020 0
-934 -1540 0
-935 -1541 0
-936 -1542 0
-934 -1552 0
-935 -1553 0
-936 -1554 0
-934 -1072 0
-935 -1073 0
-936 -1074 0
-937 -1537 0
-938 -1538 0
-939 -1539 0
-937 -1075 0
-938 -1076 0
-939 -1077 0
-937 -1771 0
-938 -1772 0
-939 -1773 0
-940 -1063 0
-941 -1064 0
-942 -1065 0
-940 -1534 0
-941 -1535 0
-942 -1536 0
-940 -1549 0
-941 -1550 0
-942 -1551 0
-943 -1093 0
-944 -1094 0
-945 -1095 0
-943 -1018 0
-944 -1019 0
-945 -1020 0
-943 -1723 0
-944 -1724 0
-945 -1725 0
-946 -1429 0
-947 -1430 0
-948 -1431 0
-946 -1276 0
-947 -1277 0
-948 -1278 0
-949 -1432 0
-950 -1433 0
-951 -1434 0
-949 -1279 0
-950 -1280 0
-951 -1281 0
-952 -1582 0
-953 -1583 0
-954 -1584 0
-952 -1435 0
-953 -1436 0
-954 -1437 0
-952 -1639 0
-953 -1640 0
-954 -1641 0
-955 -1438 0
-956 -1439 0
-957 -1440 0
-955 -1642 0
-956 -1643 0
-957 -1644 0
-955 -1579 0
-956 -1580 0
-957 -1581 0
-958 -1465 0
-959 -1466 0
-960 -1467 0
-958 -1282 0
-959 -1283 0
-960 -1284 0
-958 -1324 0
-959 -1325 0
-960 -1326 0
-961 -1468 0
-962 -1469 0
-963 -1470 0
-964 -1705 0
-965 -1706 0
-966 -1707 0
-964 -1438 0
-965 -1439 0
-966 -1440 0
-964 -1486 0
-965 -1487 0
-966 -1488 0
-967 -1708 0
-968 -1709 0
-969 -1710 0
-967 -1435 0
-968 -1436 0
-969 -1437 0
-967 -1855 0
-968 -1856 0
-969 -1857 0
-967 -1930 0
-968 -1931 0
-969 -1932 0
-970 -1915 0
-971 -1916 0
-972 -1917 0
-970 -1447 0
-971 -1448 0
-972 -1449 0
-973 -1819 0
-974 -1820 0
-975 -1821 0
-973 -1486 0
-974 -1487 0
-975 -1488 0
-973 -1462 0
-974 -1463 0
-975 -1464 0
-973 -1774 0
-974 -1775 0
-975 -1776 0
-973 -1702 0
-974 -1703 0
-975 -1704 0
-976 -1942 0
-977 -1943 0
-978 -1944 0
-976 -1459 0
-977 -1460 0
-978 -1461 0
-979 -1855 0
-980 -1856 0
-981 -1857 0
-979 -1081 0
-980 -1082 0
-981 -1083 0
-979 -1657 0
-980 -1658 0
-981 -1659 0
-982 -1717 0
-983 -1718 0
-984 -1719 0
-985 -1624 0
-986 -1625 0
-987 -1626 0
-988 -1720 0
-989 -1721 0
-990 -1722 0
-988 -1627 0
-989 -1628 0
-990 -1629 0
-991 -1630 0
-992 -1631 0
-993 -1632 0
-994 -1039 0
-995 -1040 0
-996 -1041 0
-997 -1510 0
-998 -1511 0
-999 -1512 0
-997 -1360 0
-998 -1361 0
-999 -1362 0
-997 -1597 0
-998 -1598 0
-999 -1599 0
-997 -1612 0
-998 -1613 0
-999 -1614 0
-997 -1921 0
-998 -1922 0
-999 -1923 0
-1000 -1504 0
-1001 -1505 0
-1002 -1506 0
-1000 -1591 0
-1001 -1592 0
-1002 -1593 0
-1000 -1363 0
-1001 -1364 0
-1002 -1365 0
-1000 -1618 0
-1001 -1619 0
-1002 -1620 0
-1003 -1507 0
-1004 -1508 0
-1005 -1509 0
-1003 -1588 0
-1004 -1589 0
-1005 -1590 0
-1003 -1360 0
-1004 -1361 0
-1005 -1362 0
-1003 -1732 0
-1004 -1733 0
-1005 -1734 0
-1003 -1621 0
-1004 -1622 0
-1005 -1623 0
-1006 -1513 0
-1007 -1514 0
-1008 -1515 0
-1006 -1594 0
-1007 -1595 0
-1008 -1596 0
-1006 -1729 0
-1007 -1730 0
-1008 -1731 0
-1006 -1363 0
-1007 -1364 0
-1008 -1365 0
-1006 -1615 0
-1007 -1616 0
-1008 -1617 0
-1009 -1021 0
-1010 -1022 0
-1011 -1023 0
-1009 -1123 0
-1010 -1124 0
-1011 -1125 0
-1012 -1075 0
-1013 -1076 0
-1014 -1077 0
-1015 -1039 0
-1016 -1040 0
-1017 -1041 0
-1015 -1144 0
-1016 -1145 0
-1017 -1146 0
-1015 -1489 0
-1016 -1490 0
-1017 -1491 0
-1015 -1417 0
-1016 -1418 0
-1017 -1419 0
-1015 -1132 0
-1016 -1133 0
-1017 -1134 0
-1018 -1474 0
-1019 -1475 0
-1020 -1476 0
-1018 -1147 0
-1019 -1148 0
-1020 -1149 0
-1018 -1420 0
-1019 -1421 0
-1020 -1422 0
-1018 -1129 0
-1019 -1130 0
-1020 -1131 0
-1021 -1159 0
-1022 -1160 0
-1023 -1161 0
-1021 -1915 0
-1022 -1916 0
-1023 -1917 0
-1024 -1918 0
-1025 -1919 0
-1026 -1920 0
-1027 -1849 0
-1028 -1850 0
-1029 -1851 0
-1027 -1480 0
-1028 -1481 0
-1029 -1482 0
-1027 -1858 0
-1028 -1859 0
-1029 -1860 0
-1027 -1873 0
-1028 -1874 0
-1029 -1875 0
-1027 -1429 0
-1028 -1430 0
-1029 -1431 0
-1030 -1846 0
-1031 -1847 0
-1032 -1848 0
-1030 -1480 0
-1031 -1481 0
-1032 -1482 0
-1030 -1432 0
-1031 -1433 0
-1032 -1434 0
-1033 -1843 0
-1034 -1844 0
-1035 -1845 0
-1033 -1480 0
-1034 -1481 0
-1035 -1482 0
-1033 -1861 0
-1034 -1862 0
-1035 -1863 0
-1033 -1465 0
-1034 -1466 0
-1035 -1467 0
-1036 -1840 0
-1037 -1841 0
-1038 -1842 0
-1036 -1480 0
-1037 -1481 0
-1038 -1482 0
-1036 -1468 0
-1037 -1469 0
-1038 -1470 0
-1036 -1768 0
-1037 -1769 0
-1038 -1770 0
-1036 -1837 0
-1037 -1838 0
-1038 -1839 0
-1039 -1156 0
-1040 -1157 0
-1041 -1158 0
-1042 -1480 0
-1043 -1481 0
-1044 -1482 0
-1042 -1852 0
-1043 -1853 0
-1044 -1854 0
-1042 -1825 0
-1043 -1826 0
-1044 -1827 0
-1042 -1792 0
-1043 -1793 0
-1044 -1794 0
-1042 -1564 0
-1043 -1565 0
-1044 -1566 0
-1048 -1153 0
-1049 -1154 0
-1050 -1155 0
-1048 -1711 0
-1049 -1712 0
-1050 -1713 0
-1051 -1156 0
-1052 -1157 0
-1053 -1158 0
-1051 -1714 0
-1052 -1715 0
-1053 -1716 0
-1054 -1486 0
-1055 -1487 0
-1056 -1488 0
-1054 -1348 0
-1055 -1349 0
-1056 -1350 0
-1057 -1294 0
-1058 -1295 0
-1059 -1296 0
-1057 -1063 0
-1058 -1064 0
-1059 -1065 0
-1057 -1069 0
-1058 -1070 0
-1059 -1071 0
-1057 -1726 0
-1058 -1727 0
-1059 -1728 0
-1060 -1066 0
-1061 -1067 0
-1062 -1068 0
-1060 -1075 0
-1061 -1076 0
-1062 -1077 0
-1060 -1108 0
-1061 -1109 0
-1062 -1110 0
-1060 -1285 0
-1061 -1286 0
-1062 -1287 0
-1063 -1078 0
-1064 -1079 0
-1065 -1080 0
-1063 -1600 0
-1064 -1601 0
-1065 -1602 0
-1066 -1855 0
-1067 -1856 0
-1068 -1857 0
-1066 -1081 0
-1067 -1082 0
-1068 -1083 0
-1069 -1078 0
-1070 -1079 0
-1071 -1080 0
-1069 -1933 0
-1070 -1934 0
-1071 -1935 0
-1069 -1774 0
-1070 -1775 0
-1071 -1776 0
-1072 -1606 0
-1073 -1607 0
-1074 -1608 0
-1075 -1081 0
-1076 -1082 0
-1077 -1083 0
-1075 -1603 0
-1076 -1604 0
-1077 -1605 0
-1075 -1876 0
-1076 -1877 0
-1077 -1878 0
-1078 -1105 0
-1079 -1106 0
-1080 -1107 0
-1081 -1297 0
-1082 -1298 0
-1083 -1299 0
-1081 -1726 0
-1082 -1727 0
-1083 -1728 0
-1084 -1666 0
-1085 -1667 0
-1086 -1668 0
-1084 -1738 0
-1085 -1739 0
-1086 -1740 0
-1087 -1144 0
-1088 -1145 0
-1089 -1146 0
-1087 -1192 0
-1088 -1193 0
-1089 -1194 0
-1087 -1492 0
-1088 -1493 0
-1089 -1494 0
-1090 -1147 0
-1091 -1148 0
-1092 -1149 0
-1090 -1195 0
-1091 -1196 0
-1092 -1197 0
-1090 -1861 0
-1091 -1862 0
-1092 -1863 0
-1090 -1141 0
-1091 -1142 0
-1092 -1143 0
-1090 -1495 0
-1091 -1496 0
-1092 -1497 0
-1093 -1129 0
-1094 -1130 0
-1095 -1131 0
-1093 -1198 0
-1094 -1199 0
-1095 -1200 0
-1093 -1138 0
-1094 -1139 0
-1095 -1140 0
-1093 -1498 0
-1094 -1499 0
-1095 -1500 0
-1096 -1501 0
-1097 -1502 0
-1098 -1503 0
-1096 -1132 0
-1097 -1133 0
-1098 -1134 0
-1096 -1135 0
-1097 -1136 0
-1098 -1137 0
-1096 -1858 0
-1097 -1859 0
-1098 -1860 0
-1099 -1381 0
-1100 -1382 0
-1101 -1383 0
-1099 -1669 0
-1100 -1670 0
-1101 -1671 0
-1099 -1927 0
-1100 -1928 0
-1101 -1929 0
-1102 -1387 0
-1103 -1388 0
-1104 -1389 0
-1102 -1675 0
-1103 -1676 0
-1104 -1677 0
-1102 -1924 0
-1103 -1925 0
-1104 -1926 0
-1105 -1900 0
-1106 -1901 0
-1107 -1902 0
-1108 -1900 0
-1109 -1901 0
-1110 -1902 0
-1111 -1609 0
-1112 -1610 0
-1113 -1611 0
-1111 -1564 0
-1112 -1565 0
-1113 -1566 0
-1114 -1510 0
-1115 -1511 0
-1116 -1512 0
-1114 -1468 0
-1115 -1469 0
-1116 -1470 0
-1114 -1939 0
-1115 -1940 0
-1116 -1941 0
-1117 -1513 0
-1118 -1514 0
-1119 -1515 0
-1117 -1936 0
-1118 -1937 0
-1119 -1938 0
-1117 -1465 0
-1118 -1466 0
-1119 -1467 0
-1120 -1399 0
-1121 -1400 0
-1122 -1401 0
-1123 -1159 0
-1124 -1160 0
-1125 -1161 0
-1123 -1678 0
-1124 -1679 0
-1125 -1680 0
-1126 -1435 0
-1127 -1436 0
-1128 -1437 0
-1126 -1699 0
-1127 -1700 0
-1128 -1701 0
-1129 -1519 0
-1130 -1520 0
-1131 -1521 0
-1129 -1630 0
-1130 -1631 0
-1131 -1632 0
-1129 -1744 0
-1130 -1745 0
-1131 -1746 0
-1132 -1516 0
-1133 -1517 0
-1134 -1518 0
-1132 -1156 0
-1133 -1157 0
-1134 -1158 0
-1132 -1627 0
-1133 -1628 0
-1134 -1629 0
-1132 -1747 0
-1133 -1748 0
-1134 -1749 0
-1135 -1594 0
-1136 -1595 0
-1137 -1596 0
-1135 -1759 0
-1136 -1760 0
-1137 -1761 0
-1135 -1288 0
-1136 -1289 0
-1137 -1290 0
-1138 -1597 0
-1139 -1598 0
-1140 -1599 0
-1138 -1375 0
-1139 -1376 0
-1140 -1377 0
-1138 -1291 0
-1139 -1292 0
-1140 -1293 0
-1141 -1588 0
-1142 -1589 0
-1143 -1590 0
-1141 -1762 0
-1142 -1763 0
-1143 -1764 0
-1141 -1375 0
-1142 -1376 0
-1143 -1377 0
-1141 -1300 0
-1142 -1301 0
-1143 -1302 0
-1144 -1153 0
-1145 -1154 0
-1146 -1155 0
-1144 -1525 0
-1145 -1526 0
-1146 -1527 0
-1144 -1624 0
-1145 -1625 0
-1146 -1626 0
-1144 -1750 0
-1145 -1751 0
-1146 -1752 0
-1147 -1522 0
-1148 -1523 0
-1149 -1524 0
-1147 -1753 0
-1148 -1754 0
-1149 -1755 0
-1150 -1273 0
-1151 -1274 0
-1152 -1275 0
-1150 -1738 0
-1151 -1739 0
-1152 -1740 0
-1150 -1477 0
-1151 -1478 0
-1152 -1479 0
-1150 -1267 0
-1151 -1268 0
-1152 -1269 0
-1153 -1312 0
-1154 -1313 0
-1155 -1314 0
-1156 -1312 0
-1157 -1313 0
-1158 -1314 0
-1159 -1294 0
-1160 -1295 0
-1161 -1296 0
-1162 -1279 0
-1163 -1280 0
-1164 -1281 0
-1165 -1372 0
-1166 -1373 0
-1167 -1374 0
-1165 -1276 0
-1166 -1277 0
-1167 -1278 0
-1165 -1282 0
-1166 -1283 0
-1167 -1284 0
-1165 -1348 0
-1166 -1349 0
-1167 -1350 0
-1168 -1789 0
-1169 -1790 0
-1170 -1791 0
-1171 -1636 0
-1172 -1637 0
-1173 -1638 0
-1171 -1480 0
-1172 -1481 0
-1173 -1482 0
-1174 -1786 0
-1175 -1787 0
-1176 -1788 0
-1177 -1588 0
-1178 -1589 0
-1179 -1590 0
-1177 -1732 0
-1178 -1733 0
-1179 -1734 0
-1177 -1300 0
-1178 -1301 0
-1179 -1302 0
-1180 -1591 0
-1181 -1592 0
-1182 -1593 0
-1180 -1303 0
-1181 -1304 0
-1182 -1305 0
-1180 -1261 0
-1181 -1262 0
-1182 -1263 0
-1183 -1594 0
-1184 -1595 0
-1185 -1596 0
-1183 -1729 0
-1184 -1730 0
-1185 -1731 0
-1183 -1288 0
-1184 -1289 0
-1185 -1290 0
-1186 -1597 0
-1187 -1598 0
-1188 -1599 0
-1186 -1921 0
-1187 -1922 0
-1188 -1923 0
-1186 -1258 0
-1187 -1259 0
-1188 -1260 0
-1186 -1291 0
-1187 -1292 0
-1188 -1293 0
-1189 -1198 0
-1190 -1199 0
-1191 -1200 0
-1189 -1864 0
-1190 -1865 0
-1191 -1866 0
-1189 -1573 0
-1190 -1574 0
-1191 -1575 0
-1192 -1303 0
-1193 -1304 0
-1194 -1305 0
-1195 -1300 0
-1196 -1301 0
-1197 -1302 0
-1198 -1291 0
-1199 -1292 0
-1200 -1293 0
-1201 -1435 0
-1202 -1436 0
-1203 -1437 0
-1201 -1867 0
-1202 -1868 0
-1203 -1869 0
-1201 -1207 0
-1202 -1208 0
-1203 -1209 0
-1201 -1231 0
-1202 -1232 0
-1203 -1233 0
-1204 -1210 0
-1205 -1211 0
-1206 -1212 0
-1204 -1549 0
-1205 -1550 0
-1206 -1551 0
-1204 -1228 0
-1205 -1229 0
-1206 -1230 0
-1207 -1237 0
-1208 -1238 0
-1209 -1239 0
-1207 -1894 0
-1208 -1895 0
-1209 -1896 0
-1210 -1438 0
-1211 -1439 0
-1212 -1440 0
-1210 -1870 0
-1211 -1871 0
-1212 -1872 0
-1210 -1234 0
-1211 -1235 0
-1212 -1236 0
-1213 -1447 0
-1214 -1448 0
-1215 -1449 0
-1213 -1219 0
-1214 -1220 0
-1215 -1221 0
-1216 -1222 0
-1217 -1223 0
-1218 -1224 0
-1216 -1246 0
-1217 -1247 0
-1218 -1248 0
-1216 -1255 0
-1217 -1256 0
-1218 -1257 0
-1216 -1423 0
-1217 -1424 0
-1218 -1425 0
-1216 -1441 0
-1217 -1442 0
-1218 -1443 0
-1216 -1450 0
-1217 -1451 0
-1218 -1452 0
-1219 -1783 0
-1220 -1784 0
-1221 -1785 0
-1219 -1453 0
-1220 -1454 0
-1221 -1455 0
-1219 -1618 0
-1220 -1619 0
-1221 -1620 0
-1219 -1225 0
-1220 -1226 0
-1221 -1227 0
-1219 -1240 0
-1220 -1241 0
-1221 -1242 0
-1222 -1252 0
-1223 -1253 0
-1224 -1254 0
-1222 -1444 0
-1223 -1445 0
-1224 -1446 0
-1222 -1621 0
-1223 -1622 0
-1224 -1623 0
-1222 -1567 0
-1223 -1568 0
-1224 -1569 0
-1225 -1249 0
-1226 -1250 0
-1227 -1251 0
-1225 -1426 0
-1226 -1427 0
-1227 -1428 0
-1225 -1324 0
-1226 -1325 0
-1227 -1326 0
-1228 -1234 0
-1229 -1235 0
-1230 -1236 0
-1228 -1441 0
-1229 -1442 0
-1230 -1443 0
-1231 -1453 0
-1232 -1454 0
-1233 -1455 0
-1231 -1612 0
-1232 -1613 0
-1233 -1614 0
-1231 -1237 0
-1232 -1238 0
-1233 -1239 0
-1231 -1741 0
-1232 -1742 0
-1233 -1743 0
-1234 -1444 0
-1235 -1445 0
-1236 -1446 0
-1234 -1615 0
-1235 -1616 0
-1236 -1617 0
-1234 -1879 0
-1235 -1880 0
-1236 -1881 0
-1234 -1804 0
-1235 -1805 0
-1236 -1806 0
-1234 -1834 0
-1235 -1835 0
-1236 -1836 0
-1234 -1570 0
-1235 -1571 0
-1236 -1572 0
-1237 -1450 0
-1238 -1451 0
-1239 -1452 0
-1237 -1471 0
-1238 -1472 0
-1239 -1473 0
-1240 -1870 0
-1241 -1871 0
-1242 -1872 0
-1240 -1459 0
-1241 -1460 0
-1242 -1461 0
-1240 -1249 0
-1241 -1250 0
-1242 -1251 0
-1243 -1603 0
-1244 -1604 0
-1245 -1605 0
-1243 -1876 0
-1244 -1877 0
-1245 -1878 0
-1243 -1462 0
-1244 -1463 0
-1245 -1464 0
-1246 -1252 0
-1247 -1253 0
-1248 -1254 0
-1246 -1456 0
-1247 -1457 0
-1248 -1458 0
-1246 -1552 0
-1247 -1553 0
-1248 -1554 0
-1249 -1891 0
-1250 -1892 0
-1251 -1893 0
-1252 -1867 0
-1253 -1868 0
-1254 -1869 0
-1252 -1462 0
-1253 -1463 0
-1254 -1464 0
-1255 -1873 0
-1256 -1874 0
-1257 -1875 0
-1255 -1621 0
-1256 -1622 0
-1257 -1623 0
-1264 -1840 0
-1265 -1841 0
-1266 -1842 0
-1264 -1339 0
-1265 -1340 0
-1266 -1341 0
-1264 -1468 0
-1265 -1469 0
-1266 -1470 0
-1264 -1927 0
-1265 -1928 0
-1266 -1929 0
-1267 -1897 0
-1268 -1898 0
-1269 -1899 0
-1267 -1843 0
-1268 -1844 0
-1269 -1845 0
-1267 -1333 0
-1268 -1334 0
-1269 -1335 0
-1267 -1465 0
-1268 -1466 0
-1269 -1467 0
-1270 -1846 0
-1271 -1847 0
-1272 -1848 0
-1270 -1339 0
-1271 -1340 0
-1272 -1341 0
-1270 -1432 0
-1271 -1433 0
-1272 -1434 0
-1273 -1429 0
-1274 -1430 0
-1275 -1431 0
-1273 -1333 0
-1274 -1334 0
-1275 -1335 0
-1273 -1849 0
-1274 -1850 0
-1275 -1851 0
-1273 -1924 0
-1274 -1925 0
-1275 -1926 0
-1276 -1342 0
-1277 -1343 0
-1278 -1344 0
-1276 -1555 0
-1277 -1556 0
-1278 -1557 0
-1276 -1780 0
-1277 -1781 0
-1278 -1782 0
-1279 -1345 0
-1280 -1346 0
-1281 -1347 0
-1282 -1561 0
-1283 -1562 0
-1284 -1563 0
-1282 -1735 0
-1283 -1736 0
-1284 -1737 0
-1282 -1342 0
-1283 -1343 0
-1284 -1344 0
-1282 -1777 0
-1283 -1778 0
-1284 -1779 0
-1285 -1888 0
-1286 -1889 0
-1287 -1890 0
-1291 -1474 0
-1292 -1475 0
-1293 -1476 0
-1291 -1906 0
-1292 -1907 0
-1293 -1908 0
-1300 -1474 0
-1301 -1475 0
-1302 -1476 0
-1300 -1909 0
-1301 -1910 0
-1302 -1911 0
-1303 -1912 0
-1304 -1913 0
-1305 -1914 0
-1306 -1480 0
-1307 -1481 0
-1308 -1482 0
-1306 -1864 0
-1307 -1865 0
-1308 -1866 0
-1306 -1918 0
-1307 -1919 0
-1308 -1920 0
-1309 -1903 0
-1310 -1904 0
-1311 -1905 0
-1309 -1462 0
-1310 -1463 0
-1311 -1464 0
-1315 -1840 0
-1316 -1841 0
-1317 -1842 0
-1315 -1480 0
-1316 -1481 0
-1317 -1482 0
-1315 -1624 0
-1316 -1625 0
-1317 -1626 0
-1315 -1894 0
-1316 -1895 0
-1317 -1896 0
-1318 -1846 0
-1319 -1847 0
-1320 -1848 0
-1318 -1480 0
-1319 -1481 0
-1320 -1482 0
-1318 -1630 0
-1319 -1631 0
-1320 -1632 0
-1318 -1891 0
-1319 -1892 0
-1320 -1893 0
-1321 -1849 0
-1322 -1850 0
-1323 -1851 0
-1321 -1480 0
-1322 -1481 0
-1323 -1482 0
-1321 -1720 0
-1322 -1721 0
-1323 -1722 0
-1321 -1627 0
-1322 -1628 0
-1323 -1629 0
-1324 -1633 0
-1325 -1634 0
-1326 -1635 0
-1324 -1543 0
-1325 -1544 0
-1326 -1545 0
-1327 -1897 0
-1328 -1898 0
-1329 -1899 0
-1327 -1549 0
-1328 -1550 0
-1329 -1551 0
-1327 -1330 0
-1328 -1331 0
-1329 -1332 0
-1333 -1336 0
-1334 -1337 0
-1335 -1338 0
-1336 -1528 0
-1337 -1529 0
-1338 -1530 0
-1336 -1648 0
-1337 -1649 0
-1338 -1650 0
-1342 -1480 0
-1343 -1481 0
-1344 -1482 0
-1342 -1738 0
-1343 -1739 0
-1344 -1740 0
-1345 -1480 0
-1346 -1481 0
-1347 -1482 0
-1345 -1564 0
-1346 -1565 0
-1347 -1566 0
-1348 -1528 0
-1349 -1529 0
-1350 -1530 0
-1348 -1648 0
-1349 -1649 0
-1350 -1650 0
-1351 -1459 0
-1352 -1460 0
-1353 -1461 0
-1351 -1621 0
-1352 -1622 0
-1353 -1623 0
-1351 -1633 0
-1352 -1634 0
-1353 -1635 0
-1354 -1861 0
-1355 -1862 0
-1356 -1863 0
-1354 -1408 0
-1355 -1409 0
-1356 -1410 0
-1354 -1879 0
-1355 -1880 0
-1356 -1881 0
-1354 -1558 0
-1355 -1559 0
-1356 -1560 0
-1357 -1603 0
-1358 -1604 0
-1359 -1605 0
-1357 -1618 0
-1358 -1619 0
-1359 -1620 0
-1357 -1462 0
-1358 -1463 0
-1359 -1464 0
-1357 -1942 0
-1358 -1943 0
-1359 -1944 0
-1360 -1420 0
-1361 -1421 0
-1362 -1422 0
-1363 -1417 0
-1364 -1418 0
-1365 -1419 0
-1366 -1480 0
-1367 -1481 0
-1368 -1482 0
-1366 -1852 0
-1367 -1853 0
-1368 -1854 0
-1366 -1738 0
-1367 -1739 0
-1368 -1740 0
-1369 -1438 0
-1370 -1439 0
-1371 -1440 0
-1369 -1735 0
-1370 -1736 0
-1371 -1737 0
-1372 -1636 0
-1373 -1637 0
-1374 -1638 0
-1375 -1474 0
-1376 -1475 0
-1377 -1476 0
-1378 -1567 0
-1379 -1568 0
-1380 -1569 0
-1378 -1387 0
-1379 -1388 0
-1380 -1389 0
-1378 -1873 0
-1379 -1874 0
-1380 -1875 0
-1384 -1387 0
-1385 -1388 0
-1386 -1389 0
-1384 -1648 0
-1385 -1649 0
-1386 -1650 0
-1384 -1792 0
-1385 -1793 0
-1386 -1794 0
-1387 -1486 0
-1388 -1487 0
-1389 -1488 0
-1387 -1390 0
-1388 -1391 0
-1389 -1392 0
-1390 -1936 0
-1391 -1937 0
-1392 -1938 0
-1390 -1570 0
-1391 -1571 0
-1392 -1572 0
-1393 -1867 0
-1394 -1868 0
-1395 -1869 0
-1393 -1462 0
-1394 -1463 0
-1395 -1464 0
-1393 -1573 0
-1394 -1574 0
-1395 -1575 0
-1396 -1870 0
-1397 -1871 0
-1398 -1872 0
-1396 -1459 0
-1397 -1460 0
-1398 -1461 0
-1396 -1576 0
-1397 -1577 0
-1398 -1578 0
-1399 -1405 0
-1400 -1406 0
-1401 -1407 0
-1399 -1468 0
-1400 -1469 0
-1401 -1470 0
-1402 -1414 0
-1403 -1415 0
-1404 -1416 0
-1402 -1465 0
-1403 -1466 0
-1404 -1467 0
-1405 -1711 0
-1406 -1712 0
-1407 -1713 0
-1405 -1633 0
-1406 -1634 0
-1407 -1635 0
-1408 -1429 0
-1409 -1430 0
-1410 -1431 0
-1411 -1645 0
-1412 -1646 0
-1413 -1647 0
-1411 -1462 0
-1412 -1463 0
-1413 -1464 0
-1414 -1912 0
-1415 -1913 0
-1416 -1914 0
-1417 -1729 0
-1418 -1730 0
-1419 -1731 0
-1420 -1732 0
-1421 -1733 0
-1422 -1734 0
-1420 -1921 0
-1421 -1922 0
-1422 -1923 0
-1420 -1924 0
-1421 -1925 0
-1422 -1926 0
-1420 -1927 0
-1421 -1928 0
-1422 -1929 0
-1423 -1639 0
-1424 -1640 0
-1425 -1641 0
-1423 -1456 0
-1424 -1457 0
-1425 -1458 0
-1426 -1642 0
-1427 -1643 0
-1428 -1644 0
-1429 -1573 0
-1430 -1574 0
-1431 -1575 0
-1432 -1576 0
-1433 -1577 0
-1434 -1578 0
-1441 -1444 0
-1442 -1445 0
-1443 -1446 0
-1444 -1609 0
-1445 -1610 0
-1446 -1611 0
-1447 -1453 0
-1448 -1454 0
-1449 -1455 0
-1450 -1726 0
-1451 -1727 0
-1452 -1728 0
-1453 -1852 0
-1454 -1853 0
-1455 -1854 0
-1456 -1462 0
-1457 -1463 0
-1458 -1464 0
-1465 -1579 0
-1466 -1580 0
-1467 -1581 0
-1468 -1582 0
-1469 -1583 0
-1470 -1584 0
-1471 -1645 0
-1472 -1646 0
-1473 -1647 0
-1480 -1489 0
-1481 -1490 0
-1482 -1491 0
-1480 -1483 0
-1481 -1484 0
-1482 -1485 0
-1483 -1648 0
-1484 -1649 0
-1485 -1650 0
-1483 -1792 0
-1484 -1793 0
-1485 -1794 0
-1486 -1585 0
-1487 -1586 0
-1488 -1587 0
-1489 -1873 0
-1490 -1874 0
-1491 -1875 0
-1489 -1879 0
-1490 -1880 0
-1491 -1881 0
-1492 -1750 0
-1493 -1751 0
-1494 -1752 0
-1495 -1753 0
-1496 -1754 0
-1497 -1755 0
-1498 -1744 0
-1499 -1745 0
-1500 -1746 0
-1501 -1747 0
-1502 -1748 0
-1503 -1749 0
-1516 -1816 0
-1517 -1817 0
-1518 -1818 0
-1519 -1741 0
-1520 -1742 0
-1521 -1743 0
-1528 -1795 0
-1529 -1796 0
-1530 -1797 0
-1528 -1798 0
-1529 -1799 0
-1530 -1800 0
-1537 -1768 0
-1538 -1769 0
-1539 -1770 0
-1543 -1810 0
-1544 -1811 0
-1545 -1812 0
-1546 -1807 0
-1547 -1808 0
-1548 -1809 0
-1546 -1801 0
-1547 -1802 0
-1548 -1803 0
-1546 -1813 0
-1547 -1814 0
-1548 -1815 0
-1573 -1822 0
-1574 -1823 0
-1575 -1824 0
-1585 -1819 0
-1586 -1820 0
-1587 -1821 0
-1603 -1771 0
-1604 -1772 0
-1605 -1773 0
-1609 -1804 0
-1610 -1805 0
-1611 -1806 0
-1690 -1759 0
-1691 -1760 0
-1692 -1761 0
-1690 -1798 0
-1691 -1799 0
-1692 -1800 0
-1693 -1762 0
-1694 -1763 0
-1695 -1764 0
-1693 -1795 0
-1694 -1796 0
-1695 -1797 0
-1696 -1783 0
-1697 -1784 0
-1698 -1785 0
-1705 -1765 0
-1706 -1766 0
-1707 -1767 0
-1717 -1774 0
-1718 -1775 0
-1719 -1776 0
-1756 -1882 0
-1757 -1883 0
-1758 -1884 0
-1762 -1897 0
-1763 -1898 0
-1764 -1899 0
-1771 -1942 0
-1772 -1943 0
-1773 -1944 0
-1777 -1894 0
-1778 -1895 0
-1779 -1896 0
-1780 -1891 0
-1781 -1892 0
-1782 -1893 0
-1783 -1942 0
-1784 -1943 0
-1785 -1944 0
-1807 -1945 0
-1808 -1946 0
-1809 -1947 0
-1810 -1948 0
-1811 -1949 0
-1812 -1950 0
1 0
104 0
