p cnf 2145 6270
1 2 3 0
4 5 6 0
7 8 9 0
10 11 12 0
13 14 15 0
16 17 18 0
19 20 21 0
22 23 24 0
25 26 27 0
28 29 30 0
31 32 33 0
34 35 36 0
37 38 39 0
40 41 42 0
43 44 45 0
46 47 48 0
49 50 51 0
52 53 54 0
55 56 57 0
58 59 60 0
61 62 63 0
64 65 66 0
67 68 69 0
70 71 72 0
73 74 75 0
76 77 78 0
79 80 81 0
82 83 84 0
85 86 87 0
88 89 90 0
91 92 93 0
94 95 96 0
97 98 99 0
100 101 102 0
103 104 105 0
106 107 108 0
109 110 111 0
112 113 114 0
115 116 117 0
118 119 120 0
121 122 123 0
124 125 126 0
127 128 129 0
130 131 132 0
133 134 135 0
136 137 138 0
139 140 141 0
142 143 144 0
145 146 147 0
148 149 150 0
151 152 153 0
154 155 156 0
157 158 159 0
160 161 162 0
163 164 165 0
166 167 168 0
169 170 171 0
172 173 174 0
175 176 177 0
178 179 180 0
181 182 183 0
184 185 186 0
187 188 189 0
190 191 192 0
193 194 195 0
196 197 198 0
199 200 201 0
202 203 204 0
205 206 207 0
208 209 210 0
211 212 213 0
214 215 216 0
217 218 219 0
220 221 222 0
223 224 225 0
226 227 228 0
229 230 231 0
232 233 234 0
235 236 237 0
238 239 240 0
241 242 243 0
244 245 246 0
247 248 249 0
250 251 252 0
253 254 255 0
256 257 258 0
259 260 261 0
262 263 264 0
265 266 267 0
268 269 270 0
271 272 273 0
274 275 276 0
277 278 279 0
280 281 282 0
283 284 285 0
286 287 288 0
289 290 291 0
292 293 294 0
295 296 297 0
298 299 300 0
301 302 303 0
304 305 306 0
307 308 309 0
310 311 312 0
313 314 315 0
316 317 318 0
319 320 321 0
322 323 324 0
325 326 327 0
328 329 330 0
331 332 333 0
334 335 336 0
337 338 339 0
340 341 342 0
343 344 345 0
346 347 348 0
349 350 351 0
352 353 354 0
355 356 357 0
358 359 360 0
361 362 363 0
364 365 366 0
367 368 369 0
370 371 372 0
373 374 375 0
376 377 378 0
379 380 381 0
382 383 384 0
385 386 387 0
388 389 390 0
391 392 393 0
394 395 396 0
397 398 399 0
400 401 402 0
403 404 405 0
406 407 408 0
409 410 411 0
412 413 414 0
415 416 417 0
418 419 420 0
421 422 423 0
424 425 426 0
427 428 429 0
430 431 432 0
433 434 435 0
436 437 438 0
439 440 441 0
442 443 444 0
445 446 447 0
448 449 450 0
451 452 453 0
454 455 456 0
457 458 459 0
460 461 462 0
463 464 465 0
466 467 468 0
469 470 471 0
472 473 474 0
475 476 477 0
478 479 480 0
481 482 483 0
484 485 486 0
487 488 489 0
490 491 492 0
493 494 495 0
496 497 498 0
499 500 501 0
502 503 504 0
505 506 507 0
508 509 510 0
511 512 513 0
514 515 516 0
517 518 519 0
520 521 522 0
523 524 525 0
526 527 528 0
529 530 531 0
532 533 534 0
535 536 537 0
538 539 540 0
541 542 543 0
544 545 546 0
547 548 549 0
550 551 552 0
553 554 555 0
556 557 558 0
559 560 561 0
562 563 564 0
565 566 567 0
568 569 570 0
571 572 573 0
574 575 576 0
577 578 579 0
580 581 582 0
583 584 585 0
586 587 588 0
589 590 591 0
592 593 594 0
595 596 597 0
598 599 600 0
601 602 603 0
604 605 606 0
607 608 609 0
610 611 612 0
613 614 615 0
616 617 618 0
619 620 621 0
622 623 624 0
625 626 627 0
628 629 630 0
631 632 633 0
634 635 636 0
637 638 639 0
640 641 642 0
643 644 645 0
646 647 648 0
649 650 651 0
652 653 654 0
655 656 657 0
658 659 660 0
661 662 663 0
664 665 666 0
667 668 669 0
670 671 672 0
673 674 675 0
676 677 678 0
679 680 681 0
682 683 684 0
685 686 687 0
688 689 690 0
691 692 693 0
694 695 696 0
697 698 699 0
700 701 702 0
703 704 705 0
706 707 708 0
709 710 711 0
712 713 714 0
715 716 717 0
718 719 720 0
721 722 723 0
724 725 726 0
727 728 729 0
730 731 732 0
733 734 735 0
736 737 738 0
739 740 741 0
742 743 744 0
745 746 747 0
748 749 750 0
751 752 753 0
754 755 756 0
757 758 759 0
760 761 762 0
763 764 765 0
766 767 768 0
769 770 771 0
772 773 774 0
775 776 777 0
778 779 780 0
781 782 783 0
784 785 786 0
787 788 789 0
790 791 792 0
793 794 795 0
796 797 798 0
799 800 801 0
802 803 804 0
805 806 807 0
808 809 810 0
811 812 813 0
814 815 816 0
817 818 819 0
820 821 822 0
823 824 825 0
826 827 828 0
829 830 831 0
832 833 834 0
835 836 837 0
838 839 840 0
841 842 843 0
844 845 846 0
847 848 849 0
850 851 852 0
853 854 855 0
856 857 858 0
859 860 861 0
862 863 864 0
865 866 867 0
868 869 870 0
871 872 873 0
874 875 876 0
877 878 879 0
880 881 882 0
883 884 885 0
886 887 888 0
889 890 891 0
892 893 894 0
895 896 897 0
898 899 900 0
901 902 903 0
904 905 906 0
907 908 909 0
910 911 912 0
913 914 915 0
916 917 918 0
919 920 921 0
922 923 924 0
925 926 927 0
928 929 930 0
931 932 933 0
934 935 936 0
937 938 939 0
940 941 942 0
943 944 945 0
946 947 948 0
949 950 951 0
952 953 954 0
955 956 957 0
958 959 960 0
961 962 963 0
964 965 966 0
967 968 969 0
970 971 972 0
973 974 975 0
976 977 978 0
979 980 981 0
982 983 984 0
985 986 987 0
988 989 990 0
991 992 993 0
994 995 996 0
997 998 999 0
1000 1001 1002 0
1003 1004 1005 0
1006 1007 1008 0
1009 1010 1011 0
1012 1013 1014 0
1015 1016 1017 0
1018 1019 1020 0
1021 1022 1023 0
1024 1025 1026 0
1027 1028 1029 0
1030 1031 1032 0
1033 1034 1035 0
1036 1037 1038 0
1039 1040 1041 0
1042 1043 1044 0
1045 1046 1047 0
1048 1049 1050 0
1051 1052 1053 0
1054 1055 1056 0
1057 1058 1059 0
1060 1061 1062 0
1063 1064 1065 0
1066 1067 1068 0
1069 1070 1071 0
1072 1073 1074 0
1075 1076 1077 0
1078 1079 1080 0
1081 1082 1083 0
1084 1085 1086 0
1087 1088 1089 0
1090 1091 1092 0
1093 1094 1095 0
1096 1097 1098 0
1099 1100 1101 0
1102 1103 1104 0
1105 1106 1107 0
1108 1109 1110 0
1111 1112 1113 0
1114 1115 1116 0
1117 1118 1119 0
1120 1121 1122 0
1123 1124 1125 0
1126 1127 1128 0
1129 1130 1131 0
1132 1133 1134 0
1135 1136 1137 0
1138 1139 1140 0
1141 1142 1143 0
1144 1145 1146 0
1147 1148 1149 0
1150 1151 1152 0
1153 1154 1155 0
1156 1157 1158 0
1159 1160 1161 0
1162 1163 1164 0
1165 1166 1167 0
1168 1169 1170 0
1171 1172 1173 0
1174 1175 1176 0
1177 1178 1179 0
1180 1181 1182 0
1183 1184 1185 0
1186 1187 1188 0
1189 1190 1191 0
1192 1193 1194 0
1195 1196 1197 0
1198 1199 1200 0
1201 1202 1203 0
1204 1205 1206 0
1207 1208 1209 0
1210 1211 1212 0
1213 1214 1215 0
1216 1217 1218 0
1219 1220 1221 0
1222 1223 1224 0
1225 1226 1227 0
1228 1229 1230 0
1231 1232 1233 0
1234 1235 1236 0
1237 1238 1239 0
1240 1241 1242 0
1243 1244 1245 0
1246 1247 1248 0
1249 1250 1251 0
1252 1253 1254 0
1255 1256 1257 0
1258 1259 1260 0
1261 1262 1263 0
1264 1265 1266 0
1267 1268 1269 0
1270 1271 1272 0
1273 1274 1275 0
1276 1277 1278 0
1279 1280 1281 0
1282 1283 1284 0
1285 1286 1287 0
1288 1289 1290 0
1291 1292 1293 0
1294 1295 1296 0
1297 1298 1299 0
1300 1301 1302 0
1303 1304 1305 0
1306 1307 1308 0
1309 1310 1311 0
1312 1313 1314 0
1315 1316 1317 0
1318 1319 1320 0
1321 1322 1323 0
1324 1325 1326 0
1327 1328 1329 0
1330 1331 1332 0
1333 1334 1335 0
1336 1337 1338 0
1339 1340 1341 0
1342 1343 1344 0
1345 1346 1347 0
1348 1349 1350 0
1351 1352 1353 0
1354 1355 1356 0
1357 1358 1359 0
1360 1361 1362 0
1363 1364 1365 0
1366 1367 1368 0
1369 1370 1371 0
1372 1373 1374 0
1375 1376 1377 0
1378 1379 1380 0
1381 1382 1383 0
1384 1385 1386 0
1387 1388 1389 0
1390 1391 1392 0
1393 1394 1395 0
1396 1397 1398 0
1399 1400 1401 0
1402 1403 1404 0
1405 1406 1407 0
1408 1409 1410 0
1411 1412 1413 0
1414 1415 1416 0
1417 1418 1419 0
1420 1421 1422 0
1423 1424 1425 0
1426 1427 1428 0
1429 1430 1431 0
1432 1433 1434 0
1435 1436 1437 0
1438 1439 1440 0
1441 1442 1443 0
1444 1445 1446 0
1447 1448 1449 0
1450 1451 1452 0
1453 1454 1455 0
1456 1457 1458 0
1459 1460 1461 0
1462 1463 1464 0
1465 1466 1467 0
1468 1469 1470 0
1471 1472 1473 0
1474 1475 1476 0
1477 1478 1479 0
1480 1481 1482 0
1483 1484 1485 0
1486 1487 1488 0
1489 1490 1491 0
1492 1493 1494 0
1495 1496 1497 0
1498 1499 1500 0
1501 1502 1503 0
1504 1505 1506 0
1507 1508 1509 0
1510 1511 1512 0
1513 1514 1515 0
1516 1517 1518 0
1519 1520 1521 0
1522 1523 1524 0
1525 1526 1527 0
1528 1529 1530 0
1531 1532 1533 0
1534 1535 1536 0
1537 1538 1539 0
1540 1541 1542 0
1543 1544 1545 0
1546 1547 1548 0
1549 1550 1551 0
1552 1553 1554 0
1555 1556 1557 0
1558 1559 1560 0
1561 1562 1563 0
1564 1565 1566 0
1567 1568 1569 0
1570 1571 1572 0
1573 1574 1575 0
1576 1577 1578 0
1579 1580 1581 0
1582 1583 1584 0
1585 1586 1587 0
1588 1589 1590 0
1591 1592 1593 0
1594 1595 1596 0
1597 1598 1599 0
1600 1601 1602 0
1603 1604 1605 0
1606 1607 1608 0
1609 1610 1611 0
1612 1613 1614 0
1615 1616 1617 0
1618 1619 1620 0
1621 1622 1623 0
1624 1625 1626 0
1627 1628 1629 0
1630 1631 1632 0
1633 1634 1635 0
1636 1637 1638 0
1639 1640 1641 0
1642 1643 1644 0
1645 1646 1647 0
1648 1649 1650 0
1651 1652 1653 0
1654 1655 1656 0
1657 1658 1659 0
1660 1661 1662 0
1663 1664 1665 0
1666 1667 1668 0
1669 1670 1671 0
1672 1673 1674 0
1675 1676 1677 0
1678 1679 1680 0
1681 1682 1683 0
1684 1685 1686 0
1687 1688 1689 0
1690 1691 1692 0
1693 1694 1695 0
1696 1697 1698 0
1699 1700 1701 0
1702 1703 1704 0
1705 1706 1707 0
1708 1709 1710 0
1711 1712 1713 0
1714 1715 1716 0
1717 1718 1719 0
1720 1721 1722 0
1723 1724 1725 0
1726 1727 1728 0
1729 1730 1731 0
1732 1733 1734 0
1735 1736 1737 0
1738 1739 1740 0
1741 1742 1743 0
1744 1745 1746 0
1747 1748 1749 0
1750 1751 1752 0
1753 1754 1755 0
1756 1757 1758 0
1759 1760 1761 0
1762 1763 1764 0
1765 1766 1767 0
1768 1769 1770 0
1771 1772 1773 0
1774 1775 1776 0
1777 1778 1779 0
1780 1781 1782 0
1783 1784 1785 0
1786 1787 1788 0
1789 1790 1791 0
1792 1793 1794 0
1795 1796 1797 0
1798 1799 1800 0
1801 1802 1803 0
1804 1805 1806 0
1807 1808 1809 0
1810 1811 1812 0
1813 1814 1815 0
1816 1817 1818 0
1819 1820 1821 0
1822 1823 1824 0
1825 1826 1827 0
1828 1829 1830 0
1831 1832 1833 0
1834 1835 1836 0
1837 1838 1839 0
1840 1841 1842 0
1843 1844 1845 0
1846 1847 1848 0
1849 1850 1851 0
1852 1853 1854 0
1855 1856 1857 0
1858 1859 1860 0
1861 1862 1863 0
1864 1865 1866 0
1867 1868 1869 0
1870 1871 1872 0
1873 1874 1875 0
1876 1877 1878 0
1879 1880 1881 0
1882 1883 1884 0
1885 1886 1887 0
1888 1889 1890 0
1891 1892 1893 0
1894 1895 1896 0
1897 1898 1899 0
1900 1901 1902 0
1903 1904 1905 0
1906 1907 1908 0
1909 1910 1911 0
1912 1913 1914 0
1915 1916 1917 0
1918 1919 1920 0
1921 1922 1923 0
1924 1925 1926 0
1927 1928 1929 0
1930 1931 1932 0
1933 1934 1935 0
1936 1937 1938 0
1939 1940 1941 0
1942 1943 1944 0
1945 1946 1947 0
1948 1949 1950 0
1951 1952 1953 0
1954 1955 1956 0
1957 1958 1959 0
1960 1961 1962 0
1963 1964 1965 0
1966 1967 1968 0
1969 1970 1971 0
1972 1973 1974 0
1975 1976 1977 0
1978 1979 1980 0
1981 1982 1983 0
1984 1985 1986 0
1987 1988 1989 0
1990 1991 1992 0
1993 1994 1995 0
1996 1997 1998 0
1999 2000 2001 0
2002 2003 2004 0
2005 2006 2007 0
2008 2009 2010 0
2011 2012 2013 0
2014 2015 2016 0
2017 2018 2019 0
2020 2021 2022 0
2023 2024 2025 0
2026 2027 2028 0
2029 2030 2031 0
2032 2033 2034 0
2035 2036 2037 0
2038 2039 2040 0
2041 2042 2043 0
2044 2045 2046 0
2047 2048 2049 0
2050 2051 2052 0
2053 2054 2055 0
2056 2057 2058 0
2059 2060 2061 0
2062 2063 2064 0
2065 2066 2067 0
2068 2069 2070 0
2071 2072 2073 0
2074 2075 2076 0
2077 2078 2079 0
2080 2081 2082 0
2083 2084 2085 0
2086 2087 2088 0
2089 2090 2091 0
2092 2093 2094 0
2095 2096 2097 0
2098 2099 2100 0
2101 2102 2103 0
2104 2105 2106 0
2107 2108 2109 0
2110 2111 2112 0
2113 2114 2115 0
2116 2117 2118 0
2119 2120 2121 0
2122 2123 2124 0
2125 2126 2127 0
2128 2129 2130 0
2131 2132 2133 0
2134 2135 2136 0
2137 2138 2139 0
2140 2141 2142 0
2143 2144 2145 0
-1 -61 0
-2 -62 0
-3 -63 0
-1 -1018 0
-2 -1019 0
-3 -1020 0
-1 -1630 0
-2 -1631 0
-3 -1632 0
-1 -121 0
-2 -122 0
-3 -123 0
-1 -1105 0
-2 -1106 0
-3 -1107 0
-1 -2053 0
-2 -2054 0
-3 -2055 0
-1 -1600 0
-2 -1601 0
-3 -1602 0
-4 -934 0
-5 -935 0
-6 -936 0
-4 -88 0
-5 -89 0
-6 -90 0
-4 -1339 0
-5 -1340 0
-6 -1341 0
-7 -25 0
-8 -26 0
-9 -27 0
-7 -1438 0
-8 -1439 0
-9 -1440 0
-7 -259 0
-8 -260 0
-9 -261 0
-7 -1828 0
-8 -1829 0
-9 -1830 0
-7 -988 0
-8 -989 0
-9 -990 0
-10 -931 0
-11 -932 0
-12 -933 0
-10 -1015 0
-11 -1016 0
-12 -1017 0
-10 -1627 0
-11 -1628 0
-12 -1629 0
-10 -1636 0
-11 -1637 0
-12 -1638 0
-10 -118 0
-11 -119 0
-12 -120 0
-13 -1006 0
-14 -1007 0
-15 -1008 0
-13 -133 0
-14 -134 0
-15 -135 0
-13 -1189 0
-14 -1190 0
-15 -1191 0
-13 -1003 0
-14 -1004 0
-15 -1005 0
-16 -1888 0
-17 -1889 0
-18 -1890 0
-16 -1891 0
-17 -1892 0
-18 -1893 0
-16 -166 0
-17 -167 0
-18 -168 0
-16 -937 0
-17 -938 0
-18 -939 0
-19 -2014 0
-20 -2015 0
-21 -2016 0
-19 -1474 0
-20 -1475 0
-21 -1476 0
-19 -1483 0
-20 -1484 0
-21 -1485 0
-19 -256 0
-20 -257 0
-21 -258 0
-22 -1786 0
-23 -1787 0
-24 -1788 0
-22 -2131 0
-23 -2132 0
-24 -2133 0
-22 -25 0
-23 -26 0
-24 -27 0
-22 -1831 0
-23 -1832 0
-24 -1833 0
-22 -1807 0
-23 -1808 0
-24 -1809 0
-22 -427 0
-23 -428 0
-24 -429 0
-25 -280 0
-26 -281 0
-27 -282 0
-25 -34 0
-26 -35 0
-27 -36 0
-25 -211 0
-26 -212 0
-27 -213 0
-25 -430 0
-26 -431 0
-27 -432 0
-25 -265 0
-26 -266 0
-27 -267 0
-28 -1009 0
-29 -1010 0
-30 -1011 0
-28 -1024 0
-29 -1025 0
-30 -1026 0
-28 -391 0
-29 -392 0
-30 -393 0
-28 -970 0
-29 -971 0
-30 -972 0
-28 -31 0
-29 -32 0
-30 -33 0
-31 -430 0
-32 -431 0
-33 -432 0
-31 -268 0
-32 -269 0
-33 -270 0
-31 -223 0
-32 -224 0
-33 -225 0
-34 -502 0
-35 -503 0
-36 -504 0
-34 -1801 0
-35 -1802 0
-36 -1803 0
-37 -1780 0
-38 -1781 0
-39 -1782 0
-37 -244 0
-38 -245 0
-39 -246 0
-37 -118 0
-38 -119 0
-39 -120 0
-40 -1834 0
-41 -1835 0
-42 -1836 0
-40 -61 0
-41 -62 0
-42 -63 0
-40 -1798 0
-41 -1799 0
-42 -1800 0
-40 -370 0
-41 -371 0
-42 -372 0
-43 -1324 0
-44 -1325 0
-45 -1326 0
-43 -313 0
-44 -314 0
-45 -315 0
-43 -1951 0
-44 -1952 0
-45 -1953 0
-43 -76 0
-44 -77 0
-45 -78 0
-43 -1528 0
-44 -1529 0
-45 -1530 0
-46 -316 0
-47 -317 0
-48 -318 0
-46 -1789 0
-47 -1790 0
-48 -1791 0
-46 -1150 0
-47 -1151 0
-48 -1152 0
-46 -73 0
-47 -74 0
-48 -75 0
-46 -1315 0
-47 -1316 0
-48 -1317 0
-46 -1087 0
-47 -1088 0
-48 -1089 0
-49 -61 0
-50 -62 0
-51 -63 0
-49 -391 0
-50 -392 0
-51 -393 0
-49 -1981 0
-50 -1982 0
-51 -1983 0
-52 -295 0
-53 -296 0
-54 -297 0
-52 -88 0
-53 -89 0
-54 -90 0
-52 -1690 0
-53 -1691 0
-54 -1692 0
-52 -1636 0
-53 -1637 0
-54 -1638 0
-52 -1570 0
-53 -1571 0
-54 -1572 0
-55 -61 0
-56 -62 0
-57 -63 0
-55 -415 0
-56 -416 0
-57 -417 0
-55 -967 0
-56 -968 0
-57 -969 0
-55 -1615 0
-56 -1616 0
-57 -1617 0
-58 -61 0
-59 -62 0
-60 -63 0
-58 -1204 0
-59 -1205 0
-60 -1206 0
-58 -1837 0
-59 -1838 0
-60 -1839 0
-58 -1792 0
-59 -1793 0
-60 -1794 0
-58 -1582 0
-59 -1583 0
-60 -1584 0
-58 -427 0
-59 -428 0
-60 -429 0
-61 -91 0
-62 -92 0
-63 -93 0
-61 -604 0
-62 -605 0
-63 -606 0
-61 -178 0
-62 -179 0
-63 -180 0
-61 -181 0
-62 -182 0
-63 -183 0
-61 -319 0
-62 -320 0
-63 -321 0
-61 -322 0
-62 -323 0
-63 -324 0
-61 -283 0
-62 -284 0
-63 -285 0
-61 -64 0
-62 -65 0
-63 -66 0
-61 -343 0
-62 -344 0
-63 -345 0
-61 -430 0
-62 -431 0
-63 -432 0
-61 -262 0
-62 -263 0
-63 -264 0
-64 -1018 0
-65 -1019 0
-66 -1020 0
-64 -967 0
-65 -968 0
-66 -969 0
-64 -493 0
-65 -494 0
-66 -495 0
-64 -1357 0
-65 -1358 0
-66 -1359 0
-67 -361 0
-68 -362 0
-69 -363 0
-67 -1270 0
-68 -1271 0
-69 -1272 0
-67 -2137 0
-68 -2138 0
-69 -2139 0
-67 -85 0
-68 -86 0
-69 -87 0
-70 -88 0
-71 -89 0
-72 -90 0
-70 -1690 0
-71 -1691 0
-72 -1692 0
-70 -370 0
-71 -371 0
-72 -372 0
-70 -1432 0
-71 -1433 0
-72 -1434 0
-73 -97 0
-74 -98 0
-75 -99 0
-73 -430 0
-74 -431 0
-75 -432 0
-76 -94 0
-77 -95 0
-78 -96 0
-76 -277 0
-77 -278 0
-78 -279 0
-76 -205 0
-77 -206 0
-78 -207 0
-76 -430 0
-77 -431 0
-78 -432 0
-76 -523 0
-77 -524 0
-78 -525 0
-76 -130 0
-77 -131 0
-78 -132 0
-79 -391 0
-80 -392 0
-81 -393 0
-79 -1270 0
-80 -1271 0
-81 -1272 0
-79 -1276 0
-80 -1277 0
-81 -1278 0
-79 -85 0
-80 -86 0
-81 -87 0
-82 -316 0
-83 -317 0
-84 -318 0
-82 -1897 0
-83 -1898 0
-84 -1899 0
-82 -1147 0
-83 -1148 0
-84 -1149 0
-82 -1870 0
-83 -1871 0
-84 -1872 0
-82 -133 0
-83 -134 0
-84 -135 0
-82 -1189 0
-83 -1190 0
-84 -1191 0
-85 -553 0
-86 -554 0
-87 -555 0
-85 -346 0
-86 -347 0
-87 -348 0
-85 -430 0
-86 -431 0
-87 -432 0
-85 -217 0
-86 -218 0
-87 -219 0
-88 -139 0
-89 -140 0
-90 -141 0
-88 -556 0
-89 -557 0
-90 -558 0
-88 -154 0
-89 -155 0
-90 -156 0
-88 -106 0
-89 -107 0
-90 -108 0
-88 -490 0
-89 -491 0
-90 -492 0
-88 -628 0
-89 -629 0
-90 -630 0
-88 -349 0
-89 -350 0
-90 -351 0
-88 -430 0
-89 -431 0
-90 -432 0
-88 -214 0
-89 -215 0
-90 -216 0
-91 -2077 0
-92 -2078 0
-93 -2079 0
-91 -1207 0
-92 -1208 0
-93 -1209 0
-91 -1345 0
-92 -1346 0
-93 -1347 0
-91 -562 0
-92 -563 0
-93 -564 0
-91 -1279 0
-92 -1280 0
-93 -1281 0
-94 -1198 0
-95 -1199 0
-96 -1200 0
-94 -2071 0
-95 -2072 0
-96 -2073 0
-94 -2044 0
-95 -2045 0
-96 -2046 0
-94 -2047 0
-95 -2048 0
-96 -2049 0
-94 -1744 0
-95 -1745 0
-96 -1746 0
-94 -493 0
-95 -494 0
-96 -495 0
-94 -1192 0
-95 -1193 0
-96 -1194 0
-97 -499 0
-98 -500 0
-99 -501 0
-97 -1150 0
-98 -1151 0
-99 -1152 0
-100 -1474 0
-101 -1475 0
-102 -1476 0
-100 -1543 0
-101 -1544 0
-102 -1545 0
-100 -502 0
-101 -503 0
-102 -504 0
-103 -1627 0
-104 -1628 0
-105 -1629 0
-103 -118 0
-104 -119 0
-105 -120 0
-103 -1216 0
-104 -1217 0
-105 -1218 0
-103 -370 0
-104 -371 0
-105 -372 0
-103 -1432 0
-104 -1433 0
-105 -1434 0
-106 -1777 0
-107 -1778 0
-108 -1779 0
-106 -469 0
-107 -470 0
-108 -471 0
-106 -2089 0
-107 -2090 0
-108 -2091 0
-109 -352 0
-110 -353 0
-111 -354 0
-109 -1984 0
-110 -1985 0
-111 -1986 0
-109 -1840 0
-110 -1841 0
-111 -1842 0
-109 -1900 0
-110 -1901 0
-111 -1902 0
-109 -1903 0
-110 -1904 0
-111 -1905 0
-109 -133 0
-110 -134 0
-111 -135 0
-112 -415 0
-113 -416 0
-114 -417 0
-112 -1399 0
-113 -1400 0
-114 -1401 0
-112 -1804 0
-113 -1805 0
-114 -1806 0
-112 -118 0
-113 -119 0
-114 -120 0
-115 -1738 0
-116 -1739 0
-117 -1740 0
-115 -370 0
-116 -371 0
-117 -372 0
-115 -133 0
-116 -134 0
-117 -135 0
-115 -1768 0
-116 -1769 0
-117 -1770 0
-118 -175 0
-119 -176 0
-120 -177 0
-118 -142 0
-119 -143 0
-120 -144 0
-118 -226 0
-119 -227 0
-120 -228 0
-118 -241 0
-119 -242 0
-120 -243 0
-118 -664 0
-119 -665 0
-120 -666 0
-118 -430 0
-119 -431 0
-120 -432 0
-118 -517 0
-119 -518 0
-120 -519 0
-118 -595 0
-119 -596 0
-120 -597 0
-121 -172 0
-122 -173 0
-123 -174 0
-121 -382 0
-122 -383 0
-123 -384 0
-121 -145 0
-122 -146 0
-123 -147 0
-121 -247 0
-122 -248 0
-123 -249 0
-121 -670 0
-122 -671 0
-123 -672 0
-121 -430 0
-122 -431 0
-123 -432 0
-121 -520 0
-122 -521 0
-123 -522 0
-124 -307 0
-125 -308 0
-126 -309 0
-124 -238 0
-125 -239 0
-126 -240 0
-124 -673 0
-125 -674 0
-126 -675 0
-124 -430 0
-125 -431 0
-126 -432 0
-124 -439 0
-125 -440 0
-126 -441 0
-127 -1702 0
-128 -1703 0
-129 -1704 0
-127 -2050 0
-128 -2051 0
-129 -2052 0
-127 -313 0
-128 -314 0
-129 -315 0
-127 -166 0
-128 -167 0
-129 -168 0
-130 -1195 0
-131 -1196 0
-132 -1197 0
-130 -1198 0
-131 -1199 0
-132 -1200 0
-130 -1009 0
-131 -1010 0
-132 -1011 0
-130 -1726 0
-131 -1727 0
-132 -1728 0
-130 -562 0
-131 -563 0
-132 -564 0
-133 -373 0
-134 -374 0
-135 -375 0
-133 -601 0
-134 -602 0
-135 -603 0
-133 -136 0
-134 -137 0
-135 -138 0
-133 -190 0
-134 -191 0
-135 -192 0
-133 -193 0
-134 -194 0
-135 -195 0
-133 -475 0
-134 -476 0
-135 -477 0
-133 -481 0
-134 -482 0
-135 -483 0
-133 -148 0
-134 -149 0
-135 -150 0
-133 -151 0
-134 -152 0
-135 -153 0
-133 -331 0
-134 -332 0
-135 -333 0
-133 -661 0
-134 -662 0
-135 -663 0
-133 -157 0
-134 -158 0
-135 -159 0
-133 -583 0
-134 -584 0
-135 -585 0
-133 -160 0
-134 -161 0
-135 -162 0
-133 -430 0
-134 -431 0
-135 -432 0
-133 -682 0
-134 -683 0
-135 -684 0
-136 -1708 0
-137 -1709 0
-138 -1710 0
-136 -433 0
-137 -434 0
-138 -435 0
-136 -1582 0
-137 -1583 0
-138 -1584 0
-136 -1903 0
-137 -1904 0
-138 -1905 0
-136 -1819 0
-137 -1820 0
-138 -1821 0
-139 -1285 0
-140 -1286 0
-141 -1287 0
-139 -1360 0
-140 -1361 0
-141 -1362 0
-139 -1342 0
-140 -1343 0
-141 -1344 0
-139 -976 0
-140 -977 0
-141 -978 0
-139 -562 0
-140 -563 0
-141 -564 0
-142 -1537 0
-143 -1538 0
-144 -1539 0
-142 -496 0
-143 -497 0
-144 -498 0
-142 -1477 0
-143 -1478 0
-144 -1479 0
-142 -1480 0
-143 -1481 0
-144 -1482 0
-145 -505 0
-146 -506 0
-147 -507 0
-145 -2125 0
-146 -2126 0
-147 -2127 0
-145 -1813 0
-146 -1814 0
-147 -1815 0
-148 -469 0
-149 -470 0
-150 -471 0
-148 -1897 0
-149 -1898 0
-150 -1899 0
-148 -2089 0
-149 -2090 0
-150 -2091 0
-151 -1984 0
-152 -1985 0
-153 -1986 0
-151 -1618 0
-152 -1619 0
-153 -1620 0
-151 -472 0
-152 -473 0
-153 -474 0
-154 -1777 0
-155 -1778 0
-156 -1779 0
-154 -2002 0
-155 -2003 0
-156 -2004 0
-154 -580 0
-155 -581 0
-156 -582 0
-157 -1567 0
-158 -1568 0
-159 -1569 0
-157 -493 0
-158 -494 0
-159 -495 0
-157 -2032 0
-158 -2033 0
-159 -2034 0
-160 -1564 0
-161 -1565 0
-162 -1566 0
-160 -1171 0
-161 -1172 0
-162 -1173 0
-160 -505 0
-161 -506 0
-162 -507 0
-160 -1705 0
-161 -1706 0
-162 -1707 0
-163 -610 0
-164 -611 0
-165 -612 0
-163 -613 0
-164 -614 0
-165 -615 0
-163 -184 0
-164 -185 0
-165 -186 0
-163 -568 0
-164 -569 0
-165 -570 0
-163 -487 0
-164 -488 0
-165 -489 0
-163 -202 0
-164 -203 0
-165 -204 0
-163 -421 0
-164 -422 0
-165 -423 0
-163 -631 0
-164 -632 0
-165 -633 0
-163 -430 0
-164 -431 0
-165 -432 0
-166 -187 0
-167 -188 0
-168 -189 0
-166 -616 0
-167 -617 0
-168 -618 0
-166 -430 0
-167 -431 0
-168 -432 0
-166 -442 0
-167 -443 0
-168 -444 0
-166 -535 0
-167 -536 0
-168 -537 0
-166 -169 0
-167 -170 0
-168 -171 0
-169 -1888 0
-170 -1889 0
-171 -1890 0
-169 -2092 0
-170 -2093 0
-171 -2094 0
-169 -2143 0
-170 -2144 0
-171 -2145 0
-169 -448 0
-170 -449 0
-171 -450 0
-172 -577 0
-173 -578 0
-174 -579 0
-172 -1630 0
-173 -1631 0
-174 -1632 0
-172 -1573 0
-173 -1574 0
-174 -1575 0
-172 -1960 0
-173 -1961 0
-174 -1962 0
-175 -1480 0
-176 -1481 0
-177 -1482 0
-175 -1570 0
-176 -1571 0
-177 -1572 0
-175 -580 0
-176 -581 0
-177 -582 0
-175 -1525 0
-176 -1526 0
-177 -1527 0
-178 -2041 0
-179 -2042 0
-180 -2043 0
-178 -1435 0
-179 -1436 0
-180 -1437 0
-178 -640 0
-179 -641 0
-180 -642 0
-181 -646 0
-182 -647 0
-183 -648 0
-181 -1861 0
-182 -1862 0
-183 -1863 0
-181 -1906 0
-182 -1907 0
-183 -1908 0
-181 -1918 0
-182 -1919 0
-183 -1920 0
-184 -2119 0
-185 -2120 0
-186 -2121 0
-184 -505 0
-185 -506 0
-186 -507 0
-184 -955 0
-185 -956 0
-186 -957 0
-187 -1603 0
-188 -1604 0
-189 -1605 0
-187 -1891 0
-188 -1892 0
-189 -1893 0
-187 -502 0
-188 -503 0
-189 -504 0
-187 -1651 0
-188 -1652 0
-189 -1653 0
-187 -2050 0
-188 -2051 0
-189 -2052 0
-187 -958 0
-188 -959 0
-189 -960 0
-190 -577 0
-191 -578 0
-192 -579 0
-190 -1429 0
-191 -1430 0
-192 -1431 0
-190 -1639 0
-191 -1640 0
-192 -1641 0
-193 -1162 0
-194 -1163 0
-195 -1164 0
-193 -991 0
-194 -992 0
-195 -993 0
-193 -1225 0
-194 -1226 0
-195 -1227 0
-193 -580 0
-194 -581 0
-195 -582 0
-193 -949 0
-194 -950 0
-195 -951 0
-193 -994 0
-194 -995 0
-195 -996 0
-193 -1003 0
-194 -1004 0
-195 -1005 0
-196 -1261 0
-197 -1262 0
-198 -1263 0
-196 -1288 0
-197 -1289 0
-198 -1290 0
-196 -934 0
-197 -935 0
-198 -936 0
-196 -1015 0
-197 -1016 0
-198 -1017 0
-196 -295 0
-197 -296 0
-198 -297 0
-196 -244 0
-197 -245 0
-198 -246 0
-196 -1816 0
-197 -1817 0
-198 -1818 0
-196 -973 0
-197 -974 0
-198 -975 0
-199 -1132 0
-200 -1133 0
-201 -1134 0
-199 -1135 0
-200 -1136 0
-201 -1137 0
-199 -1051 0
-200 -1052 0
-201 -1053 0
-199 -1972 0
-200 -1973 0
-201 -1974 0
-199 -298 0
-200 -299 0
-201 -300 0
-199 -235 0
-200 -236 0
-201 -237 0
-199 -1084 0
-200 -1085 0
-201 -1086 0
-199 -1093 0
-200 -1094 0
-201 -1095 0
-202 -1444 0
-203 -1445 0
-204 -1446 0
-202 -937 0
-203 -938 0
-204 -939 0
-202 -1702 0
-203 -1703 0
-204 -1704 0
-202 -1348 0
-203 -1349 0
-204 -1350 0
-202 -1459 0
-203 -1460 0
-204 -1461 0
-202 -1720 0
-203 -1721 0
-204 -1722 0
-202 -1549 0
-203 -1550 0
-204 -1551 0
-202 -562 0
-203 -563 0
-204 -564 0
-205 -1201 0
-206 -1202 0
-207 -1203 0
-205 -640 0
-206 -641 0
-207 -642 0
-205 -1351 0
-206 -1352 0
-207 -1353 0
-208 -259 0
-209 -260 0
-210 -261 0
-208 -1441 0
-209 -1442 0
-210 -1443 0
-208 -1144 0
-209 -1145 0
-210 -1146 0
-208 -298 0
-209 -299 0
-210 -300 0
-208 -979 0
-209 -980 0
-210 -981 0
-208 -988 0
-209 -989 0
-210 -990 0
-211 -1831 0
-212 -1832 0
-213 -1833 0
-211 -1873 0
-212 -1874 0
-213 -1875 0
-211 -751 0
-212 -752 0
-213 -753 0
-211 -1819 0
-212 -1820 0
-213 -1821 0
-214 -1816 0
-215 -1817 0
-216 -1818 0
-214 -640 0
-215 -641 0
-216 -642 0
-214 -2059 0
-215 -2060 0
-216 -2061 0
-217 -646 0
-218 -647 0
-219 -648 0
-217 -1966 0
-218 -1967 0
-219 -1968 0
-217 -1684 0
-218 -1685 0
-219 -1686 0
-217 -1972 0
-218 -1973 0
-219 -1974 0
-220 -1642 0
-221 -1643 0
-222 -1644 0
-220 -352 0
-221 -353 0
-222 -354 0
-220 -1927 0
-221 -1928 0
-222 -1929 0
-220 -235 0
-221 -236 0
-222 -237 0
-223 -1021 0
-224 -1022 0
-225 -1023 0
-223 -970 0
-224 -971 0
-225 -972 0
-223 -946 0
-224 -947 0
-225 -948 0
-223 -751 0
-224 -752 0
-225 -753 0
-226 -1570 0
-227 -1571 0
-228 -1572 0
-226 -1636 0
-227 -1637 0
-228 -1638 0
-226 -640 0
-227 -641 0
-228 -642 0
-226 -1804 0
-227 -1805 0
-228 -1806 0
-229 -643 0
-230 -644 0
-231 -645 0
-229 -607 0
-230 -608 0
-231 -609 0
-229 -232 0
-230 -233 0
-231 -234 0
-229 -430 0
-230 -431 0
-231 -432 0
-232 -2122 0
-233 -2123 0
-234 -2124 0
-232 -1336 0
-233 -1337 0
-234 -1338 0
-232 -1843 0
-233 -1844 0
-234 -1845 0
-232 -1354 0
-233 -1355 0
-234 -1356 0
-232 -433 0
-233 -434 0
-234 -435 0
-235 -706 0
-236 -707 0
-237 -708 0
-235 -676 0
-236 -677 0
-237 -678 0
-235 -430 0
-236 -431 0
-237 -432 0
-238 -931 0
-239 -932 0
-240 -933 0
-238 -1996 0
-239 -1997 0
-240 -1998 0
-238 -640 0
-239 -641 0
-240 -642 0
-238 -1747 0
-239 -1748 0
-240 -1749 0
-241 -1750 0
-242 -1751 0
-243 -1752 0
-241 -931 0
-242 -932 0
-243 -933 0
-241 -649 0
-242 -650 0
-243 -651 0
-241 -2056 0
-242 -2057 0
-243 -2058 0
-241 -1411 0
-242 -1412 0
-243 -1413 0
-244 -274 0
-245 -275 0
-246 -276 0
-244 -709 0
-245 -710 0
-246 -711 0
-244 -286 0
-245 -287 0
-246 -288 0
-244 -250 0
-245 -251 0
-246 -252 0
-244 -679 0
-245 -680 0
-246 -681 0
-244 -430 0
-245 -431 0
-246 -432 0
-244 -445 0
-245 -446 0
-246 -447 0
-247 -646 0
-248 -647 0
-249 -648 0
-247 -1573 0
-248 -1574 0
-249 -1575 0
-247 -1804 0
-248 -1805 0
-249 -1806 0
-250 -1447 0
-251 -1448 0
-252 -1449 0
-250 -469 0
-251 -470 0
-252 -471 0
-250 -1930 0
-251 -1931 0
-252 -1932 0
-253 -1786 0
-254 -1787 0
-255 -1788 0
-253 -1807 0
-254 -1808 0
-255 -1809 0
-253 -1585 0
-254 -1586 0
-255 -1587 0
-256 -694 0
-257 -695 0
-258 -696 0
-256 -652 0
-257 -653 0
-258 -654 0
-256 -430 0
-257 -431 0
-258 -432 0
-256 -637 0
-257 -638 0
-258 -639 0
-259 -271 0
-260 -272 0
-261 -273 0
-259 -718 0
-260 -719 0
-261 -720 0
-259 -430 0
-260 -431 0
-261 -432 0
-262 -727 0
-263 -728 0
-264 -729 0
-262 -1834 0
-263 -1835 0
-264 -1836 0
-262 -1645 0
-263 -1646 0
-264 -1647 0
-262 -1396 0
-263 -1397 0
-264 -1398 0
-262 -1204 0
-263 -1205 0
-264 -1206 0
-262 -1633 0
-263 -1634 0
-264 -1635 0
-262 -1213 0
-263 -1214 0
-264 -1215 0
-265 -1807 0
-266 -1808 0
-267 -1809 0
-265 -1165 0
-266 -1166 0
-267 -1167 0
-265 -1987 0
-266 -1988 0
-267 -1989 0
-265 -835 0
-266 -836 0
-267 -837 0
-268 -1909 0
-269 -1910 0
-270 -1911 0
-268 -2101 0
-269 -2102 0
-270 -2103 0
-268 -2050 0
-269 -2051 0
-270 -2052 0
-268 -829 0
-269 -830 0
-270 -831 0
-271 -496 0
-272 -497 0
-273 -498 0
-271 -982 0
-272 -983 0
-273 -984 0
-271 -1951 0
-272 -1952 0
-273 -1953 0
-274 -1009 0
-275 -1010 0
-276 -1011 0
-274 -973 0
-275 -974 0
-276 -975 0
-274 -562 0
-275 -563 0
-276 -564 0
-277 -727 0
-278 -728 0
-279 -729 0
-277 -1669 0
-278 -1670 0
-279 -1671 0
-277 -1633 0
-278 -1634 0
-279 -1635 0
-277 -2044 0
-278 -2045 0
-279 -2046 0
-277 -1528 0
-278 -1529 0
-279 -1530 0
-280 -2020 0
-281 -2021 0
-282 -2022 0
-280 -1501 0
-281 -1502 0
-282 -1503 0
-280 -1837 0
-281 -1838 0
-282 -1839 0
-280 -1504 0
-281 -1505 0
-282 -1506 0
-280 -2128 0
-281 -2129 0
-282 -2130 0
-280 -859 0
-281 -860 0
-282 -861 0
-280 -1912 0
-281 -1913 0
-282 -1914 0
-280 -1819 0
-281 -1820 0
-282 -1821 0
-280 -1438 0
-281 -1439 0
-282 -1440 0
-283 -751 0
-284 -752 0
-285 -753 0
-283 -1837 0
-284 -1838 0
-285 -1839 0
-283 -1852 0
-284 -1853 0
-285 -1854 0
-283 -1207 0
-284 -1208 0
-285 -1209 0
-283 -1450 0
-284 -1451 0
-285 -1452 0
-283 -1918 0
-284 -1919 0
-285 -1920 0
-286 -964 0
-287 -965 0
-288 -966 0
-286 -1693 0
-287 -1694 0
-288 -1695 0
-286 -580 0
-287 -581 0
-288 -582 0
-286 -949 0
-287 -950 0
-288 -951 0
-289 -1690 0
-290 -1691 0
-291 -1692 0
-289 -1141 0
-290 -1142 0
-291 -1143 0
-289 -367 0
-290 -368 0
-291 -369 0
-289 -298 0
-290 -299 0
-291 -300 0
-289 -1180 0
-290 -1181 0
-291 -1182 0
-292 -295 0
-293 -296 0
-294 -297 0
-292 -415 0
-293 -416 0
-294 -417 0
-292 -1621 0
-293 -1622 0
-294 -1623 0
-292 -1414 0
-293 -1415 0
-294 -1416 0
-295 -802 0
-296 -803 0
-297 -804 0
-295 -697 0
-296 -698 0
-297 -699 0
-295 -328 0
-296 -329 0
-297 -330 0
-295 -400 0
-296 -401 0
-297 -402 0
-295 -754 0
-296 -755 0
-297 -756 0
-295 -430 0
-296 -431 0
-297 -432 0
-298 -304 0
-299 -305 0
-300 -306 0
-298 -742 0
-299 -743 0
-300 -744 0
-298 -700 0
-299 -701 0
-300 -702 0
-298 -712 0
-299 -713 0
-300 -714 0
-298 -757 0
-299 -758 0
-300 -759 0
-298 -430 0
-299 -431 0
-300 -432 0
-301 -1471 0
-302 -1472 0
-303 -1473 0
-301 -415 0
-302 -416 0
-303 -417 0
-301 -1399 0
-302 -1400 0
-303 -1401 0
-301 -1846 0
-302 -1847 0
-303 -1848 0
-301 -313 0
-302 -314 0
-303 -315 0
-301 -1990 0
-302 -1991 0
-303 -1992 0
-301 -1414 0
-302 -1415 0
-303 -1416 0
-304 -1864 0
-305 -1865 0
-306 -1866 0
-304 -448 0
-305 -449 0
-306 -450 0
-304 -1234 0
-305 -1235 0
-306 -1236 0
-307 -1747 0
-308 -1748 0
-309 -1749 0
-307 -1894 0
-308 -1895 0
-309 -1896 0
-307 -1714 0
-308 -1715 0
-309 -1716 0
-307 -1735 0
-308 -1736 0
-309 -1737 0
-307 -721 0
-308 -722 0
-309 -723 0
-310 -1945 0
-311 -1946 0
-312 -1947 0
-310 -1792 0
-311 -1793 0
-312 -1794 0
-310 -1801 0
-311 -1802 0
-312 -1803 0
-310 -427 0
-311 -428 0
-312 -429 0
-310 -313 0
-311 -314 0
-312 -315 0
-313 -745 0
-314 -746 0
-315 -747 0
-313 -820 0
-314 -821 0
-315 -822 0
-313 -334 0
-314 -335 0
-315 -336 0
-313 -763 0
-314 -764 0
-315 -765 0
-313 -430 0
-314 -431 0
-315 -432 0
-316 -619 0
-317 -620 0
-318 -621 0
-316 -823 0
-317 -824 0
-318 -825 0
-316 -769 0
-317 -770 0
-318 -771 0
-316 -730 0
-317 -731 0
-318 -732 0
-316 -430 0
-317 -431 0
-318 -432 0
-319 -1396 0
-320 -1397 0
-321 -1398 0
-319 -1648 0
-320 -1649 0
-321 -1650 0
-319 -1468 0
-320 -1469 0
-321 -1470 0
-319 -1273 0
-320 -1274 0
-321 -1275 0
-319 -1381 0
-320 -1382 0
-321 -1383 0
-319 -826 0
-320 -827 0
-321 -828 0
-319 -1453 0
-320 -1454 0
-321 -1455 0
-319 -1357 0
-320 -1358 0
-321 -1359 0
-319 -1279 0
-320 -1280 0
-321 -1281 0
-322 -1939 0
-323 -1940 0
-324 -1941 0
-322 -2017 0
-323 -2018 0
-324 -2019 0
-322 -1105 0
-323 -1106 0
-324 -1107 0
-322 -829 0
-323 -830 0
-324 -831 0
-322 -1123 0
-323 -1124 0
-324 -1125 0
-322 -1849 0
-323 -1850 0
-324 -1851 0
-325 -1915 0
-326 -1916 0
-327 -1917 0
-325 -352 0
-326 -353 0
-327 -354 0
-325 -1609 0
-326 -1610 0
-327 -1611 0
-325 -1672 0
-326 -1673 0
-327 -1674 0
-328 -1975 0
-329 -1976 0
-330 -1977 0
-328 -1222 0
-329 -1223 0
-330 -1224 0
-328 -472 0
-329 -473 0
-330 -474 0
-331 -1894 0
-332 -1895 0
-333 -1896 0
-331 -721 0
-332 -722 0
-333 -723 0
-334 -1606 0
-335 -1607 0
-336 -1608 0
-334 -1699 0
-335 -1700 0
-336 -1701 0
-334 -472 0
-335 -473 0
-336 -474 0
-334 -1660 0
-335 -1661 0
-336 -1662 0
-337 -1774 0
-338 -1775 0
-339 -1776 0
-337 -1576 0
-338 -1577 0
-339 -1578 0
-337 -370 0
-338 -371 0
-339 -372 0
-337 -388 0
-338 -389 0
-339 -390 0
-337 -1876 0
-338 -1877 0
-339 -1878 0
-340 -1678 0
-341 -1679 0
-342 -1680 0
-340 -1942 0
-341 -1943 0
-342 -1944 0
-340 -352 0
-341 -353 0
-342 -354 0
-340 -415 0
-341 -416 0
-342 -417 0
-340 -1576 0
-341 -1577 0
-342 -1578 0
-340 -1900 0
-341 -1901 0
-342 -1902 0
-343 -838 0
-344 -839 0
-345 -840 0
-343 -1168 0
-344 -1169 0
-345 -1170 0
-343 -1849 0
-344 -1850 0
-345 -1851 0
-346 -1132 0
-347 -1133 0
-348 -1134 0
-346 -1138 0
-347 -1139 0
-348 -1140 0
-346 -1795 0
-347 -1796 0
-348 -1797 0
-346 -1972 0
-347 -1973 0
-348 -1974 0
-346 -1303 0
-347 -1304 0
-348 -1305 0
-346 -1696 0
-347 -1697 0
-348 -1698 0
-346 -1573 0
-347 -1574 0
-348 -1575 0
-346 -778 0
-347 -779 0
-348 -780 0
-346 -1156 0
-347 -1157 0
-348 -1158 0
-349 -934 0
-350 -935 0
-351 -936 0
-349 -976 0
-350 -977 0
-351 -978 0
-349 -1816 0
-350 -1817 0
-351 -1818 0
-349 -1297 0
-350 -1298 0
-351 -1299 0
-349 -781 0
-350 -782 0
-351 -783 0
-349 -2002 0
-350 -2003 0
-351 -2004 0
-349 -1570 0
-350 -1571 0
-351 -1572 0
-349 -1588 0
-350 -1589 0
-351 -1590 0
-352 -379 0
-353 -380 0
-354 -381 0
-352 -703 0
-353 -704 0
-354 -705 0
-352 -406 0
-353 -407 0
-354 -408 0
-352 -424 0
-353 -425 0
-354 -426 0
-352 -430 0
-353 -431 0
-354 -432 0
-352 -733 0
-353 -734 0
-354 -735 0
-352 -847 0
-353 -848 0
-354 -849 0
-355 -2131 0
-356 -2132 0
-357 -2133 0
-355 -358 0
-356 -359 0
-357 -360 0
-355 -1822 0
-356 -1823 0
-357 -1824 0
-355 -427 0
-356 -428 0
-357 -429 0
-358 -511 0
-359 -512 0
-360 -513 0
-358 -430 0
-359 -431 0
-360 -432 0
-358 -436 0
-359 -437 0
-360 -438 0
-358 -364 0
-359 -365 0
-360 -366 0
-361 -403 0
-362 -404 0
-363 -405 0
-361 -430 0
-362 -431 0
-363 -432 0
-361 -736 0
-362 -737 0
-363 -738 0
-364 -1999 0
-365 -2000 0
-366 -2001 0
-364 -1507 0
-365 -1508 0
-366 -1509 0
-364 -433 0
-365 -434 0
-366 -435 0
-367 -541 0
-368 -542 0
-369 -543 0
-367 -397 0
-368 -398 0
-369 -399 0
-367 -814 0
-368 -815 0
-369 -816 0
-367 -430 0
-368 -431 0
-369 -432 0
-367 -790 0
-368 -791 0
-369 -792 0
-370 -394 0
-371 -395 0
-372 -396 0
-370 -817 0
-371 -818 0
-372 -819 0
-370 -418 0
-371 -419 0
-372 -420 0
-370 -430 0
-371 -431 0
-372 -432 0
-373 -1834 0
-374 -1835 0
-375 -1836 0
-373 -1798 0
-374 -1799 0
-375 -1800 0
-376 -1915 0
-377 -1916 0
-378 -1917 0
-376 -1558 0
-377 -1559 0
-378 -1560 0
-376 -412 0
-377 -413 0
-378 -414 0
-379 -448 0
-380 -449 0
-381 -450 0
-379 -2026 0
-380 -2027 0
-381 -2028 0
-382 -1711 0
-383 -1712 0
-384 -1713 0
-382 -1249 0
-383 -1250 0
-384 -1251 0
-382 -751 0
-383 -752 0
-384 -753 0
-382 -1954 0
-383 -1955 0
-384 -1956 0
-382 -1762 0
-383 -1763 0
-384 -1764 0
-382 -1993 0
-383 -1994 0
-384 -1995 0
-385 -415 0
-386 -416 0
-387 -417 0
-385 -943 0
-386 -944 0
-387 -945 0
-385 -1990 0
-386 -1991 0
-387 -1992 0
-388 -457 0
-389 -458 0
-390 -459 0
-388 -430 0
-389 -431 0
-390 -432 0
-388 -529 0
-389 -530 0
-390 -531 0
-388 -793 0
-389 -794 0
-390 -795 0
-388 -853 0
-389 -854 0
-390 -855 0
-388 -739 0
-389 -740 0
-390 -741 0
-391 -460 0
-392 -461 0
-393 -462 0
-391 -544 0
-392 -545 0
-393 -546 0
-391 -430 0
-392 -431 0
-393 -432 0
-391 -532 0
-392 -533 0
-393 -534 0
-391 -796 0
-392 -797 0
-393 -798 0
-394 -1825 0
-395 -1826 0
-396 -1827 0
-394 -1609 0
-395 -1610 0
-396 -1611 0
-394 -940 0
-395 -941 0
-396 -942 0
-394 -448 0
-395 -449 0
-396 -450 0
-394 -1957 0
-395 -1958 0
-396 -1959 0
-394 -1417 0
-395 -1418 0
-396 -1419 0
-394 -1540 0
-395 -1541 0
-396 -1542 0
-394 -1546 0
-395 -1547 0
-396 -1548 0
-394 -1768 0
-395 -1769 0
-396 -1770 0
-394 -1864 0
-395 -1865 0
-396 -1866 0
-394 -2005 0
-395 -2006 0
-396 -2007 0
-394 -1579 0
-395 -1580 0
-396 -1581 0
-397 -1969 0
-398 -1970 0
-399 -1971 0
-397 -1042 0
-398 -1043 0
-399 -1044 0
-397 -454 0
-398 -455 0
-399 -456 0
-397 -1117 0
-398 -1118 0
-399 -1119 0
-397 -1126 0
-398 -1127 0
-399 -1128 0
-400 -1294 0
-401 -1295 0
-402 -1296 0
-400 -1300 0
-401 -1301 0
-402 -1302 0
-400 -973 0
-401 -974 0
-402 -975 0
-400 -562 0
-401 -563 0
-402 -564 0
-403 -1969 0
-404 -1970 0
-405 -1971 0
-403 -2035 0
-404 -2036 0
-405 -2037 0
-403 -1447 0
-404 -1448 0
-405 -1449 0
-403 -469 0
-404 -470 0
-405 -471 0
-403 -1924 0
-404 -1925 0
-405 -1926 0
-406 -1465 0
-407 -1466 0
-408 -1467 0
-406 -1606 0
-407 -1607 0
-408 -1608 0
-406 -1609 0
-407 -1610 0
-408 -1611 0
-406 -943 0
-407 -944 0
-408 -945 0
-406 -1642 0
-407 -1643 0
-408 -1644 0
-406 -1984 0
-407 -1985 0
-408 -1986 0
-406 -2074 0
-407 -2075 0
-408 -2076 0
-406 -1666 0
-407 -1667 0
-408 -1668 0
-406 -472 0
-407 -473 0
-408 -474 0
-409 -1786 0
-410 -1787 0
-411 -1788 0
-409 -427 0
-410 -428 0
-411 -429 0
-409 -412 0
-410 -413 0
-411 -414 0
-412 -715 0
-413 -716 0
-414 -717 0
-412 -430 0
-413 -431 0
-414 -432 0
-415 -856 0
-416 -857 0
-417 -858 0
-415 -466 0
-416 -467 0
-417 -468 0
-415 -484 0
-416 -485 0
-417 -486 0
-415 -430 0
-416 -431 0
-417 -432 0
-418 -961 0
-419 -962 0
-420 -963 0
-418 -1579 0
-419 -1580 0
-420 -1581 0
-418 -472 0
-419 -473 0
-420 -474 0
-418 -1039 0
-419 -1040 0
-420 -1041 0
-421 -1702 0
-422 -1703 0
-423 -1704 0
-421 -721 0
-422 -722 0
-423 -723 0
-421 -2107 0
-422 -2108 0
-423 -2109 0
-424 -1915 0
-425 -1916 0
-426 -1917 0
-424 -1663 0
-425 -1664 0
-426 -1665 0
-424 -502 0
-425 -503 0
-426 -504 0
-427 -895 0
-428 -896 0
-429 -897 0
-427 -748 0
-428 -749 0
-429 -750 0
-427 -430 0
-428 -431 0
-429 -432 0
-430 -448 0
-431 -449 0
-432 -450 0
-430 -898 0
-431 -899 0
-432 -900 0
-430 -451 0
-431 -452 0
-432 -453 0
-430 -454 0
-431 -455 0
-432 -456 0
-430 -640 0
-431 -641 0
-432 -642 0
-430 -646 0
-431 -647 0
-432 -648 0
-430 -649 0
-431 -650 0
-432 -651 0
-430 -859 0
-431 -860 0
-432 -861 0
-430 -469 0
-431 -470 0
-432 -471 0
-430 -472 0
-431 -473 0
-432 -474 0
-430 -559 0
-431 -560 0
-432 -561 0
-430 -751 0
-431 -752 0
-432 -753 0
-430 -562 0
-431 -563 0
-432 -564 0
-430 -826 0
-431 -827 0
-432 -828 0
-430 -829 0
-431 -830 0
-432 -831 0
-430 -493 0
-431 -494 0
-432 -495 0
-430 -577 0
-431 -578 0
-432 -579 0
-430 -496 0
-431 -497 0
-432 -498 0
-430 -580 0
-431 -581 0
-432 -582 0
-430 -721 0
-431 -722 0
-432 -723 0
-430 -727 0
-431 -728 0
-432 -729 0
-430 -499 0
-431 -500 0
-432 -501 0
-430 -502 0
-431 -503 0
-432 -504 0
-430 -505 0
-431 -506 0
-432 -507 0
-430 -778 0
-431 -779 0
-432 -780 0
-430 -781 0
-431 -782 0
-432 -783 0
-430 -634 0
-431 -635 0
-432 -636 0
-430 -835 0
-431 -836 0
-432 -837 0
-430 -433 0
-431 -434 0
-432 -435 0
-430 -838 0
-431 -839 0
-432 -840 0
-430 -889 0
-431 -890 0
-432 -891 0
-433 -862 0
-434 -863 0
-435 -864 0
-433 -565 0
-434 -566 0
-435 -567 0
-433 -724 0
-434 -725 0
-435 -726 0
-433 -508 0
-434 -509 0
-435 -510 0
-433 -892 0
-434 -893 0
-435 -894 0
-436 -1999 0
-437 -2000 0
-438 -2001 0
-436 -505 0
-437 -506 0
-438 -507 0
-436 -2023 0
-437 -2024 0
-438 -2025 0
-439 -1780 0
-440 -1781 0
-441 -1782 0
-439 -781 0
-440 -782 0
-441 -783 0
-442 -727 0
-443 -728 0
-444 -729 0
-442 -2140 0
-443 -2141 0
-444 -2142 0
-442 -2143 0
-443 -2144 0
-444 -2145 0
-442 -2062 0
-443 -2063 0
-444 -2064 0
-445 -646 0
-446 -647 0
-447 -648 0
-445 -1813 0
-446 -1814 0
-447 -1815 0
-448 -478 0
-449 -479 0
-450 -480 0
-448 -571 0
-449 -572 0
-450 -573 0
-448 -760 0
-449 -761 0
-450 -762 0
-448 -586 0
-449 -587 0
-450 -588 0
-451 -868 0
-452 -869 0
-453 -870 0
-451 -478 0
-452 -479 0
-453 -480 0
-451 -850 0
-452 -851 0
-453 -852 0
-454 -901 0
-455 -902 0
-456 -903 0
-454 -871 0
-455 -872 0
-456 -873 0
-454 -574 0
-455 -575 0
-456 -576 0
-454 -514 0
-455 -515 0
-456 -516 0
-454 -526 0
-455 -527 0
-456 -528 0
-457 -1327 0
-458 -1328 0
-459 -1329 0
-457 -1564 0
-458 -1565 0
-459 -1566 0
-457 -940 0
-458 -941 0
-459 -942 0
-457 -1576 0
-458 -1577 0
-459 -1578 0
-457 -1579 0
-458 -1580 0
-459 -1581 0
-457 -505 0
-458 -506 0
-459 -507 0
-457 -1486 0
-458 -1487 0
-459 -1488 0
-457 -1594 0
-458 -1595 0
-459 -1596 0
-460 -2116 0
-461 -2117 0
-462 -2118 0
-460 -499 0
-461 -500 0
-462 -501 0
-460 -1981 0
-461 -1982 0
-462 -1983 0
-460 -1219 0
-461 -1220 0
-462 -1221 0
-460 -1126 0
-461 -1127 0
-462 -1128 0
-463 -496 0
-464 -497 0
-465 -498 0
-463 -1477 0
-464 -1478 0
-465 -1479 0
-463 -1489 0
-464 -1490 0
-465 -1491 0
-466 -943 0
-467 -944 0
-468 -945 0
-466 -1624 0
-467 -1625 0
-468 -1626 0
-466 -967 0
-467 -968 0
-468 -969 0
-466 -1012 0
-467 -1013 0
-468 -1014 0
-466 -2047 0
-467 -2048 0
-468 -2049 0
-466 -1036 0
-467 -1037 0
-468 -1038 0
-466 -1327 0
-467 -1328 0
-468 -1329 0
-466 -1567 0
-467 -1568 0
-468 -1569 0
-466 -1576 0
-467 -1577 0
-468 -1578 0
-466 -1591 0
-467 -1592 0
-468 -1593 0
-466 -493 0
-467 -494 0
-468 -495 0
-469 -655 0
-470 -656 0
-471 -657 0
-469 -589 0
-470 -590 0
-471 -591 0
-472 -538 0
-473 -539 0
-474 -540 0
-472 -658 0
-473 -659 0
-474 -660 0
-472 -772 0
-473 -773 0
-474 -774 0
-472 -592 0
-473 -593 0
-474 -594 0
-475 -1795 0
-476 -1796 0
-477 -1797 0
-475 -778 0
-476 -779 0
-477 -780 0
-475 -1948 0
-476 -1949 0
-477 -1950 0
-478 -1978 0
-479 -1979 0
-480 -1980 0
-478 -1546 0
-479 -1547 0
-480 -1548 0
-478 -2023 0
-479 -2024 0
-480 -2025 0
-481 -1237 0
-482 -1238 0
-483 -1239 0
-481 -781 0
-482 -782 0
-483 -783 0
-484 -1789 0
-485 -1790 0
-486 -1791 0
-484 -1579 0
-485 -1580 0
-486 -1581 0
-484 -505 0
-485 -506 0
-486 -507 0
-487 -1798 0
-488 -1799 0
-489 -1800 0
-487 -1459 0
-488 -1460 0
-489 -1461 0
-490 -1285 0
-491 -1286 0
-492 -1287 0
-490 -1297 0
-491 -1298 0
-492 -1299 0
-490 -835 0
-491 -836 0
-492 -837 0
-493 -805 0
-494 -806 0
-495 -807 0
-493 -883 0
-494 -884 0
-495 -885 0
-493 -784 0
-494 -785 0
-495 -786 0
-493 -598 0
-494 -599 0
-495 -600 0
-496 -808 0
-497 -809 0
-498 -810 0
-496 -514 0
-497 -515 0
-498 -516 0
-499 -667 0
-500 -668 0
-501 -669 0
-499 -526 0
-500 -527 0
-501 -528 0
-502 -547 0
-503 -548 0
-504 -549 0
-502 -787 0
-503 -788 0
-504 -789 0
-505 -538 0
-506 -539 0
-507 -540 0
-505 -547 0
-506 -548 0
-507 -549 0
-505 -904 0
-506 -905 0
-507 -906 0
-505 -550 0
-506 -551 0
-507 -552 0
-505 -811 0
-506 -812 0
-507 -813 0
-505 -508 0
-506 -509 0
-507 -510 0
-505 -844 0
-506 -845 0
-507 -846 0
-508 -1999 0
-509 -2000 0
-510 -2001 0
-508 -1882 0
-509 -1883 0
-510 -1884 0
-511 -1684 0
-512 -1685 0
-513 -1686 0
-511 -1720 0
-512 -1721 0
-513 -1722 0
-511 -562 0
-512 -563 0
-513 -564 0
-514 -1102 0
-515 -1103 0
-516 -1104 0
-514 -1078 0
-515 -1079 0
-516 -1080 0
-517 -1015 0
-518 -1016 0
-519 -1017 0
-517 -1267 0
-518 -1268 0
-519 -1269 0
-517 -1273 0
-518 -1274 0
-519 -1275 0
-517 -1612 0
-518 -1613 0
-519 -1614 0
-517 -1027 0
-518 -1028 0
-519 -1029 0
-517 -826 0
-518 -827 0
-519 -828 0
-517 -1309 0
-518 -1310 0
-519 -1311 0
-520 -1135 0
-521 -1136 0
-522 -1137 0
-520 -1966 0
-521 -1967 0
-522 -1968 0
-520 -1561 0
-521 -1562 0
-522 -1563 0
-520 -1105 0
-521 -1106 0
-522 -1107 0
-520 -1108 0
-521 -1109 0
-522 -1110 0
-520 -1066 0
-521 -1067 0
-522 -1068 0
-520 -1711 0
-521 -1712 0
-522 -1713 0
-520 -1069 0
-521 -1070 0
-522 -1071 0
-520 -829 0
-521 -830 0
-522 -831 0
-523 -1324 0
-524 -1325 0
-525 -1326 0
-523 -1729 0
-524 -1730 0
-525 -1731 0
-523 -1333 0
-524 -1334 0
-525 -1335 0
-523 -859 0
-524 -860 0
-525 -861 0
-523 -1759 0
-524 -1760 0
-525 -1761 0
-523 -1030 0
-524 -1031 0
-525 -1032 0
-523 -2104 0
-524 -2105 0
-525 -2106 0
-523 -1744 0
-524 -1745 0
-525 -1746 0
-526 -1531 0
-527 -1532 0
-528 -1533 0
-526 -1555 0
-527 -1556 0
-528 -1557 0
-526 -1534 0
-527 -1535 0
-528 -1536 0
-529 -1687 0
-530 -1688 0
-531 -1689 0
-529 -562 0
-530 -563 0
-531 -564 0
-529 -1486 0
-530 -1487 0
-531 -1488 0
-529 -1810 0
-530 -1811 0
-531 -1812 0
-532 -1276 0
-533 -1277 0
-534 -1278 0
-532 -559 0
-533 -560 0
-534 -561 0
-532 -1219 0
-533 -1220 0
-534 -1221 0
-532 -1081 0
-533 -1082 0
-534 -1083 0
-532 -1090 0
-533 -1091 0
-534 -1092 0
-535 -928 0
-536 -929 0
-537 -930 0
-535 -1651 0
-536 -1652 0
-537 -1653 0
-535 -751 0
-536 -752 0
-537 -753 0
-535 -2062 0
-536 -2063 0
-537 -2064 0
-538 -1228 0
-539 -1229 0
-540 -1230 0
-538 -1240 0
-539 -1241 0
-540 -1242 0
-538 -1699 0
-539 -1700 0
-540 -1701 0
-538 -952 0
-539 -953 0
-540 -954 0
-541 -580 0
-542 -581 0
-543 -582 0
-541 -1186 0
-542 -1187 0
-543 -1188 0
-541 -991 0
-542 -992 0
-543 -993 0
-544 -577 0
-545 -578 0
-546 -579 0
-544 -2116 0
-545 -2117 0
-546 -2118 0
-544 -1639 0
-545 -1640 0
-546 -1641 0
-547 -955 0
-548 -956 0
-549 -957 0
-547 -958 0
-548 -959 0
-549 -960 0
-550 -1327 0
-551 -1328 0
-552 -1329 0
-550 -2023 0
-551 -2024 0
-552 -2025 0
-550 -1675 0
-551 -1676 0
-552 -1677 0
-553 -1303 0
-554 -1304 0
-555 -1305 0
-553 -1867 0
-554 -1868 0
-555 -1869 0
-553 -1312 0
-554 -1313 0
-555 -1314 0
-553 -859 0
-554 -860 0
-555 -861 0
-556 -1360 0
-557 -1361 0
-558 -1362 0
-556 -1402 0
-557 -1403 0
-558 -1404 0
-556 -1339 0
-557 -1340 0
-558 -1341 0
-556 -859 0
-557 -860 0
-558 -861 0
-556 -1030 0
-557 -1031 0
-558 -1032 0
-556 -1252 0
-557 -1253 0
-558 -1254 0
-559 -622 0
-560 -623 0
-561 -624 0
-559 -874 0
-560 -875 0
-561 -876 0
-559 -574 0
-560 -575 0
-561 -576 0
-562 -799 0
-563 -800 0
-564 -801 0
-562 -865 0
-563 -866 0
-564 -867 0
-562 -565 0
-563 -566 0
-564 -567 0
-562 -625 0
-563 -626 0
-564 -627 0
-562 -877 0
-563 -878 0
-564 -879 0
-562 -571 0
-563 -572 0
-564 -573 0
-562 -832 0
-563 -833 0
-564 -834 0
-562 -766 0
-563 -767 0
-564 -768 0
-562 -841 0
-563 -842 0
-564 -843 0
-565 -1534 0
-566 -1535 0
-567 -1536 0
-565 -1372 0
-566 -1373 0
-567 -1374 0
-565 -1342 0
-566 -1343 0
-567 -1344 0
-565 -1348 0
-566 -1349 0
-567 -1350 0
-565 -1354 0
-566 -1355 0
-567 -1356 0
-565 -1519 0
-566 -1520 0
-567 -1521 0
-568 -1858 0
-569 -1859 0
-570 -1860 0
-568 -2119 0
-569 -2120 0
-570 -2121 0
-568 -781 0
-569 -782 0
-570 -783 0
-568 -1552 0
-569 -1553 0
-570 -1554 0
-571 -1195 0
-572 -1196 0
-573 -1197 0
-571 -1363 0
-572 -1364 0
-573 -1365 0
-571 -1444 0
-572 -1445 0
-573 -1446 0
-571 -2005 0
-572 -2006 0
-573 -2007 0
-571 -1306 0
-572 -1307 0
-573 -1308 0
-571 -2008 0
-572 -2009 0
-573 -2010 0
-574 -1102 0
-575 -1103 0
-576 -1104 0
-574 -1114 0
-575 -1115 0
-576 -1116 0
-577 -688 0
-578 -689 0
-579 -690 0
-577 -622 0
-578 -623 0
-579 -624 0
-577 -592 0
-578 -593 0
-579 -594 0
-580 -691 0
-581 -692 0
-582 -693 0
-580 -625 0
-581 -626 0
-582 -627 0
-580 -886 0
-581 -887 0
-582 -888 0
-580 -586 0
-581 -587 0
-582 -588 0
-580 -685 0
-581 -686 0
-582 -687 0
-580 -589 0
-581 -590 0
-582 -591 0
-580 -598 0
-581 -599 0
-582 -600 0
-583 -1006 0
-584 -1007 0
-585 -1008 0
-583 -1237 0
-584 -1238 0
-585 -1239 0
-583 -1210 0
-584 -1211 0
-585 -1212 0
-583 -1840 0
-584 -1841 0
-585 -1842 0
-583 -1408 0
-584 -1409 0
-585 -1410 0
-583 -1225 0
-584 -1226 0
-585 -1227 0
-583 -1738 0
-584 -1739 0
-585 -1740 0
-583 -835 0
-584 -836 0
-585 -837 0
-586 -1162 0
-587 -1163 0
-588 -1164 0
-586 -1363 0
-587 -1364 0
-588 -1365 0
-589 -1777 0
-590 -1778 0
-591 -1779 0
-589 -1186 0
-590 -1187 0
-591 -1188 0
-589 -1000 0
-590 -1001 0
-591 -1002 0
-592 -961 0
-593 -962 0
-594 -963 0
-592 -1777 0
-593 -1778 0
-594 -1779 0
-592 -1045 0
-593 -1046 0
-594 -1047 0
-592 -1033 0
-593 -1034 0
-594 -1035 0
-595 -1402 0
-596 -1403 0
-597 -1404 0
-595 -2080 0
-596 -2081 0
-597 -2082 0
-595 -859 0
-596 -860 0
-597 -861 0
-598 -1366 0
-599 -1367 0
-600 -1368 0
-598 -1657 0
-599 -1658 0
-600 -1659 0
-601 -1171 0
-602 -1172 0
-603 -1173 0
-601 -859 0
-602 -860 0
-603 -861 0
-601 -1456 0
-602 -1457 0
-603 -1458 0
-601 -1582 0
-602 -1583 0
-603 -1584 0
-601 -1870 0
-602 -1871 0
-603 -1872 0
-604 -1831 0
-605 -1832 0
-606 -1833 0
-604 -1174 0
-605 -1175 0
-606 -1176 0
-604 -898 0
-605 -899 0
-606 -900 0
-604 -1582 0
-605 -1583 0
-606 -1584 0
-604 -1615 0
-605 -1616 0
-606 -1617 0
-604 -2053 0
-605 -2054 0
-606 -2055 0
-604 -1873 0
-605 -1874 0
-606 -1875 0
-604 -1513 0
-605 -1514 0
-606 -1515 0
-607 -727 0
-608 -728 0
-609 -729 0
-607 -2122 0
-608 -2123 0
-609 -2124 0
-610 -1771 0
-611 -1772 0
-612 -1773 0
-610 -1144 0
-611 -1145 0
-612 -1146 0
-610 -835 0
-611 -836 0
-612 -837 0
-610 -1528 0
-611 -1529 0
-612 -1530 0
-613 -1681 0
-614 -1682 0
-615 -1683 0
-613 -1510 0
-614 -1511 0
-615 -1512 0
-613 -1549 0
-614 -1550 0
-615 -1551 0
-616 -937 0
-617 -938 0
-618 -939 0
-616 -1702 0
-617 -1703 0
-618 -1704 0
-616 -835 0
-617 -836 0
-618 -837 0
-616 -1528 0
-617 -1529 0
-618 -1530 0
-619 -646 0
-620 -647 0
-621 -648 0
-619 -1039 0
-620 -1040 0
-621 -1041 0
-619 -1111 0
-620 -1112 0
-621 -1113 0
-619 -1075 0
-620 -1076 0
-621 -1077 0
-622 -1114 0
-623 -1115 0
-624 -1116 0
-622 -1153 0
-623 -1154 0
-624 -1155 0
-625 -1393 0
-626 -1394 0
-627 -1395 0
-625 -1363 0
-626 -1364 0
-627 -1365 0
-625 -1366 0
-626 -1367 0
-627 -1368 0
-625 -1291 0
-626 -1292 0
-627 -1293 0
-628 -1405 0
-629 -1406 0
-630 -1407 0
-628 -1255 0
-629 -1256 0
-630 -1257 0
-628 -2059 0
-629 -2060 0
-630 -2061 0
-628 -997 0
-629 -998 0
-630 -999 0
-628 -889 0
-629 -890 0
-630 -891 0
-631 -1531 0
-632 -1532 0
-633 -1533 0
-631 -1921 0
-632 -1922 0
-633 -1923 0
-631 -859 0
-632 -860 0
-633 -861 0
-631 -1585 0
-632 -1586 0
-633 -1587 0
-631 -1492 0
-632 -1493 0
-633 -1494 0
-631 -1552 0
-632 -1553 0
-633 -1554 0
-634 -910 0
-635 -911 0
-636 -912 0
-634 -685 0
-635 -686 0
-636 -687 0
-637 -1483 0
-638 -1484 0
-639 -1485 0
-637 -1654 0
-638 -1655 0
-639 -1656 0
-640 -691 0
-641 -692 0
-642 -693 0
-640 -658 0
-641 -659 0
-642 -660 0
-640 -775 0
-641 -776 0
-642 -777 0
-643 -1858 0
-644 -1859 0
-645 -1860 0
-643 -1996 0
-644 -1997 0
-645 -1998 0
-643 -1780 0
-644 -1781 0
-645 -1782 0
-643 -1843 0
-644 -1844 0
-645 -1845 0
-643 -781 0
-644 -782 0
-645 -783 0
-646 -688 0
-647 -689 0
-648 -690 0
-646 -655 0
-647 -656 0
-648 -657 0
-646 -667 0
-647 -668 0
-648 -669 0
-649 -880 0
-650 -881 0
-651 -882 0
-652 -2014 0
-653 -2015 0
-654 -2016 0
-652 -751 0
-653 -752 0
-654 -753 0
-652 -2029 0
-653 -2030 0
-654 -2031 0
-655 -1906 0
-656 -1907 0
-657 -1908 0
-655 -1924 0
-656 -1925 0
-657 -1926 0
-655 -1111 0
-656 -1112 0
-657 -1113 0
-658 -1201 0
-659 -1202 0
-660 -1203 0
-658 -1243 0
-659 -1244 0
-660 -1245 0
-658 -1369 0
-659 -1370 0
-660 -1371 0
-658 -1222 0
-659 -1223 0
-660 -1224 0
-658 -1228 0
-659 -1229 0
-660 -1230 0
-661 -1963 0
-662 -1964 0
-663 -1965 0
-661 -1405 0
-662 -1406 0
-663 -1407 0
-661 -1708 0
-662 -1709 0
-663 -1710 0
-661 -1321 0
-662 -1322 0
-663 -1323 0
-661 -1618 0
-662 -1619 0
-663 -1620 0
-661 -2032 0
-662 -2033 0
-663 -2034 0
-661 -889 0
-662 -890 0
-663 -891 0
-664 -1537 0
-665 -1538 0
-666 -1539 0
-664 -898 0
-665 -899 0
-666 -900 0
-667 -1075 0
-668 -1076 0
-669 -1077 0
-667 -1813 0
-668 -1814 0
-669 -1815 0
-670 -2125 0
-671 -2126 0
-672 -2127 0
-670 -898 0
-671 -899 0
-672 -900 0
-670 -2053 0
-671 -2054 0
-672 -2055 0
-673 -2110 0
-674 -2111 0
-675 -2112 0
-673 -898 0
-674 -899 0
-675 -900 0
-673 -1714 0
-674 -1715 0
-675 -1716 0
-676 -1966 0
-677 -1967 0
-678 -1968 0
-676 -1972 0
-677 -1973 0
-678 -1974 0
-676 -1927 0
-677 -1928 0
-678 -1929 0
-676 -2050 0
-677 -2051 0
-678 -2052 0
-676 -1933 0
-677 -1934 0
-678 -1935 0
-676 -829 0
-677 -830 0
-678 -831 0
-679 -2002 0
-680 -2003 0
-681 -2004 0
-679 -826 0
-680 -827 0
-681 -828 0
-679 -1930 0
-680 -1931 0
-681 -1932 0
-679 -1816 0
-680 -1817 0
-681 -1818 0
-682 -1831 0
-683 -1832 0
-684 -1833 0
-682 -898 0
-683 -899 0
-684 -900 0
-682 -1819 0
-683 -1820 0
-684 -1821 0
-685 -1495 0
-686 -1496 0
-687 -1497 0
-685 -1000 0
-686 -1001 0
-687 -1002 0
-685 -1159 0
-686 -1160 0
-687 -1161 0
-685 -1525 0
-686 -1526 0
-687 -1527 0
-688 -1966 0
-689 -1967 0
-690 -1968 0
-688 -1048 0
-689 -1049 0
-690 -1050 0
-688 -1573 0
-689 -1574 0
-690 -1575 0
-688 -1066 0
-689 -1067 0
-690 -1068 0
-688 -1156 0
-689 -1157 0
-690 -1158 0
-688 -1153 0
-689 -1154 0
-690 -1155 0
-688 -1429 0
-689 -1430 0
-690 -1431 0
-691 -1291 0
-692 -1292 0
-693 -1293 0
-691 -1267 0
-692 -1268 0
-693 -1269 0
-691 -1570 0
-692 -1571 0
-693 -1572 0
-691 -1375 0
-692 -1376 0
-693 -1377 0
-691 -1588 0
-692 -1589 0
-693 -1590 0
-691 -1351 0
-692 -1352 0
-693 -1353 0
-691 -1657 0
-692 -1658 0
-693 -1659 0
-694 -1783 0
-695 -1784 0
-696 -1785 0
-694 -1510 0
-695 -1511 0
-696 -1512 0
-697 -1261 0
-698 -1262 0
-699 -1263 0
-697 -1294 0
-698 -1295 0
-699 -1296 0
-697 -1975 0
-698 -1976 0
-699 -1977 0
-697 -1021 0
-698 -1022 0
-699 -1023 0
-697 -2086 0
-698 -2087 0
-699 -2088 0
-697 -2011 0
-698 -2012 0
-699 -2013 0
-697 -751 0
-698 -752 0
-699 -753 0
-700 -1096 0
-701 -1097 0
-702 -1098 0
-700 -1051 0
-701 -1052 0
-702 -1053 0
-700 -985 0
-701 -986 0
-702 -987 0
-700 -751 0
-701 -752 0
-702 -753 0
-700 -1120 0
-701 -1121 0
-702 -1122 0
-700 -1852 0
-701 -1853 0
-702 -1854 0
-700 -1231 0
-701 -1232 0
-702 -1233 0
-703 -727 0
-704 -728 0
-705 -729 0
-703 -1672 0
-704 -1673 0
-705 -1674 0
-706 -1054 0
-707 -1055 0
-708 -1056 0
-706 -1246 0
-707 -1247 0
-708 -1248 0
-706 -859 0
-707 -860 0
-708 -861 0
-709 -964 0
-710 -965 0
-711 -966 0
-709 -859 0
-710 -860 0
-711 -861 0
-709 -1390 0
-710 -1391 0
-711 -1392 0
-712 -1573 0
-713 -1574 0
-714 -1575 0
-712 -778 0
-713 -779 0
-714 -780 0
-712 -1144 0
-713 -1145 0
-714 -1146 0
-712 -1234 0
-713 -1235 0
-714 -1236 0
-715 -727 0
-716 -728 0
-717 -729 0
-715 -1645 0
-716 -1646 0
-717 -1647 0
-715 -1558 0
-716 -1559 0
-717 -1560 0
-715 -2140 0
-716 -2141 0
-717 -2142 0
-715 -1936 0
-716 -1937 0
-717 -1938 0
-718 -1498 0
-719 -1499 0
-720 -1500 0
-718 -1438 0
-719 -1439 0
-720 -1440 0
-718 -859 0
-719 -860 0
-720 -861 0
-718 -946 0
-719 -947 0
-720 -948 0
-718 -979 0
-719 -980 0
-720 -981 0
-718 -982 0
-719 -983 0
-720 -984 0
-718 -1318 0
-719 -1319 0
-720 -1320 0
-718 -1321 0
-719 -1322 0
-720 -1323 0
-721 -724 0
-722 -725 0
-723 -726 0
-721 -766 0
-722 -767 0
-723 -768 0
-724 -1507 0
-725 -1508 0
-726 -1509 0
-724 -1519 0
-725 -1520 0
-726 -1521 0
-727 -880 0
-728 -881 0
-729 -882 0
-730 -1696 0
-731 -1697 0
-732 -1698 0
-730 -778 0
-731 -779 0
-732 -780 0
-730 -1315 0
-731 -1316 0
-732 -1317 0
-733 -1465 0
-734 -1466 0
-735 -1467 0
-733 -1663 0
-734 -1664 0
-735 -1665 0
-733 -751 0
-734 -752 0
-735 -753 0
-736 -2035 0
-737 -2036 0
-738 -2037 0
-736 -2137 0
-737 -2138 0
-738 -2139 0
-736 -751 0
-737 -752 0
-738 -753 0
-739 -928 0
-740 -929 0
-741 -930 0
-739 -751 0
-740 -752 0
-741 -753 0
-742 -1972 0
-743 -1973 0
-744 -1974 0
-742 -2017 0
-743 -2018 0
-744 -2019 0
-742 -829 0
-743 -830 0
-744 -831 0
-745 -1945 0
-746 -1946 0
-747 -1947 0
-745 -1648 0
-746 -1649 0
-747 -1650 0
-745 -1879 0
-746 -1880 0
-747 -1881 0
-745 -1612 0
-746 -1613 0
-747 -1614 0
-745 -826 0
-746 -827 0
-747 -828 0
-748 -1831 0
-749 -1832 0
-750 -1833 0
-748 -1756 0
-749 -1757 0
-750 -1758 0
-748 -1837 0
-749 -1838 0
-750 -1839 0
-748 -2128 0
-749 -2129 0
-750 -2130 0
-748 -751 0
-749 -752 0
-750 -753 0
-748 -1954 0
-749 -1955 0
-750 -1956 0
-751 -919 0
-752 -920 0
-753 -921 0
-751 -760 0
-752 -761 0
-753 -762 0
-751 -832 0
-752 -833 0
-753 -834 0
-751 -907 0
-752 -908 0
-753 -909 0
-751 -772 0
-752 -773 0
-753 -774 0
-751 -784 0
-752 -785 0
-753 -786 0
-751 -787 0
-752 -788 0
-753 -789 0
-754 -1288 0
-755 -1289 0
-756 -1290 0
-754 -1300 0
-755 -1301 0
-756 -1302 0
-754 -2011 0
-755 -2012 0
-756 -2013 0
-754 -1987 0
-755 -1988 0
-756 -1989 0
-754 -835 0
-755 -836 0
-756 -837 0
-754 -1621 0
-755 -1622 0
-756 -1623 0
-757 -838 0
-758 -839 0
-759 -840 0
-757 -1141 0
-758 -1142 0
-759 -1143 0
-757 -1093 0
-758 -1094 0
-759 -1095 0
-760 -1993 0
-761 -1994 0
-762 -1995 0
-760 -1417 0
-761 -1418 0
-762 -1419 0
-760 -2008 0
-761 -2009 0
-762 -2010 0
-763 -1210 0
-764 -1211 0
-765 -1212 0
-763 -1702 0
-764 -1703 0
-765 -1704 0
-763 -835 0
-764 -836 0
-765 -837 0
-763 -1846 0
-764 -1847 0
-765 -1848 0
-766 -1684 0
-767 -1685 0
-768 -1686 0
-766 -1687 0
-767 -1688 0
-768 -1689 0
-766 -1702 0
-767 -1703 0
-768 -1704 0
-766 -1735 0
-767 -1736 0
-768 -1737 0
-766 -1519 0
-767 -1520 0
-768 -1521 0
-769 -838 0
-770 -839 0
-771 -840 0
-769 -1678 0
-770 -1679 0
-771 -1680 0
-769 -1147 0
-770 -1148 0
-771 -1149 0
-769 -1039 0
-770 -1040 0
-771 -1041 0
-772 -1465 0
-773 -1466 0
-774 -1467 0
-772 -1975 0
-773 -1976 0
-774 -1977 0
-772 -1243 0
-773 -1244 0
-774 -1245 0
-772 -1450 0
-773 -1451 0
-774 -1452 0
-772 -2029 0
-773 -2030 0
-774 -2031 0
-772 -1660 0
-773 -1661 0
-774 -1662 0
-775 -1996 0
-776 -1997 0
-777 -1998 0
-775 -1267 0
-776 -1268 0
-777 -1269 0
-775 -1369 0
-776 -1370 0
-777 -1371 0
-775 -2041 0
-776 -2042 0
-777 -2043 0
-778 -808 0
-779 -809 0
-780 -810 0
-778 -913 0
-779 -914 0
-780 -915 0
-781 -805 0
-782 -806 0
-783 -807 0
-781 -922 0
-782 -923 0
-783 -924 0
-781 -811 0
-782 -812 0
-783 -813 0
-781 -841 0
-782 -842 0
-783 -843 0
-784 -1591 0
-785 -1592 0
-786 -1593 0
-784 -1231 0
-785 -1232 0
-786 -1233 0
-787 -1663 0
-788 -1664 0
-789 -1665 0
-787 -1756 0
-788 -1757 0
-789 -1758 0
-787 -1651 0
-788 -1652 0
-789 -1653 0
-790 -1264 0
-791 -1265 0
-792 -1266 0
-790 -826 0
-791 -827 0
-792 -828 0
-790 -1855 0
-791 -1856 0
-792 -1857 0
-793 -2038 0
-794 -2039 0
-795 -2040 0
-793 -2101 0
-794 -2102 0
-795 -2103 0
-793 -829 0
-794 -830 0
-795 -831 0
-793 -1876 0
-794 -1877 0
-795 -1878 0
-796 -1264 0
-797 -1265 0
-798 -1266 0
-796 -1024 0
-797 -1025 0
-798 -1026 0
-796 -826 0
-797 -827 0
-798 -828 0
-799 -1822 0
-800 -1823 0
-801 -1824 0
-799 -1459 0
-800 -1460 0
-801 -1461 0
-802 -1498 0
-803 -1499 0
-804 -1500 0
-802 -859 0
-803 -860 0
-804 -861 0
-802 -2104 0
-803 -2105 0
-804 -2106 0
-805 -2071 0
-806 -2072 0
-807 -2073 0
-808 -1078 0
-809 -1079 0
-810 -1080 0
-808 -1129 0
-809 -1130 0
-810 -1131 0
-811 -2119 0
-812 -2120 0
-813 -2121 0
-811 -1717 0
-812 -1718 0
-813 -1719 0
-811 -1813 0
-812 -1814 0
-813 -1815 0
-814 -838 0
-815 -839 0
-816 -840 0
-814 -1141 0
-815 -1142 0
-816 -1143 0
-814 -1177 0
-815 -1178 0
-816 -1179 0
-817 -1771 0
-818 -1772 0
-819 -1773 0
-817 -1330 0
-818 -1331 0
-819 -1332 0
-817 -1540 0
-818 -1541 0
-819 -1542 0
-817 -1738 0
-818 -1739 0
-819 -1740 0
-817 -1216 0
-818 -1217 0
-819 -1218 0
-817 -835 0
-818 -836 0
-819 -837 0
-820 -1324 0
-821 -1325 0
-822 -1326 0
-820 -1471 0
-821 -1472 0
-822 -1473 0
-820 -859 0
-821 -860 0
-822 -861 0
-820 -1456 0
-821 -1457 0
-822 -1458 0
-820 -1378 0
-821 -1379 0
-822 -1380 0
-823 -1054 0
-824 -1055 0
-825 -1056 0
-823 -1867 0
-824 -1868 0
-825 -1869 0
-823 -1060 0
-824 -1061 0
-825 -1062 0
-823 -859 0
-824 -860 0
-825 -861 0
-823 -1870 0
-824 -1871 0
-825 -1872 0
-823 -1087 0
-824 -1088 0
-825 -1089 0
-826 -865 0
-827 -866 0
-828 -867 0
-826 -844 0
-827 -845 0
-828 -846 0
-829 -916 0
-830 -917 0
-831 -918 0
-829 -913 0
-830 -914 0
-831 -915 0
-832 -1282 0
-833 -1283 0
-834 -1284 0
-832 -1294 0
-833 -1295 0
-834 -1296 0
-832 -1207 0
-833 -1208 0
-834 -1209 0
-832 -2008 0
-833 -2009 0
-834 -2010 0
-832 -1384 0
-833 -1385 0
-834 -1386 0
-832 -1597 0
-833 -1598 0
-834 -1599 0
-832 -1726 0
-833 -1727 0
-834 -1728 0
-835 -877 0
-836 -878 0
-837 -879 0
-835 -886 0
-836 -887 0
-837 -888 0
-835 -850 0
-836 -851 0
-837 -852 0
-838 -874 0
-839 -875 0
-840 -876 0
-841 -1306 0
-842 -1307 0
-843 -1308 0
-841 -1372 0
-842 -1373 0
-843 -1374 0
-841 -976 0
-842 -977 0
-843 -978 0
-844 -1240 0
-845 -1241 0
-846 -1242 0
-844 -1453 0
-845 -1454 0
-846 -1455 0
-844 -1705 0
-845 -1706 0
-846 -1707 0
-844 -1717 0
-845 -1718 0
-846 -1719 0
-847 -1666 0
-848 -1667 0
-849 -1668 0
-847 -2080 0
-848 -2081 0
-849 -2082 0
-847 -859 0
-848 -860 0
-849 -861 0
-850 -1165 0
-851 -1166 0
-852 -1167 0
-850 -1144 0
-851 -1145 0
-852 -1146 0
-853 -859 0
-854 -860 0
-855 -861 0
-853 -1594 0
-854 -1595 0
-855 -1596 0
-856 -1624 0
-857 -1625 0
-858 -1626 0
-856 -1471 0
-857 -1472 0
-858 -1473 0
-856 -2020 0
-857 -2021 0
-858 -2022 0
-856 -859 0
-857 -860 0
-858 -861 0
-859 -919 0
-860 -920 0
-861 -921 0
-859 -862 0
-860 -863 0
-861 -864 0
-859 -922 0
-860 -923 0
-861 -924 0
-859 -868 0
-860 -869 0
-861 -870 0
-859 -871 0
-860 -872 0
-861 -873 0
-859 -925 0
-860 -926 0
-861 -927 0
-859 -883 0
-860 -884 0
-861 -885 0
-862 -1837 0
-863 -1838 0
-864 -1839 0
-862 -1921 0
-863 -1922 0
-864 -1923 0
-862 -1582 0
-863 -1583 0
-864 -1584 0
-865 -1534 0
-866 -1535 0
-867 -1536 0
-865 -1027 0
-866 -1028 0
-867 -1029 0
-865 -1279 0
-866 -1280 0
-867 -1281 0
-868 -1978 0
-869 -1979 0
-870 -1980 0
-868 -1912 0
-869 -1913 0
-870 -1914 0
-868 -1492 0
-869 -1493 0
-870 -1494 0
-871 -1504 0
-872 -1505 0
-873 -1506 0
-871 -1117 0
-872 -1118 0
-873 -1119 0
-874 -1774 0
-875 -1775 0
-876 -1776 0
-874 -1168 0
-875 -1169 0
-876 -1170 0
-874 -1081 0
-875 -1082 0
-876 -1083 0
-877 -1285 0
-878 -1286 0
-879 -1287 0
-877 -1393 0
-878 -1394 0
-879 -1395 0
-877 -1300 0
-878 -1301 0
-879 -1302 0
-877 -2077 0
-878 -2078 0
-879 -2079 0
-877 -1258 0
-878 -1259 0
-879 -1260 0
-880 -1213 0
-881 -1214 0
-882 -1215 0
-880 -2056 0
-881 -2057 0
-882 -2058 0
-883 -1624 0
-884 -1625 0
-885 -1626 0
-883 -1318 0
-884 -1319 0
-885 -1320 0
-883 -1585 0
-884 -1586 0
-885 -1587 0
-883 -1744 0
-884 -1745 0
-885 -1746 0
-886 -1393 0
-887 -1394 0
-888 -1395 0
-886 -1375 0
-887 -1376 0
-888 -1377 0
-886 -1225 0
-887 -1226 0
-888 -1227 0
-889 -892 0
-890 -893 0
-891 -894 0
-892 -1882 0
-893 -1883 0
-894 -1884 0
-892 -1708 0
-893 -1709 0
-894 -1710 0
-892 -1516 0
-893 -1517 0
-894 -1518 0
-895 -1783 0
-896 -1784 0
-897 -1785 0
-895 -1822 0
-896 -1823 0
-897 -1824 0
-895 -2083 0
-896 -2084 0
-897 -2085 0
-895 -898 0
-896 -899 0
-897 -900 0
-895 -1582 0
-896 -1583 0
-897 -1584 0
-898 -901 0
-899 -902 0
-900 -903 0
-898 -904 0
-899 -905 0
-900 -906 0
-898 -910 0
-899 -911 0
-900 -912 0
-901 -1555 0
-902 -1556 0
-903 -1557 0
-901 -1393 0
-902 -1394 0
-903 -1395 0
-904 -2125 0
-905 -2126 0
-906 -2127 0
-904 -1675 0
-905 -1676 0
-906 -1677 0
-907 -1057 0
-908 -1058 0
-909 -1059 0
-907 -946 0
-908 -947 0
-909 -948 0
-907 -1873 0
-908 -1874 0
-909 -1875 0
-907 -1249 0
-908 -1250 0
-909 -1251 0
-907 -985 0
-908 -986 0
-909 -987 0
-907 -1597 0
-908 -1598 0
-909 -1599 0
-910 -1174 0
-911 -1175 0
-912 -1176 0
-910 -1159 0
-911 -1160 0
-912 -1161 0
-913 -1939 0
-914 -1940 0
-915 -1941 0
-913 -1948 0
-914 -1949 0
-915 -1950 0
-913 -1129 0
-914 -1130 0
-915 -1131 0
-916 -1066 0
-917 -1067 0
-918 -1068 0
-916 -2038 0
-917 -2039 0
-918 -2040 0
-916 -1123 0
-917 -1124 0
-918 -1125 0
-919 -1729 0
-920 -1730 0
-921 -1731 0
-919 -1819 0
-920 -1820 0
-921 -1821 0
-922 -1501 0
-923 -1502 0
-924 -1503 0
-922 -1333 0
-923 -1334 0
-924 -1335 0
-922 -1552 0
-923 -1553 0
-924 -1554 0
-925 -1099 0
-926 -1100 0
-927 -1101 0
-925 -1246 0
-926 -1247 0
-927 -1248 0
-925 -1060 0
-926 -1061 0
-927 -1062 0
-925 -1312 0
-926 -1313 0
-927 -1314 0
-925 -1378 0
-926 -1379 0
-927 -1380 0
-925 -1252 0
-926 -1253 0
-927 -1254 0
-925 -2128 0
-926 -2129 0
-927 -2130 0
-925 -1321 0
-926 -1322 0
-927 -1323 0
-925 -1390 0
-926 -1391 0
-927 -1392 0
-928 -1741 0
-929 -1742 0
-930 -1743 0
-931 -955 0
-932 -956 0
-933 -957 0
-931 -958 0
-932 -959 0
-933 -960 0
-931 -2068 0
-932 -2069 0
-933 -2070 0
-934 -2077 0
-935 -2078 0
-936 -2079 0
-934 -1699 0
-935 -1700 0
-936 -1701 0
-934 -952 0
-935 -953 0
-936 -954 0
-937 -1420 0
-938 -1421 0
-939 -1422 0
-940 -1435 0
-941 -1436 0
-942 -1437 0
-940 -1456 0
-941 -1457 0
-942 -1458 0
-940 -2086 0
-941 -2087 0
-942 -2088 0
-943 -964 0
-944 -965 0
-945 -966 0
-943 -1207 0
-944 -1208 0
-945 -1209 0
-943 -1345 0
-944 -1346 0
-945 -1347 0
-943 -1384 0
-944 -1385 0
-945 -1386 0
-943 -949 0
-944 -950 0
-945 -951 0
-946 -961 0
-947 -962 0
-948 -963 0
-946 -1186 0
-947 -1187 0
-948 -1188 0
-949 -967 0
-950 -968 0
-951 -969 0
-949 -2065 0
-950 -2066 0
-951 -2067 0
-952 -973 0
-953 -974 0
-954 -975 0
-952 -976 0
-953 -977 0
-954 -978 0
-952 -2065 0
-953 -2066 0
-954 -2067 0
-955 -1750 0
-956 -1751 0
-957 -1752 0
-955 -1747 0
-956 -1748 0
-957 -1749 0
-958 -2056 0
-959 -2057 0
-960 -2058 0
-961 -979 0
-962 -980 0
-963 -981 0
-961 -985 0
-962 -986 0
-963 -987 0
-964 -1465 0
-965 -1466 0
-966 -1467 0
-964 -1591 0
-965 -1592 0
-966 -1593 0
-967 -1162 0
-968 -1163 0
-969 -1164 0
-967 -1432 0
-968 -1433 0
-969 -1434 0
-967 -1165 0
-968 -1166 0
-969 -1167 0
-967 -1144 0
-968 -1145 0
-969 -1146 0
-967 -988 0
-968 -989 0
-969 -990 0
-970 -991 0
-971 -992 0
-972 -993 0
-970 -994 0
-971 -995 0
-972 -996 0
-970 -997 0
-971 -998 0
-972 -999 0
-973 -1006 0
-974 -1007 0
-975 -1008 0
-973 -1228 0
-974 -1229 0
-975 -1230 0
-973 -1201 0
-974 -1202 0
-975 -1203 0
-973 -1225 0
-974 -1226 0
-975 -1227 0
-973 -1003 0
-974 -1004 0
-975 -1005 0
-976 -1330 0
-977 -1331 0
-978 -1332 0
-976 -1204 0
-977 -1205 0
-978 -1206 0
-976 -1240 0
-977 -1241 0
-978 -1242 0
-976 -1213 0
-977 -1214 0
-978 -1215 0
-976 -1216 0
-977 -1217 0
-978 -1218 0
-979 -1012 0
-980 -1013 0
-981 -1014 0
-979 -1033 0
-980 -1034 0
-981 -1035 0
-979 -1036 0
-980 -1037 0
-981 -1038 0
-982 -1381 0
-983 -1382 0
-984 -1383 0
-982 -1000 0
-983 -1001 0
-984 -1002 0
-985 -1045 0
-986 -1046 0
-987 -1047 0
-985 -1048 0
-986 -1049 0
-987 -1050 0
-985 -1063 0
-986 -1064 0
-987 -1065 0
-985 -1072 0
-986 -1073 0
-987 -1074 0
-985 -1039 0
-986 -1040 0
-987 -1041 0
-988 -1012 0
-989 -1013 0
-990 -1014 0
-988 -1018 0
-989 -1019 0
-990 -1020 0
-991 -1021 0
-992 -1022 0
-993 -1023 0
-994 -1009 0
-995 -1010 0
-996 -1011 0
-994 -1726 0
-995 -1727 0
-996 -1728 0
-997 -1024 0
-998 -1025 0
-999 -1026 0
-1000 -1498 0
-1001 -1499 0
-1002 -1500 0
-1003 -1009 0
-1004 -1010 0
-1005 -1011 0
-1003 -2065 0
-1004 -2066 0
-1005 -2067 0
-1006 -1015 0
-1007 -1016 0
-1008 -1017 0
-1006 -1027 0
-1007 -1028 0
-1008 -1029 0
-1006 -1885 0
-1007 -1886 0
-1008 -1887 0
-1012 -1438 0
-1013 -1439 0
-1014 -1440 0
-1015 -1195 0
-1016 -1196 0
-1017 -1197 0
-1015 -1198 0
-1016 -1199 0
-1017 -1200 0
-1015 -1210 0
-1016 -1211 0
-1017 -1212 0
-1015 -1192 0
-1016 -1193 0
-1017 -1194 0
-1018 -1828 0
-1019 -1829 0
-1020 -1830 0
-1021 -1186 0
-1022 -1187 0
-1023 -1188 0
-1024 -1405 0
-1025 -1406 0
-1026 -1407 0
-1027 -1237 0
-1028 -1238 0
-1029 -1239 0
-1027 -1030 0
-1028 -1031 0
-1029 -1032 0
-1027 -1252 0
-1028 -1253 0
-1029 -1254 0
-1030 -1273 0
-1031 -1274 0
-1032 -1275 0
-1030 -1420 0
-1031 -1421 0
-1032 -1422 0
-1030 -1885 0
-1031 -1886 0
-1032 -1887 0
-1030 -1279 0
-1031 -1280 0
-1032 -1281 0
-1033 -1753 0
-1034 -1754 0
-1035 -1755 0
-1033 -1318 0
-1034 -1319 0
-1035 -1320 0
-1033 -1426 0
-1034 -1427 0
-1035 -1428 0
-1036 -1144 0
-1037 -1145 0
-1038 -1146 0
-1036 -1492 0
-1037 -1493 0
-1038 -1494 0
-1036 -1426 0
-1037 -1427 0
-1038 -1428 0
-1039 -1120 0
-1040 -1121 0
-1041 -1122 0
-1042 -1174 0
-1043 -1175 0
-1044 -1176 0
-1042 -1159 0
-1043 -1160 0
-1044 -1161 0
-1045 -1231 0
-1046 -1232 0
-1047 -1233 0
-1048 -1054 0
-1049 -1055 0
-1050 -1056 0
-1048 -1246 0
-1049 -1247 0
-1050 -1248 0
-1048 -1057 0
-1049 -1058 0
-1050 -1059 0
-1048 -1060 0
-1049 -1061 0
-1050 -1062 0
-1051 -1147 0
-1052 -1148 0
-1053 -1149 0
-1054 -1063 0
-1055 -1064 0
-1056 -1065 0
-1057 -1138 0
-1058 -1139 0
-1059 -1140 0
-1057 -1156 0
-1058 -1157 0
-1059 -1158 0
-1060 -1066 0
-1061 -1067 0
-1062 -1068 0
-1060 -1069 0
-1061 -1070 0
-1062 -1071 0
-1060 -1072 0
-1061 -1073 0
-1062 -1074 0
-1063 -1852 0
-1064 -1853 0
-1065 -1854 0
-1066 -1099 0
-1067 -1100 0
-1068 -1101 0
-1066 -1081 0
-1067 -1082 0
-1068 -1083 0
-1066 -1087 0
-1067 -1088 0
-1068 -1089 0
-1066 -1090 0
-1067 -1091 0
-1068 -1092 0
-1069 -1102 0
-1070 -1103 0
-1071 -1104 0
-1069 -1867 0
-1070 -1868 0
-1071 -1869 0
-1069 -1312 0
-1070 -1313 0
-1071 -1314 0
-1069 -1078 0
-1070 -1079 0
-1071 -1080 0
-1072 -1096 0
-1073 -1097 0
-1074 -1098 0
-1072 -1078 0
-1073 -1079 0
-1074 -1080 0
-1072 -1129 0
-1073 -1130 0
-1074 -1131 0
-1075 -1084 0
-1076 -1085 0
-1077 -1086 0
-1075 -1093 0
-1076 -1094 0
-1077 -1095 0
-1078 -1561 0
-1079 -1562 0
-1080 -1563 0
-1081 -1183 0
-1082 -1184 0
-1083 -1185 0
-1084 -1150 0
-1085 -1151 0
-1086 -1152 0
-1087 -1861 0
-1088 -1862 0
-1089 -1863 0
-1087 -1105 0
-1088 -1106 0
-1089 -1107 0
-1087 -1183 0
-1088 -1184 0
-1089 -1185 0
-1087 -1123 0
-1088 -1124 0
-1089 -1125 0
-1090 -2113 0
-1091 -2114 0
-1092 -2115 0
-1090 -1108 0
-1091 -1109 0
-1092 -1110 0
-1093 -1102 0
-1094 -1103 0
-1095 -1104 0
-1093 -1111 0
-1094 -1112 0
-1095 -1113 0
-1093 -1114 0
-1094 -1115 0
-1095 -1116 0
-1096 -1117 0
-1097 -1118 0
-1098 -1119 0
-1096 -1126 0
-1097 -1127 0
-1098 -1128 0
-1099 -2113 0
-1100 -2114 0
-1101 -2115 0
-1099 -1153 0
-1100 -1154 0
-1101 -1155 0
-1102 -1135 0
-1103 -1136 0
-1104 -1137 0
-1105 -1867 0
-1106 -1868 0
-1107 -1869 0
-1108 -1270 0
-1109 -1271 0
-1110 -1272 0
-1108 -1276 0
-1109 -1277 0
-1110 -1278 0
-1108 -1189 0
-1109 -1190 0
-1110 -1191 0
-1114 -1141 0
-1115 -1142 0
-1116 -1143 0
-1117 -1948 0
-1118 -1949 0
-1119 -1950 0
-1117 -1159 0
-1118 -1160 0
-1119 -1161 0
-1117 -1525 0
-1118 -1526 0
-1119 -1527 0
-1117 -1129 0
-1118 -1130 0
-1119 -1131 0
-1120 -1147 0
-1121 -1148 0
-1122 -1149 0
-1120 -2134 0
-1121 -2135 0
-1122 -2136 0
-1120 -1618 0
-1121 -1619 0
-1122 -1620 0
-1123 -1753 0
-1124 -1754 0
-1125 -1755 0
-1123 -1318 0
-1124 -1319 0
-1125 -1320 0
-1123 -1315 0
-1124 -1316 0
-1125 -1317 0
-1126 -1870 0
-1127 -1871 0
-1128 -1872 0
-1126 -1918 0
-1127 -1919 0
-1128 -1920 0
-1126 -1852 0
-1127 -1853 0
-1128 -1854 0
-1132 -1168 0
-1133 -1169 0
-1134 -1170 0
-1132 -1150 0
-1133 -1151 0
-1134 -1152 0
-1135 -1147 0
-1136 -1148 0
-1137 -1149 0
-1135 -1189 0
-1136 -1190 0
-1137 -1191 0
-1138 -1249 0
-1139 -1250 0
-1140 -1251 0
-1141 -1153 0
-1142 -1154 0
-1143 -1155 0
-1144 -1615 0
-1145 -1616 0
-1146 -1617 0
-1147 -1711 0
-1148 -1712 0
-1149 -1713 0
-1147 -1762 0
-1148 -1763 0
-1149 -1764 0
-1150 -1183 0
-1151 -1184 0
-1152 -1185 0
-1153 -1246 0
-1154 -1247 0
-1155 -1248 0
-1153 -1177 0
-1154 -1178 0
-1155 -1179 0
-1153 -1180 0
-1154 -1181 0
-1155 -1182 0
-1156 -1177 0
-1157 -1178 0
-1158 -1179 0
-1156 -1723 0
-1157 -1724 0
-1158 -1725 0
-1168 -1303 0
-1169 -1304 0
-1170 -1305 0
-1168 -1183 0
-1169 -1184 0
-1170 -1185 0
-1171 -1222 0
-1172 -1223 0
-1173 -1224 0
-1174 -1864 0
-1175 -1865 0
-1176 -1866 0
-1174 -1234 0
-1175 -1235 0
-1176 -1236 0
-1180 -2113 0
-1181 -2114 0
-1182 -2115 0
-1186 -1498 0
-1187 -1499 0
-1188 -1500 0
-1192 -1612 0
-1193 -1613 0
-1194 -1614 0
-1195 -1627 0
-1196 -1628 0
-1197 -1629 0
-1207 -1606 0
-1208 -1607 0
-1209 -1608 0
-1207 -1990 0
-1208 -1991 0
-1209 -1992 0
-1210 -1261 0
-1211 -1262 0
-1212 -1263 0
-1213 -1372 0
-1214 -1373 0
-1215 -1374 0
-1213 -1342 0
-1214 -1343 0
-1215 -1344 0
-1216 -1306 0
-1217 -1307 0
-1218 -1308 0
-1219 -1897 0
-1220 -1898 0
-1221 -1899 0
-1219 -1870 0
-1220 -1871 0
-1221 -1872 0
-1222 -1564 0
-1223 -1565 0
-1224 -1566 0
-1222 -1594 0
-1223 -1595 0
-1224 -1596 0
-1225 -1261 0
-1226 -1262 0
-1227 -1263 0
-1225 -1294 0
-1226 -1295 0
-1227 -1296 0
-1225 -1387 0
-1226 -1388 0
-1227 -1389 0
-1228 -1288 0
-1229 -1289 0
-1230 -1290 0
-1228 -1300 0
-1229 -1301 0
-1230 -1302 0
-1228 -1387 0
-1229 -1388 0
-1230 -1389 0
-1231 -1618 0
-1232 -1619 0
-1233 -1620 0
-1237 -1282 0
-1238 -1283 0
-1239 -1284 0
-1237 -1732 0
-1238 -1733 0
-1239 -1734 0
-1240 -1285 0
-1241 -1286 0
-1242 -1287 0
-1240 -1297 0
-1241 -1298 0
-1242 -1299 0
-1240 -1423 0
-1241 -1424 0
-1242 -1425 0
-1243 -1594 0
-1244 -1595 0
-1245 -1596 0
-1243 -1387 0
-1244 -1388 0
-1245 -1389 0
-1246 -2026 0
-1247 -2027 0
-1248 -2028 0
-1249 -1678 0
-1250 -1679 0
-1251 -1680 0
-1249 -1942 0
-1250 -1943 0
-1251 -1944 0
-1249 -1696 0
-1250 -1697 0
-1251 -1698 0
-1252 -1264 0
-1253 -1265 0
-1254 -1266 0
-1252 -1732 0
-1253 -1733 0
-1254 -1734 0
-1252 -1309 0
-1253 -1310 0
-1254 -1311 0
-1252 -1258 0
-1253 -1259 0
-1254 -1260 0
-1255 -1264 0
-1256 -1265 0
-1257 -1266 0
-1255 -1732 0
-1256 -1733 0
-1257 -1734 0
-1258 -1339 0
-1259 -1340 0
-1260 -1341 0
-1261 -1714 0
-1262 -1715 0
-1263 -1716 0
-1264 -1405 0
-1265 -1406 0
-1266 -1407 0
-1264 -1321 0
-1265 -1322 0
-1266 -1323 0
-1267 -1324 0
-1268 -1325 0
-1269 -1326 0
-1267 -1378 0
-1268 -1379 0
-1269 -1380 0
-1267 -1810 0
-1268 -1811 0
-1269 -1812 0
-1270 -1561 0
-1271 -1562 0
-1272 -1563 0
-1273 -1324 0
-1274 -1325 0
-1275 -1326 0
-1273 -1336 0
-1274 -1337 0
-1275 -1338 0
-1273 -1348 0
-1274 -1349 0
-1275 -1350 0
-1273 -1354 0
-1274 -1355 0
-1275 -1356 0
-1279 -1462 0
-1280 -1463 0
-1281 -1464 0
-1279 -1333 0
-1280 -1334 0
-1281 -1335 0
-1282 -1297 0
-1283 -1298 0
-1284 -1299 0
-1282 -1423 0
-1283 -1424 0
-1284 -1425 0
-1288 -1363 0
-1289 -1364 0
-1290 -1365 0
-1288 -1366 0
-1289 -1367 0
-1290 -1368 0
-1288 -1699 0
-1289 -1700 0
-1290 -1701 0
-1288 -1894 0
-1289 -1895 0
-1290 -1896 0
-1288 -1714 0
-1289 -1715 0
-1290 -1716 0
-1291 -1330 0
-1292 -1331 0
-1293 -1332 0
-1291 -1621 0
-1292 -1622 0
-1293 -1623 0
-1291 -1390 0
-1292 -1391 0
-1293 -1392 0
-1294 -1375 0
-1295 -1376 0
-1296 -1377 0
-1297 -1699 0
-1298 -1700 0
-1299 -1701 0
-1297 -1597 0
-1298 -1598 0
-1299 -1599 0
-1300 -1369 0
-1301 -1370 0
-1302 -1371 0
-1303 -1849 0
-1304 -1850 0
-1305 -1851 0
-1306 -1309 0
-1307 -1310 0
-1308 -1311 0
-1309 -1378 0
-1310 -1379 0
-1311 -1380 0
-1312 -1774 0
-1313 -1775 0
-1314 -1776 0
-1312 -1876 0
-1313 -1877 0
-1314 -1878 0
-1318 -2038 0
-1319 -2039 0
-1320 -2040 0
-1321 -2038 0
-1322 -2039 0
-1323 -2040 0
-1321 -1876 0
-1322 -1877 0
-1323 -1878 0
-1324 -1381 0
-1325 -1382 0
-1326 -1383 0
-1324 -1522 0
-1325 -1523 0
-1326 -1524 0
-1324 -2041 0
-1325 -2042 0
-1326 -2043 0
-1327 -1402 0
-1328 -1403 0
-1329 -1404 0
-1327 -1408 0
-1328 -1409 0
-1329 -1410 0
-1327 -1426 0
-1328 -1427 0
-1329 -1428 0
-1330 -1588 0
-1331 -1589 0
-1332 -1590 0
-1330 -1765 0
-1331 -1766 0
-1332 -1767 0
-1333 -1381 0
-1334 -1382 0
-1335 -1383 0
-1336 -1648 0
-1337 -1649 0
-1338 -1650 0
-1336 -1612 0
-1337 -1613 0
-1338 -1614 0
-1339 -2077 0
-1340 -2078 0
-1341 -2079 0
-1342 -2056 0
-1343 -2057 0
-1344 -2058 0
-1345 -1567 0
-1346 -1568 0
-1347 -1569 0
-1345 -1984 0
-1346 -1985 0
-1347 -1986 0
-1345 -2065 0
-1346 -2066 0
-1347 -2067 0
-1348 -1420 0
-1349 -1421 0
-1350 -1422 0
-1351 -1810 0
-1352 -1811 0
-1353 -1812 0
-1351 -1414 0
-1352 -1415 0
-1353 -1416 0
-1354 -1396 0
-1355 -1397 0
-1356 -1398 0
-1354 -1522 0
-1355 -1523 0
-1356 -1524 0
-1357 -1462 0
-1358 -1463 0
-1359 -1464 0
-1357 -1417 0
-1358 -1418 0
-1359 -1419 0
-1360 -1411 0
-1361 -1412 0
-1362 -1413 0
-1360 -2056 0
-1361 -2057 0
-1362 -2058 0
-1366 -1621 0
-1367 -1622 0
-1368 -1623 0
-1372 -1396 0
-1373 -1397 0
-1374 -1398 0
-1375 -1378 0
-1376 -1379 0
-1377 -1380 0
-1375 -1597 0
-1376 -1598 0
-1377 -1599 0
-1375 -1390 0
-1376 -1391 0
-1377 -1392 0
-1381 -1951 0
-1382 -1952 0
-1383 -1953 0
-1384 -1624 0
-1385 -1625 0
-1386 -1626 0
-1384 -1666 0
-1385 -1667 0
-1386 -1668 0
-1384 -1423 0
-1385 -1424 0
-1386 -1425 0
-1384 -1765 0
-1385 -1766 0
-1386 -1767 0
-1387 -1408 0
-1388 -1409 0
-1389 -1410 0
-1387 -1714 0
-1388 -1715 0
-1389 -1716 0
-1387 -1735 0
-1388 -1736 0
-1389 -1737 0
-1390 -1393 0
-1391 -1394 0
-1392 -1395 0
-1396 -1843 0
-1397 -1844 0
-1398 -1845 0
-1399 -1462 0
-1400 -1463 0
-1401 -1464 0
-1399 -2071 0
-1400 -2072 0
-1401 -2073 0
-1402 -1564 0
-1403 -1565 0
-1404 -1566 0
-1402 -1567 0
-1403 -1568 0
-1404 -1569 0
-1402 -1885 0
-1403 -1886 0
-1404 -1887 0
-1405 -1447 0
-1406 -1448 0
-1407 -1449 0
-1405 -1855 0
-1406 -1856 0
-1407 -1857 0
-1408 -1624 0
-1409 -1625 0
-1410 -1626 0
-1408 -1732 0
-1409 -1733 0
-1410 -1734 0
-1408 -1594 0
-1409 -1595 0
-1410 -1596 0
-1411 -2122 0
-1412 -2123 0
-1413 -2124 0
-1414 -1657 0
-1415 -1658 0
-1416 -1659 0
-1417 -1468 0
-1418 -1469 0
-1419 -1470 0
-1417 -1471 0
-1418 -1472 0
-1419 -1473 0
-1423 -1705 0
-1424 -1706 0
-1425 -1707 0
-1426 -1675 0
-1427 -1676 0
-1428 -1677 0
-1429 -1723 0
-1430 -1724 0
-1431 -1725 0
-1432 -1567 0
-1433 -1568 0
-1434 -1569 0
-1432 -2065 0
-1433 -2066 0
-1434 -2067 0
-1435 -1564 0
-1436 -1565 0
-1437 -1566 0
-1435 -1768 0
-1436 -1769 0
-1437 -1770 0
-1438 -1477 0
-1439 -1478 0
-1440 -1479 0
-1438 -1480 0
-1439 -1481 0
-1440 -1482 0
-1438 -1489 0
-1439 -1490 0
-1440 -1491 0
-1438 -1960 0
-1439 -1961 0
-1440 -1962 0
-1441 -1615 0
-1442 -1616 0
-1443 -1617 0
-1441 -2053 0
-1442 -2054 0
-1443 -2055 0
-1444 -1474 0
-1445 -1475 0
-1446 -1476 0
-1444 -1483 0
-1445 -1484 0
-1446 -1485 0
-1447 -1708 0
-1448 -1709 0
-1449 -1710 0
-1450 -1693 0
-1451 -1694 0
-1452 -1695 0
-1453 -1465 0
-1454 -1466 0
-1455 -1467 0
-1456 -2005 0
-1457 -2006 0
-1458 -2007 0
-1456 -1486 0
-1457 -1487 0
-1458 -1488 0
-1456 -1741 0
-1457 -1742 0
-1458 -1743 0
-1459 -1672 0
-1460 -1673 0
-1461 -1674 0
-1459 -1990 0
-1460 -1991 0
-1461 -1992 0
-1462 -1471 0
-1463 -1472 0
-1464 -1473 0
-1465 -1468 0
-1466 -1469 0
-1467 -1470 0
-1465 -1684 0
-1466 -1685 0
-1467 -1686 0
-1465 -1519 0
-1466 -1520 0
-1467 -1521 0
-1465 -1693 0
-1466 -1694 0
-1467 -1695 0
-1465 -1507 0
-1466 -1508 0
-1467 -1509 0
-1465 -1717 0
-1466 -1718 0
-1467 -1719 0
-1465 -1516 0
-1466 -1517 0
-1467 -1518 0
-1468 -1609 0
-1469 -1610 0
-1470 -1611 0
-1471 -2005 0
-1472 -2006 0
-1473 -2007 0
-1471 -2008 0
-1472 -2009 0
-1473 -2010 0
-1477 -1498 0
-1478 -1499 0
-1479 -1500 0
-1480 -1504 0
-1481 -1505 0
-1482 -1506 0
-1483 -1720 0
-1484 -1721 0
-1485 -1722 0
-1486 -1603 0
-1487 -1604 0
-1488 -1605 0
-1486 -1756 0
-1487 -1757 0
-1488 -1758 0
-1486 -1651 0
-1487 -1652 0
-1488 -1653 0
-1489 -1501 0
-1490 -1502 0
-1491 -1503 0
-1492 -2047 0
-1493 -2048 0
-1494 -2049 0
-1495 -1501 0
-1496 -1502 0
-1497 -1503 0
-1495 -1504 0
-1496 -1505 0
-1497 -1506 0
-1498 -1537 0
-1499 -1538 0
-1500 -1539 0
-1501 -1555 0
-1502 -1556 0
-1503 -1557 0
-1504 -1525 0
-1505 -1526 0
-1506 -1527 0
-1507 -1660 0
-1508 -1661 0
-1509 -1662 0
-1507 -1606 0
-1508 -1607 0
-1509 -1608 0
-1510 -1558 0
-1511 -1559 0
-1512 -1560 0
-1510 -1543 0
-1511 -1544 0
-1512 -1545 0
-1513 -1771 0
-1514 -1772 0
-1515 -1773 0
-1513 -1540 0
-1514 -1541 0
-1515 -1542 0
-1513 -2095 0
-1514 -2096 0
-1515 -2097 0
-1516 -1642 0
-1517 -1643 0
-1518 -1644 0
-1519 -1663 0
-1520 -1664 0
-1521 -1665 0
-1522 -1531 0
-1523 -1532 0
-1524 -1533 0
-1522 -1534 0
-1523 -1535 0
-1524 -1536 0
-1522 -1528 0
-1523 -1529 0
-1524 -1530 0
-1540 -1645 0
-1541 -1646 0
-1542 -1647 0
-1540 -1729 0
-1541 -1730 0
-1542 -1731 0
-1540 -1744 0
-1541 -1745 0
-1542 -1746 0
-1543 -1681 0
-1544 -1682 0
-1545 -1683 0
-1546 -1669 0
-1547 -1670 0
-1548 -1671 0
-1546 -1633 0
-1547 -1634 0
-1548 -1635 0
-1549 -1654 0
-1550 -1655 0
-1551 -1656 0
-1552 -1945 0
-1553 -1946 0
-1554 -1947 0
-1552 -1879 0
-1553 -1880 0
-1554 -1881 0
-1558 -1783 0
-1559 -1784 0
-1560 -1785 0
-1558 -2083 0
-1559 -2084 0
-1560 -2085 0
-1564 -1603 0
-1565 -1604 0
-1566 -1605 0
-1564 -2080 0
-1565 -2081 0
-1566 -2082 0
-1564 -2050 0
-1565 -2051 0
-1566 -2052 0
-1582 -1741 0
-1583 -1742 0
-1584 -1743 0
-1585 -2095 0
-1586 -2096 0
-1587 -2097 0
-1588 -1846 0
-1589 -1847 0
-1590 -1848 0
-1588 -1597 0
-1589 -1598 0
-1590 -1599 0
-1588 -1726 0
-1589 -1727 0
-1590 -1728 0
-1594 -1975 0
-1595 -1976 0
-1596 -1977 0
-1594 -1840 0
-1595 -1841 0
-1596 -1842 0
-1594 -2086 0
-1595 -2087 0
-1596 -2088 0
-1600 -1864 0
-1601 -1865 0
-1602 -1866 0
-1600 -1825 0
-1601 -1826 0
-1602 -1827 0
-1609 -1729 0
-1610 -1730 0
-1611 -1731 0
-1609 -1759 0
-1610 -1760 0
-1611 -1761 0
-1612 -2071 0
-1613 -2072 0
-1614 -2073 0
-1612 -1921 0
-1613 -1922 0
-1614 -1923 0
-1615 -1771 0
-1616 -1772 0
-1617 -1773 0
-1618 -1909 0
-1619 -1910 0
-1620 -1911 0
-1621 -1657 0
-1622 -1658 0
-1623 -1659 0
-1624 -2008 0
-1625 -2009 0
-1626 -2010 0
-1624 -1738 0
-1625 -1739 0
-1626 -1740 0
-1630 -1825 0
-1631 -1826 0
-1632 -1827 0
-1630 -1828 0
-1631 -1829 0
-1632 -1830 0
-1633 -1825 0
-1634 -1826 0
-1635 -1827 0
-1636 -2068 0
-1637 -2069 0
-1638 -2070 0
-1639 -1906 0
-1640 -1907 0
-1641 -1908 0
-1639 -1924 0
-1640 -1925 0
-1641 -1926 0
-1642 -1963 0
-1643 -1964 0
-1644 -1965 0
-1642 -1708 0
-1643 -1709 0
-1644 -1710 0
-1645 -1825 0
-1646 -1826 0
-1647 -1827 0
-1645 -2098 0
-1646 -2099 0
-1647 -2100 0
-1648 -1858 0
-1649 -1859 0
-1650 -1860 0
-1648 -1843 0
-1649 -1844 0
-1650 -1845 0
-1651 -1741 0
-1652 -1742 0
-1653 -1743 0
-1654 -1681 0
-1655 -1682 0
-1656 -1683 0
-1654 -1720 0
-1655 -1721 0
-1656 -1722 0
-1657 -1846 0
-1658 -1847 0
-1659 -1848 0
-1660 -1999 0
-1661 -2000 0
-1662 -2001 0
-1663 -1687 0
-1664 -1688 0
-1665 -1689 0
-1666 -1705 0
-1667 -1706 0
-1668 -1707 0
-1666 -1717 0
-1667 -1718 0
-1668 -1719 0
-1669 -1978 0
-1670 -1979 0
-1671 -1980 0
-1669 -1957 0
-1670 -1958 0
-1671 -1959 0
-1672 -1822 0
-1673 -1823 0
-1674 -1824 0
-1672 -2083 0
-1673 -2084 0
-1674 -2085 0
-1675 -1753 0
-1676 -1754 0
-1677 -1755 0
-1678 -1762 0
-1679 -1763 0
-1680 -1764 0
-1684 -2074 0
-1685 -2075 0
-1686 -2076 0
-1687 -1756 0
-1688 -1757 0
-1689 -1758 0
-1696 -1849 0
-1697 -1850 0
-1698 -1851 0
-1705 -2080 0
-1706 -2081 0
-1707 -2082 0
-1708 -1927 0
-1709 -1928 0
-1710 -1929 0
-1708 -1930 0
-1709 -1931 0
-1710 -1932 0
-1708 -1933 0
-1709 -1934 0
-1710 -1935 0
-1714 -2011 0
-1715 -2012 0
-1716 -2013 0
-1723 -1795 0
-1724 -1796 0
-1725 -1797 0
-1726 -1765 0
-1727 -1766 0
-1728 -1767 0
-1729 -2098 0
-1730 -2099 0
-1731 -2100 0
-1738 -2047 0
-1739 -2048 0
-1740 -2049 0
-1738 -1765 0
-1739 -1766 0
-1740 -1767 0
-1738 -1744 0
-1739 -1745 0
-1740 -1746 0
-1741 -1792 0
-1742 -1793 0
-1743 -1794 0
-1744 -2095 0
-1745 -2096 0
-1746 -2097 0
-1744 -1768 0
-1745 -1769 0
-1746 -1770 0
-1747 -2011 0
-1748 -2012 0
-1749 -2013 0
-1747 -1987 0
-1748 -1988 0
-1749 -1989 0
-1747 -1936 0
-1748 -1937 0
-1749 -1938 0
-1750 -2119 0
-1751 -2120 0
-1752 -2121 0
-1750 -2122 0
-1751 -2123 0
-1752 -2124 0
-1753 -1861 0
-1754 -1862 0
-1755 -1863 0
-1753 -2017 0
-1754 -2018 0
-1755 -2019 0
-1753 -2125 0
-1754 -2126 0
-1755 -2127 0
-1759 -1984 0
-1760 -1985 0
-1761 -1986 0
-1759 -1768 0
-1760 -1769 0
-1761 -1770 0
-1762 -1900 0
-1763 -1901 0
-1764 -1902 0
-1762 -2134 0
-1763 -2135 0
-1764 -2136 0
-1762 -1903 0
-1763 -1904 0
-1764 -1905 0
-1765 -2062 0
-1766 -2063 0
-1767 -2064 0
-1780 -2068 0
-1781 -2069 0
-1782 -2070 0
-1786 -1888 0
-1787 -1889 0
-1788 -1890 0
-1786 -2095 0
-1787 -2096 0
-1788 -2097 0
-1789 -1861 0
-1790 -1862 0
-1791 -1863 0
-1792 -1858 0
-1793 -1859 0
-1794 -1860 0
-1801 -2014 0
-1802 -2015 0
-1803 -2016 0
-1801 -2029 0
-1802 -2030 0
-1803 -2031 0
-1807 -1885 0
-1808 -1886 0
-1809 -1887 0
-1819 -2098 0
-1820 -2099 0
-1821 -2100 0
-1828 -1960 0
-1829 -1961 0
-1830 -1962 0
-1831 -2095 0
-1832 -2096 0
-1833 -2097 0
-1834 -2098 0
-1835 -2099 0
-1836 -2100 0
-1843 -2107 0
-1844 -2108 0
-1845 -2109 0
-1849 -1867 0
-1850 -1868 0
-1851 -1869 0
-1855 -2089 0
-1856 -2090 0
-1857 -2091 0
-1858 -1945 0
-1859 -1946 0
-1860 -1947 0
-1858 -2092 0
-1859 -2093 0
-1860 -2094 0
-1861 -2020 0
-1862 -2021 0
-1863 -2022 0
-1864 -2053 0
-1865 -2054 0
-1866 -2055 0
-1876 -1963 0
-1877 -1964 0
-1878 -1965 0
-1879 -1921 0
-1880 -1922 0
-1881 -1923 0
-1882 -1933 0
-1883 -1934 0
-1884 -1935 0
-1891 -2131 0
-1892 -2132 0
-1893 -2133 0
-1894 -1987 0
-1895 -1988 0
-1896 -1989 0
-1897 -1981 0
-1898 -1982 0
-1899 -1983 0
-1900 -1954 0
-1901 -1955 0
-1902 -1956 0
-1903 -1993 0
-1904 -1994 0
-1905 -1995 0
-1906 -2116 0
-1907 -2117 0
-1908 -2118 0
-1909 -1963 0
-1910 -1964 0
-1911 -1965 0
-1909 -2134 0
-1910 -2135 0
-1911 -2136 0
-1912 -2044 0
-1913 -2045 0
-1914 -2046 0
-1912 -2047 0
-1913 -2048 0
-1914 -2049 0
-1915 -2083 0
-1916 -2084 0
-1917 -2085 0
-1918 -2116 0
-1919 -2117 0
-1920 -2118 0
-1936 -1996 0
-1937 -1997 0
-1938 -1998 0
-1939 -1969 0
-1940 -1970 0
-1941 -1971 0
-1939 -2035 0
-1940 -2036 0
-1941 -2037 0
-1942 -2053 0
-1943 -2054 0
-1944 -2055 0
-1942 -1954 0
-1943 -1955 0
-1944 -1956 0
-1948 -1969 0
-1949 -1970 0
-1950 -1971 0
-1948 -2113 0
-1949 -2114 0
-1950 -2115 0
-1957 -2086 0
-1958 -2087 0
-1959 -2088 0
-1963 -2074 0
-1964 -2075 0
-1965 -2076 0
-1963 -2101 0
-1964 -2102 0
-1965 -2103 0
-1978 -2044 0
-1979 -2045 0
-1980 -2046 0
-1981 -2137 0
-1982 -2138 0
-1983 -2139 0
-1996 -2068 0
-1997 -2069 0
-1998 -2070 0
-1996 -2140 0
-1997 -2141 0
-1998 -2142 0
-1996 -2092 0
-1997 -2093 0
-1998 -2094 0
-1996 -2143 0
-1997 -2144 0
-1998 -2145 0
-1996 -2107 0
-1997 -2108 0
-1998 -2109 0
-1999 -2110 0
-2000 -2111 0
-2001 -2112 0
-2020 -2125 0
-2021 -2126 0
-2022 -2127 0
-2023 -2110 0
-2024 -2111 0
-2025 -2112 0
-2026 -2128 0
-2027 -2129 0
-2028 -2130 0
-2032 -2038 0
-2033 -2039 0
-2034 -2040 0
-2032 -2101 0
-2033 -2102 0
-2034 -2103 0
-2035 -2059 0
-2036 -2060 0
-2037 -2061 0
-2041 -2104 0
-2042 -2105 0
-2043 -2106 0
1 0
62 0
