p cnf 993 2625
1 2 3 0
4 5 6 0
7 8 9 0
10 11 12 0
13 14 15 0
16 17 18 0
19 20 21 0
22 23 24 0
25 26 27 0
28 29 30 0
31 32 33 0
34 35 36 0
37 38 39 0
40 41 42 0
43 44 45 0
46 47 48 0
49 50 51 0
52 53 54 0
55 56 57 0
58 59 60 0
61 62 63 0
64 65 66 0
67 68 69 0
70 71 72 0
73 74 75 0
76 77 78 0
79 80 81 0
82 83 84 0
85 86 87 0
88 89 90 0
91 92 93 0
94 95 96 0
97 98 99 0
100 101 102 0
103 104 105 0
106 107 108 0
109 110 111 0
112 113 114 0
115 116 117 0
118 119 120 0
121 122 123 0
124 125 126 0
127 128 129 0
130 131 132 0
133 134 135 0
136 137 138 0
139 140 141 0
142 143 144 0
145 146 147 0
148 149 150 0
151 152 153 0
154 155 156 0
157 158 159 0
160 161 162 0
163 164 165 0
166 167 168 0
169 170 171 0
172 173 174 0
175 176 177 0
178 179 180 0
181 182 183 0
184 185 186 0
187 188 189 0
190 191 192 0
193 194 195 0
196 197 198 0
199 200 201 0
202 203 204 0
205 206 207 0
208 209 210 0
211 212 213 0
214 215 216 0
217 218 219 0
220 221 222 0
223 224 225 0
226 227 228 0
229 230 231 0
232 233 234 0
235 236 237 0
238 239 240 0
241 242 243 0
244 245 246 0
247 248 249 0
250 251 252 0
253 254 255 0
256 257 258 0
259 260 261 0
262 263 264 0
265 266 267 0
268 269 270 0
271 272 273 0
274 275 276 0
277 278 279 0
280 281 282 0
283 284 285 0
286 287 288 0
289 290 291 0
292 293 294 0
295 296 297 0
298 299 300 0
301 302 303 0
304 305 306 0
307 308 309 0
310 311 312 0
313 314 315 0
316 317 318 0
319 320 321 0
322 323 324 0
325 326 327 0
328 329 330 0
331 332 333 0
334 335 336 0
337 338 339 0
340 341 342 0
343 344 345 0
346 347 348 0
349 350 351 0
352 353 354 0
355 356 357 0
358 359 360 0
361 362 363 0
364 365 366 0
367 368 369 0
370 371 372 0
373 374 375 0
376 377 378 0
379 380 381 0
382 383 384 0
385 386 387 0
388 389 390 0
391 392 393 0
394 395 396 0
397 398 399 0
400 401 402 0
403 404 405 0
406 407 408 0
409 410 411 0
412 413 414 0
415 416 417 0
418 419 420 0
421 422 423 0
424 425 426 0
427 428 429 0
430 431 432 0
433 434 435 0
436 437 438 0
439 440 441 0
442 443 444 0
445 446 447 0
448 449 450 0
451 452 453 0
454 455 456 0
457 458 459 0
460 461 462 0
463 464 465 0
466 467 468 0
469 470 471 0
472 473 474 0
475 476 477 0
478 479 480 0
481 482 483 0
484 485 486 0
487 488 489 0
490 491 492 0
493 494 495 0
496 497 498 0
499 500 501 0
502 503 504 0
505 506 507 0
508 509 510 0
511 512 513 0
514 515 516 0
517 518 519 0
520 521 522 0
523 524 525 0
526 527 528 0
529 530 531 0
532 533 534 0
535 536 537 0
538 539 540 0
541 542 543 0
544 545 546 0
547 548 549 0
550 551 552 0
553 554 555 0
556 557 558 0
559 560 561 0
562 563 564 0
565 566 567 0
568 569 570 0
571 572 573 0
574 575 576 0
577 578 579 0
580 581 582 0
583 584 585 0
586 587 588 0
589 590 591 0
592 593 594 0
595 596 597 0
598 599 600 0
601 602 603 0
604 605 606 0
607 608 609 0
610 611 612 0
613 614 615 0
616 617 618 0
619 620 621 0
622 623 624 0
625 626 627 0
628 629 630 0
631 632 633 0
634 635 636 0
637 638 639 0
640 641 642 0
643 644 645 0
646 647 648 0
649 650 651 0
652 653 654 0
655 656 657 0
658 659 660 0
661 662 663 0
664 665 666 0
667 668 669 0
670 671 672 0
673 674 675 0
676 677 678 0
679 680 681 0
682 683 684 0
685 686 687 0
688 689 690 0
691 692 693 0
694 695 696 0
697 698 699 0
700 701 702 0
703 704 705 0
706 707 708 0
709 710 711 0
712 713 714 0
715 716 717 0
718 719 720 0
721 722 723 0
724 725 726 0
727 728 729 0
730 731 732 0
733 734 735 0
736 737 738 0
739 740 741 0
742 743 744 0
745 746 747 0
748 749 750 0
751 752 753 0
754 755 756 0
757 758 759 0
760 761 762 0
763 764 765 0
766 767 768 0
769 770 771 0
772 773 774 0
775 776 777 0
778 779 780 0
781 782 783 0
784 785 786 0
787 788 789 0
790 791 792 0
793 794 795 0
796 797 798 0
799 800 801 0
802 803 804 0
805 806 807 0
808 809 810 0
811 812 813 0
814 815 816 0
817 818 819 0
820 821 822 0
823 824 825 0
826 827 828 0
829 830 831 0
832 833 834 0
835 836 837 0
838 839 840 0
841 842 843 0
844 845 846 0
847 848 849 0
850 851 852 0
853 854 855 0
856 857 858 0
859 860 861 0
862 863 864 0
865 866 867 0
868 869 870 0
871 872 873 0
874 875 876 0
877 878 879 0
880 881 882 0
883 884 885 0
886 887 888 0
889 890 891 0
892 893 894 0
895 896 897 0
898 899 900 0
901 902 903 0
904 905 906 0
907 908 909 0
910 911 912 0
913 914 915 0
916 917 918 0
919 920 921 0
922 923 924 0
925 926 927 0
928 929 930 0
931 932 933 0
934 935 936 0
937 938 939 0
940 941 942 0
943 944 945 0
946 947 948 0
949 950 951 0
952 953 954 0
955 956 957 0
958 959 960 0
961 962 963 0
964 965 966 0
967 968 969 0
970 971 972 0
973 974 975 0
976 977 978 0
979 980 981 0
982 983 984 0
985 986 987 0
988 989 990 0
991 992 993 0
-1 -496 0
-2 -497 0
-3 -498 0
-1 -34 0
-2 -35 0
-3 -36 0
-1 -511 0
-2 -512 0
-3 -513 0
-1 -73 0
-2 -74 0
-3 -75 0
-1 -547 0
-2 -548 0
-3 -549 0
-1 -550 0
-2 -551 0
-3 -552 0
-1 -493 0
-2 -494 0
-3 -495 0
-4 -691 0
-5 -692 0
-6 -693 0
-4 -985 0
-5 -986 0
-6 -987 0
-4 -850 0
-5 -851 0
-6 -852 0
-4 -34 0
-5 -35 0
-6 -36 0
-7 -892 0
-8 -893 0
-9 -894 0
-7 -625 0
-8 -626 0
-9 -627 0
-7 -58 0
-8 -59 0
-9 -60 0
-7 -376 0
-8 -377 0
-9 -378 0
-10 -556 0
-11 -557 0
-12 -558 0
-10 -829 0
-11 -830 0
-12 -831 0
-10 -58 0
-11 -59 0
-12 -60 0
-10 -70 0
-11 -71 0
-12 -72 0
-10 -400 0
-11 -401 0
-12 -402 0
-10 -640 0
-11 -641 0
-12 -642 0
-10 -373 0
-11 -374 0
-12 -375 0
-10 -643 0
-11 -644 0
-12 -645 0
-10 -679 0
-11 -680 0
-12 -681 0
-13 -973 0
-14 -974 0
-15 -975 0
-13 -976 0
-14 -977 0
-15 -978 0
-13 -79 0
-14 -80 0
-15 -81 0
-16 -115 0
-17 -116 0
-18 -117 0
-16 -955 0
-17 -956 0
-18 -957 0
-16 -604 0
-17 -605 0
-18 -606 0
-16 -73 0
-17 -74 0
-18 -75 0
-16 -544 0
-17 -545 0
-18 -546 0
-16 -547 0
-17 -548 0
-18 -549 0
-19 -118 0
-20 -119 0
-21 -120 0
-19 -718 0
-20 -719 0
-21 -720 0
-19 -79 0
-20 -80 0
-21 -81 0
-19 -607 0
-20 -608 0
-21 -609 0
-22 -427 0
-23 -428 0
-24 -429 0
-22 -421 0
-23 -422 0
-24 -423 0
-22 -433 0
-23 -434 0
-24 -435 0
-25 -379 0
-26 -380 0
-27 -381 0
-25 -790 0
-26 -791 0
-27 -792 0
-25 -115 0
-26 -116 0
-27 -117 0
-25 -685 0
-26 -686 0
-27 -687 0
-28 -937 0
-29 -938 0
-30 -939 0
-28 -190 0
-29 -191 0
-30 -192 0
-28 -817 0
-29 -818 0
-30 -819 0
-28 -34 0
-29 -35 0
-30 -36 0
-31 -430 0
-32 -431 0
-33 -432 0
-31 -862 0
-32 -863 0
-33 -864 0
-31 -382 0
-32 -383 0
-33 -384 0
-31 -34 0
-32 -35 0
-33 -36 0
-31 -526 0
-32 -527 0
-33 -528 0
-31 -706 0
-32 -707 0
-33 -708 0
-31 -229 0
-32 -230 0
-33 -231 0
-31 -412 0
-32 -413 0
-33 -414 0
-34 -157 0
-35 -158 0
-36 -159 0
-34 -160 0
-35 -161 0
-36 -162 0
-34 -121 0
-35 -122 0
-36 -123 0
-34 -124 0
-35 -125 0
-36 -126 0
-34 -184 0
-35 -185 0
-36 -186 0
-34 -37 0
-35 -38 0
-36 -39 0
-34 -232 0
-35 -233 0
-36 -234 0
-34 -55 0
-35 -56 0
-36 -57 0
-34 -193 0
-35 -194 0
-36 -195 0
-37 -427 0
-38 -428 0
-39 -429 0
-37 -859 0
-38 -860 0
-39 -861 0
-37 -688 0
-38 -689 0
-39 -690 0
-37 -937 0
-38 -938 0
-39 -939 0
-37 -397 0
-38 -398 0
-39 -399 0
-37 -421 0
-38 -422 0
-39 -423 0
-37 -778 0
-38 -779 0
-39 -780 0
-37 -235 0
-38 -236 0
-39 -237 0
-37 -550 0
-38 -551 0
-39 -552 0
-40 -775 0
-41 -776 0
-42 -777 0
-40 -634 0
-41 -635 0
-42 -636 0
-40 -829 0
-41 -830 0
-42 -831 0
-40 -196 0
-41 -197 0
-42 -198 0
-40 -745 0
-41 -746 0
-42 -747 0
-40 -70 0
-41 -71 0
-42 -72 0
-43 -358 0
-44 -359 0
-45 -360 0
-43 -196 0
-44 -197 0
-45 -198 0
-43 -79 0
-44 -80 0
-45 -81 0
-43 -610 0
-44 -611 0
-45 -612 0
-46 -199 0
-47 -200 0
-48 -201 0
-46 -940 0
-47 -941 0
-48 -942 0
-46 -79 0
-47 -80 0
-48 -81 0
-46 -877 0
-47 -878 0
-48 -879 0
-49 -940 0
-50 -941 0
-51 -942 0
-49 -211 0
-50 -212 0
-51 -213 0
-49 -943 0
-50 -944 0
-51 -945 0
-49 -79 0
-50 -80 0
-51 -81 0
-52 -166 0
-53 -167 0
-54 -168 0
-52 -379 0
-53 -380 0
-54 -381 0
-52 -115 0
-53 -116 0
-54 -117 0
-55 -757 0
-56 -758 0
-57 -759 0
-55 -706 0
-56 -707 0
-57 -708 0
-55 -817 0
-56 -818 0
-57 -819 0
-55 -847 0
-56 -848 0
-57 -849 0
-55 -259 0
-56 -260 0
-57 -261 0
-55 -523 0
-56 -524 0
-57 -525 0
-58 -91 0
-59 -92 0
-60 -93 0
-58 -214 0
-59 -215 0
-60 -216 0
-58 -265 0
-59 -266 0
-60 -267 0
-58 -223 0
-59 -224 0
-60 -225 0
-58 -232 0
-59 -233 0
-60 -234 0
-58 -61 0
-59 -62 0
-60 -63 0
-61 -898 0
-62 -899 0
-63 -900 0
-61 -235 0
-62 -236 0
-63 -237 0
-61 -679 0
-62 -680 0
-63 -681 0
-64 -136 0
-65 -137 0
-66 -138 0
-64 -148 0
-65 -149 0
-66 -150 0
-64 -868 0
-65 -869 0
-66 -870 0
-64 -400 0
-65 -401 0
-66 -402 0
-64 -373 0
-65 -374 0
-66 -375 0
-67 -388 0
-68 -389 0
-69 -390 0
-67 -70 0
-68 -71 0
-69 -72 0
-67 -229 0
-68 -230 0
-69 -231 0
-70 -142 0
-71 -143 0
-72 -144 0
-70 -94 0
-71 -95 0
-72 -96 0
-70 -268 0
-71 -269 0
-72 -270 0
-70 -232 0
-71 -233 0
-72 -234 0
-70 -241 0
-71 -242 0
-72 -243 0
-73 -175 0
-74 -176 0
-75 -177 0
-73 -103 0
-74 -104 0
-75 -105 0
-73 -271 0
-74 -272 0
-75 -273 0
-73 -226 0
-74 -227 0
-75 -228 0
-73 -232 0
-74 -233 0
-75 -234 0
-73 -76 0
-74 -77 0
-75 -78 0
-76 -616 0
-77 -617 0
-78 -618 0
-76 -553 0
-77 -554 0
-78 -555 0
-76 -235 0
-77 -236 0
-78 -237 0
-76 -550 0
-77 -551 0
-78 -552 0
-79 -151 0
-80 -152 0
-81 -153 0
-79 -97 0
-80 -98 0
-81 -99 0
-79 -106 0
-80 -107 0
-81 -108 0
-79 -232 0
-80 -233 0
-81 -234 0
-79 -109 0
-80 -110 0
-81 -111 0
-79 -238 0
-80 -239 0
-81 -240 0
-79 -247 0
-80 -248 0
-81 -249 0
-79 -250 0
-80 -251 0
-81 -252 0
-82 -703 0
-83 -704 0
-84 -705 0
-82 -379 0
-83 -380 0
-84 -381 0
-82 -904 0
-83 -905 0
-84 -906 0
-85 -166 0
-86 -167 0
-87 -168 0
-85 -418 0
-86 -419 0
-87 -420 0
-85 -904 0
-86 -905 0
-87 -906 0
-88 -430 0
-89 -431 0
-90 -432 0
-88 -433 0
-89 -434 0
-90 -435 0
-88 -235 0
-89 -236 0
-90 -237 0
-91 -625 0
-92 -626 0
-93 -627 0
-91 -733 0
-92 -734 0
-93 -735 0
-91 -256 0
-92 -257 0
-93 -258 0
-91 -742 0
-92 -743 0
-93 -744 0
-94 -757 0
-95 -758 0
-96 -759 0
-94 -556 0
-95 -557 0
-96 -558 0
-94 -259 0
-95 -260 0
-96 -261 0
-94 -538 0
-95 -539 0
-96 -540 0
-97 -523 0
-98 -524 0
-99 -525 0
-97 -535 0
-98 -536 0
-99 -537 0
-97 -832 0
-98 -833 0
-99 -834 0
-97 -538 0
-98 -539 0
-99 -540 0
-97 -463 0
-98 -464 0
-99 -465 0
-97 -466 0
-98 -467 0
-99 -468 0
-97 -721 0
-98 -722 0
-99 -723 0
-97 -259 0
-98 -260 0
-99 -261 0
-97 -472 0
-98 -473 0
-99 -474 0
-100 -118 0
-101 -119 0
-102 -120 0
-100 -439 0
-101 -440 0
-102 -441 0
-100 -196 0
-101 -197 0
-102 -198 0
-100 -424 0
-101 -425 0
-102 -426 0
-100 -574 0
-101 -575 0
-102 -576 0
-100 -586 0
-101 -587 0
-102 -588 0
-103 -553 0
-104 -554 0
-105 -555 0
-103 -682 0
-104 -683 0
-105 -684 0
-103 -262 0
-104 -263 0
-105 -264 0
-103 -559 0
-104 -560 0
-105 -561 0
-103 -415 0
-104 -416 0
-105 -417 0
-103 -511 0
-104 -512 0
-105 -513 0
-103 -664 0
-104 -665 0
-105 -666 0
-103 -577 0
-104 -578 0
-105 -579 0
-103 -454 0
-104 -455 0
-105 -456 0
-103 -469 0
-104 -470 0
-105 -471 0
-106 -439 0
-107 -440 0
-108 -441 0
-106 -682 0
-107 -683 0
-108 -684 0
-106 -262 0
-107 -263 0
-108 -264 0
-106 -472 0
-107 -473 0
-108 -474 0
-109 -973 0
-110 -974 0
-111 -975 0
-109 -943 0
-110 -944 0
-111 -945 0
-112 -703 0
-113 -704 0
-114 -705 0
-112 -418 0
-113 -419 0
-114 -420 0
-112 -196 0
-113 -197 0
-114 -198 0
-115 -277 0
-116 -278 0
-117 -279 0
-115 -280 0
-116 -281 0
-117 -282 0
-115 -232 0
-116 -233 0
-117 -234 0
-118 -133 0
-119 -134 0
-120 -135 0
-118 -232 0
-119 -233 0
-120 -234 0
-121 -289 0
-122 -290 0
-123 -291 0
-121 -385 0
-122 -386 0
-123 -387 0
-121 -859 0
-122 -860 0
-123 -861 0
-124 -385 0
-125 -386 0
-126 -387 0
-124 -862 0
-125 -863 0
-126 -864 0
-124 -295 0
-125 -296 0
-126 -297 0
-124 -856 0
-125 -857 0
-126 -858 0
-127 -541 0
-128 -542 0
-129 -543 0
-127 -502 0
-128 -503 0
-129 -504 0
-127 -508 0
-128 -509 0
-129 -510 0
-127 -196 0
-128 -197 0
-129 -198 0
-127 -148 0
-128 -149 0
-129 -150 0
-130 -451 0
-131 -452 0
-132 -453 0
-130 -199 0
-131 -200 0
-132 -201 0
-130 -499 0
-131 -500 0
-132 -501 0
-130 -136 0
-131 -137 0
-132 -138 0
-130 -877 0
-131 -878 0
-132 -879 0
-130 -448 0
-131 -449 0
-132 -450 0
-133 -838 0
-134 -839 0
-135 -840 0
-133 -694 0
-134 -695 0
-135 -696 0
-133 -364 0
-134 -365 0
-135 -366 0
-133 -259 0
-134 -260 0
-135 -261 0
-136 -139 0
-137 -140 0
-138 -141 0
-136 -220 0
-137 -221 0
-138 -222 0
-136 -232 0
-137 -233 0
-138 -234 0
-139 -475 0
-140 -476 0
-141 -477 0
-139 -448 0
-140 -449 0
-141 -450 0
-139 -235 0
-140 -236 0
-141 -237 0
-142 -289 0
-143 -290 0
-144 -291 0
-142 -400 0
-143 -401 0
-144 -402 0
-142 -376 0
-143 -377 0
-144 -378 0
-145 -931 0
-146 -932 0
-147 -933 0
-145 -148 0
-146 -149 0
-147 -150 0
-145 -508 0
-146 -509 0
-147 -510 0
-145 -229 0
-146 -230 0
-147 -231 0
-145 -445 0
-146 -446 0
-147 -447 0
-145 -715 0
-146 -716 0
-147 -717 0
-145 -457 0
-146 -458 0
-147 -459 0
-148 -286 0
-149 -287 0
-150 -288 0
-148 -163 0
-149 -164 0
-150 -165 0
-148 -232 0
-149 -233 0
-150 -234 0
-148 -244 0
-149 -245 0
-150 -246 0
-151 -619 0
-152 -620 0
-153 -621 0
-151 -289 0
-152 -290 0
-153 -291 0
-151 -988 0
-152 -989 0
-153 -990 0
-154 -166 0
-155 -167 0
-156 -168 0
-154 -568 0
-155 -569 0
-156 -570 0
-154 -418 0
-155 -419 0
-156 -420 0
-154 -196 0
-155 -197 0
-156 -198 0
-157 -391 0
-158 -392 0
-159 -393 0
-157 -421 0
-158 -422 0
-159 -423 0
-157 -850 0
-158 -851 0
-159 -852 0
-160 -382 0
-161 -383 0
-162 -384 0
-160 -691 0
-161 -692 0
-162 -693 0
-160 -778 0
-161 -779 0
-162 -780 0
-163 -457 0
-164 -458 0
-165 -459 0
-163 -652 0
-164 -653 0
-165 -654 0
-163 -847 0
-164 -848 0
-165 -849 0
-163 -259 0
-164 -260 0
-165 -261 0
-166 -232 0
-167 -233 0
-168 -234 0
-169 -187 0
-170 -188 0
-171 -189 0
-169 -232 0
-170 -233 0
-171 -234 0
-169 -172 0
-170 -173 0
-171 -174 0
-172 -235 0
-173 -236 0
-174 -237 0
-172 -865 0
-173 -866 0
-174 -867 0
-172 -688 0
-173 -689 0
-174 -690 0
-175 -454 0
-176 -455 0
-177 -456 0
-175 -364 0
-176 -365 0
-177 -366 0
-178 -574 0
-179 -575 0
-180 -576 0
-178 -199 0
-179 -200 0
-180 -201 0
-178 -646 0
-179 -647 0
-180 -648 0
-178 -514 0
-179 -515 0
-180 -516 0
-178 -196 0
-179 -197 0
-180 -198 0
-178 -520 0
-179 -521 0
-180 -522 0
-181 -442 0
-182 -443 0
-183 -444 0
-181 -211 0
-182 -212 0
-183 -213 0
-181 -409 0
-182 -410 0
-183 -411 0
-181 -190 0
-182 -191 0
-183 -192 0
-184 -430 0
-185 -431 0
-186 -432 0
-184 -391 0
-185 -392 0
-186 -393 0
-187 -949 0
-188 -950 0
-189 -951 0
-187 -256 0
-188 -257 0
-189 -258 0
-190 -208 0
-191 -209 0
-192 -210 0
-190 -283 0
-191 -284 0
-192 -285 0
-190 -217 0
-191 -218 0
-192 -219 0
-190 -307 0
-191 -308 0
-192 -309 0
-190 -232 0
-191 -233 0
-192 -234 0
-193 -337 0
-194 -338 0
-195 -339 0
-193 -496 0
-194 -497 0
-195 -498 0
-193 -697 0
-194 -698 0
-195 -699 0
-193 -526 0
-194 -527 0
-195 -528 0
-193 -460 0
-194 -461 0
-195 -462 0
-196 -232 0
-197 -233 0
-198 -234 0
-196 -310 0
-197 -311 0
-198 -312 0
-199 -319 0
-200 -320 0
-201 -321 0
-199 -232 0
-200 -233 0
-201 -234 0
-199 -316 0
-200 -317 0
-201 -318 0
-202 -922 0
-203 -923 0
-204 -924 0
-202 -802 0
-203 -803 0
-204 -804 0
-202 -442 0
-203 -443 0
-204 -444 0
-202 -409 0
-203 -410 0
-204 -411 0
-205 -406 0
-206 -407 0
-207 -408 0
-205 -211 0
-206 -212 0
-207 -213 0
-205 -442 0
-206 -443 0
-207 -444 0
-208 -406 0
-209 -407 0
-210 -408 0
-208 -418 0
-209 -419 0
-210 -420 0
-208 -808 0
-209 -809 0
-210 -810 0
-208 -811 0
-209 -812 0
-210 -813 0
-208 -568 0
-209 -569 0
-210 -570 0
-208 -799 0
-209 -800 0
-210 -801 0
-211 -253 0
-212 -254 0
-213 -255 0
-211 -232 0
-212 -233 0
-213 -234 0
-214 -529 0
-215 -530 0
-216 -531 0
-214 -328 0
-215 -329 0
-216 -330 0
-214 -658 0
-215 -659 0
-216 -660 0
-214 -898 0
-215 -899 0
-216 -900 0
-214 -643 0
-215 -644 0
-216 -645 0
-217 -406 0
-218 -407 0
-219 -408 0
-217 -409 0
-218 -410 0
-219 -411 0
-220 -475 0
-221 -476 0
-222 -477 0
-220 -289 0
-221 -290 0
-222 -291 0
-220 -619 0
-221 -620 0
-222 -621 0
-220 -376 0
-221 -377 0
-222 -378 0
-220 -451 0
-221 -452 0
-222 -453 0
-223 -331 0
-224 -332 0
-225 -333 0
-223 -376 0
-224 -377 0
-225 -378 0
-226 -328 0
-227 -329 0
-228 -330 0
-226 -712 0
-227 -713 0
-228 -714 0
-226 -604 0
-227 -605 0
-228 -606 0
-226 -469 0
-227 -470 0
-228 -471 0
-226 -673 0
-227 -674 0
-228 -675 0
-229 -301 0
-230 -302 0
-231 -303 0
-229 -292 0
-230 -293 0
-231 -294 0
-229 -232 0
-230 -233 0
-231 -234 0
-229 -343 0
-230 -344 0
-231 -345 0
-232 -298 0
-233 -299 0
-234 -300 0
-232 -322 0
-233 -323 0
-234 -324 0
-232 -289 0
-233 -290 0
-234 -291 0
-232 -295 0
-233 -296 0
-234 -297 0
-232 -256 0
-233 -257 0
-234 -258 0
-232 -328 0
-233 -329 0
-234 -330 0
-232 -259 0
-233 -260 0
-234 -261 0
-232 -331 0
-233 -332 0
-234 -333 0
-232 -262 0
-233 -263 0
-234 -264 0
-232 -337 0
-233 -338 0
-234 -339 0
-232 -235 0
-233 -236 0
-234 -237 0
-232 -346 0
-233 -347 0
-234 -348 0
-235 -325 0
-236 -326 0
-237 -327 0
-238 -976 0
-239 -977 0
-240 -978 0
-238 -718 0
-239 -719 0
-240 -720 0
-238 -466 0
-239 -467 0
-240 -468 0
-238 -610 0
-239 -611 0
-240 -612 0
-241 -388 0
-242 -389 0
-243 -390 0
-241 -337 0
-242 -338 0
-243 -339 0
-241 -367 0
-242 -368 0
-243 -369 0
-241 -697 0
-242 -698 0
-243 -699 0
-244 -595 0
-245 -596 0
-246 -597 0
-244 -502 0
-245 -503 0
-246 -504 0
-244 -295 0
-245 -296 0
-246 -297 0
-244 -445 0
-245 -446 0
-246 -447 0
-244 -367 0
-245 -368 0
-246 -369 0
-244 -652 0
-245 -653 0
-246 -654 0
-244 -856 0
-245 -857 0
-246 -858 0
-247 -331 0
-248 -332 0
-249 -333 0
-247 -481 0
-248 -482 0
-249 -483 0
-247 -832 0
-248 -833 0
-249 -834 0
-247 -487 0
-248 -488 0
-249 -489 0
-247 -607 0
-248 -608 0
-249 -609 0
-250 -532 0
-251 -533 0
-252 -534 0
-250 -535 0
-251 -536 0
-252 -537 0
-250 -337 0
-251 -338 0
-252 -339 0
-250 -487 0
-251 -488 0
-252 -489 0
-253 -766 0
-254 -767 0
-255 -768 0
-253 -946 0
-254 -947 0
-255 -948 0
-253 -406 0
-254 -407 0
-255 -408 0
-253 -943 0
-254 -944 0
-255 -945 0
-253 -796 0
-254 -797 0
-255 -798 0
-253 -415 0
-254 -416 0
-255 -417 0
-256 -304 0
-257 -305 0
-258 -306 0
-259 -340 0
-260 -341 0
-261 -342 0
-262 -313 0
-263 -314 0
-264 -315 0
-265 -658 0
-266 -659 0
-267 -660 0
-265 -892 0
-266 -893 0
-267 -894 0
-265 -640 0
-266 -641 0
-267 -642 0
-265 -886 0
-266 -887 0
-267 -888 0
-265 -346 0
-266 -347 0
-267 -348 0
-268 -763 0
-269 -764 0
-270 -765 0
-268 -640 0
-269 -641 0
-270 -642 0
-268 -346 0
-269 -347 0
-270 -348 0
-271 -955 0
-272 -956 0
-273 -957 0
-271 -346 0
-272 -347 0
-273 -348 0
-274 -361 0
-275 -362 0
-276 -363 0
-274 -370 0
-275 -371 0
-276 -372 0
-274 -322 0
-275 -323 0
-276 -324 0
-277 -328 0
-278 -329 0
-279 -330 0
-277 -358 0
-278 -359 0
-279 -360 0
-277 -589 0
-278 -590 0
-279 -591 0
-277 -604 0
-278 -605 0
-279 -606 0
-280 -331 0
-281 -332 0
-282 -333 0
-280 -790 0
-281 -791 0
-282 -792 0
-280 -544 0
-281 -545 0
-282 -546 0
-283 -568 0
-284 -569 0
-285 -570 0
-283 -298 0
-284 -299 0
-285 -300 0
-286 -328 0
-287 -329 0
-288 -330 0
-286 -595 0
-287 -596 0
-288 -597 0
-286 -868 0
-287 -869 0
-288 -870 0
-289 -334 0
-290 -335 0
-291 -336 0
-292 -862 0
-293 -863 0
-294 -864 0
-292 -295 0
-293 -296 0
-294 -297 0
-292 -445 0
-293 -446 0
-294 -447 0
-295 -334 0
-296 -335 0
-297 -336 0
-298 -304 0
-299 -305 0
-300 -306 0
-301 -394 0
-302 -395 0
-303 -396 0
-301 -931 0
-302 -932 0
-303 -933 0
-301 -382 0
-302 -383 0
-303 -384 0
-301 -397 0
-302 -398 0
-303 -399 0
-304 -733 0
-305 -734 0
-306 -735 0
-304 -949 0
-305 -950 0
-306 -951 0
-307 -328 0
-308 -329 0
-309 -330 0
-307 -991 0
-308 -992 0
-309 -993 0
-307 -811 0
-308 -812 0
-309 -813 0
-310 -781 0
-311 -782 0
-312 -783 0
-310 -745 0
-311 -746 0
-312 -747 0
-310 -565 0
-311 -566 0
-312 -567 0
-310 -568 0
-311 -569 0
-312 -570 0
-310 -610 0
-311 -611 0
-312 -612 0
-310 -541 0
-311 -542 0
-312 -543 0
-310 -586 0
-311 -587 0
-312 -588 0
-313 -454 0
-314 -455 0
-315 -456 0
-313 -424 0
-314 -425 0
-315 -426 0
-316 -499 0
-317 -500 0
-318 -501 0
-316 -520 0
-317 -521 0
-318 -522 0
-316 -529 0
-317 -530 0
-318 -531 0
-316 -622 0
-317 -623 0
-318 -624 0
-316 -328 0
-317 -329 0
-318 -330 0
-316 -589 0
-317 -590 0
-318 -591 0
-319 -331 0
-320 -332 0
-321 -333 0
-319 -622 0
-320 -623 0
-321 -624 0
-319 -490 0
-320 -491 0
-321 -492 0
-322 -325 0
-323 -326 0
-324 -327 0
-325 -361 0
-326 -362 0
-327 -363 0
-325 -397 0
-326 -398 0
-327 -399 0
-328 -349 0
-329 -350 0
-330 -351 0
-331 -352 0
-332 -353 0
-333 -354 0
-334 -385 0
-335 -386 0
-336 -387 0
-334 -988 0
-335 -989 0
-336 -990 0
-337 -352 0
-338 -353 0
-339 -354 0
-337 -340 0
-338 -341 0
-339 -342 0
-340 -535 0
-341 -536 0
-342 -537 0
-340 -838 0
-341 -839 0
-342 -840 0
-340 -871 0
-341 -872 0
-342 -873 0
-343 -361 0
-344 -362 0
-345 -363 0
-343 -886 0
-344 -887 0
-345 -888 0
-343 -370 0
-344 -371 0
-345 -372 0
-343 -391 0
-344 -392 0
-345 -393 0
-343 -346 0
-344 -347 0
-345 -348 0
-346 -355 0
-347 -356 0
-348 -357 0
-349 -991 0
-350 -992 0
-351 -993 0
-349 -673 0
-350 -674 0
-351 -675 0
-352 -487 0
-353 -488 0
-354 -489 0
-352 -490 0
-353 -491 0
-354 -492 0
-352 -676 0
-353 -677 0
-354 -678 0
-352 -460 0
-353 -461 0
-354 -462 0
-355 -394 0
-356 -395 0
-357 -396 0
-355 -403 0
-356 -404 0
-357 -405 0
-358 -667 0
-359 -668 0
-360 -669 0
-361 -661 0
-362 -662 0
-363 -663 0
-364 -667 0
-365 -668 0
-366 -669 0
-364 -601 0
-365 -602 0
-366 -603 0
-367 -670 0
-368 -671 0
-369 -672 0
-367 -598 0
-368 -599 0
-369 -600 0
-367 -505 0
-368 -506 0
-369 -507 0
-370 -592 0
-371 -593 0
-372 -594 0
-373 -631 0
-374 -632 0
-375 -633 0
-373 -724 0
-374 -725 0
-375 -726 0
-376 -835 0
-377 -836 0
-378 -837 0
-376 -748 0
-377 -749 0
-378 -750 0
-382 -562 0
-383 -563 0
-384 -564 0
-385 -739 0
-386 -740 0
-387 -741 0
-385 -484 0
-386 -485 0
-387 -486 0
-385 -517 0
-386 -518 0
-387 -519 0
-388 -505 0
-389 -506 0
-390 -507 0
-388 -787 0
-389 -788 0
-390 -789 0
-388 -979 0
-389 -980 0
-390 -981 0
-388 -760 0
-389 -761 0
-390 -762 0
-391 -661 0
-392 -662 0
-393 -663 0
-391 -592 0
-392 -593 0
-393 -594 0
-394 -613 0
-395 -614 0
-396 -615 0
-397 -562 0
-398 -563 0
-399 -564 0
-397 -613 0
-398 -614 0
-399 -615 0
-400 -772 0
-401 -773 0
-402 -774 0
-403 -736 0
-404 -737 0
-405 -738 0
-403 -592 0
-404 -593 0
-405 -594 0
-412 -736 0
-413 -737 0
-414 -738 0
-412 -436 0
-413 -437 0
-414 -438 0
-415 -913 0
-416 -914 0
-417 -915 0
-418 -823 0
-419 -824 0
-420 -825 0
-424 -727 0
-425 -728 0
-426 -729 0
-424 -649 0
-425 -650 0
-426 -651 0
-427 -874 0
-428 -875 0
-429 -876 0
-427 -844 0
-428 -845 0
-429 -846 0
-427 -562 0
-428 -563 0
-429 -564 0
-430 -592 0
-431 -593 0
-432 -594 0
-433 -874 0
-434 -875 0
-435 -876 0
-433 -805 0
-434 -806 0
-435 -807 0
-433 -436 0
-434 -437 0
-435 -438 0
-436 -889 0
-437 -890 0
-438 -891 0
-439 -730 0
-440 -731 0
-441 -732 0
-445 -478 0
-446 -479 0
-447 -480 0
-445 -505 0
-446 -506 0
-447 -507 0
-445 -574 0
-446 -575 0
-447 -576 0
-445 -586 0
-446 -587 0
-447 -588 0
-445 -463 0
-446 -464 0
-447 -465 0
-445 -472 0
-446 -473 0
-447 -474 0
-448 -454 0
-449 -455 0
-450 -456 0
-448 -751 0
-449 -752 0
-450 -753 0
-448 -484 0
-449 -485 0
-450 -486 0
-451 -454 0
-452 -455 0
-453 -456 0
-451 -814 0
-452 -815 0
-453 -816 0
-451 -754 0
-452 -755 0
-453 -756 0
-454 -475 0
-455 -476 0
-456 -477 0
-454 -727 0
-455 -728 0
-456 -729 0
-454 -481 0
-455 -482 0
-456 -483 0
-454 -487 0
-455 -488 0
-456 -489 0
-454 -601 0
-455 -602 0
-456 -603 0
-454 -571 0
-455 -572 0
-456 -573 0
-454 -460 0
-455 -461 0
-456 -462 0
-457 -565 0
-458 -566 0
-459 -567 0
-457 -586 0
-458 -587 0
-459 -588 0
-460 -484 0
-461 -485 0
-462 -486 0
-460 -517 0
-461 -518 0
-462 -519 0
-460 -463 0
-461 -464 0
-462 -465 0
-460 -466 0
-461 -467 0
-462 -468 0
-460 -469 0
-461 -470 0
-462 -471 0
-463 -820 0
-464 -821 0
-465 -822 0
-463 -493 0
-464 -494 0
-465 -495 0
-463 -496 0
-464 -497 0
-465 -498 0
-463 -502 0
-464 -503 0
-465 -504 0
-463 -601 0
-464 -602 0
-465 -603 0
-463 -508 0
-464 -509 0
-465 -510 0
-463 -667 0
-464 -668 0
-465 -669 0
-463 -700 0
-464 -701 0
-465 -702 0
-466 -727 0
-467 -728 0
-468 -729 0
-466 -580 0
-467 -581 0
-468 -582 0
-469 -580 0
-470 -581 0
-471 -582 0
-469 -637 0
-470 -638 0
-471 -639 0
-472 -583 0
-473 -584 0
-474 -585 0
-475 -826 0
-476 -827 0
-477 -828 0
-475 -514 0
-476 -515 0
-477 -516 0
-475 -520 0
-476 -521 0
-477 -522 0
-475 -709 0
-476 -710 0
-477 -711 0
-475 -577 0
-476 -578 0
-477 -579 0
-475 -589 0
-476 -590 0
-477 -591 0
-475 -853 0
-476 -854 0
-477 -855 0
-478 -595 0
-479 -596 0
-480 -597 0
-478 -649 0
-479 -650 0
-480 -651 0
-481 -709 0
-482 -710 0
-483 -711 0
-481 -559 0
-482 -560 0
-483 -561 0
-484 -499 0
-485 -500 0
-486 -501 0
-487 -751 0
-488 -752 0
-489 -753 0
-487 -754 0
-488 -755 0
-489 -756 0
-490 -970 0
-491 -971 0
-492 -972 0
-493 -598 0
-494 -599 0
-495 -600 0
-493 -505 0
-494 -506 0
-495 -507 0
-493 -787 0
-494 -788 0
-495 -789 0
-493 -721 0
-494 -722 0
-495 -723 0
-496 -538 0
-497 -539 0
-498 -540 0
-502 -598 0
-503 -599 0
-504 -600 0
-502 -655 0
-503 -656 0
-504 -657 0
-502 -916 0
-503 -917 0
-504 -918 0
-505 -511 0
-506 -512 0
-507 -513 0
-505 -928 0
-506 -929 0
-507 -930 0
-505 -934 0
-506 -935 0
-507 -936 0
-508 -739 0
-509 -740 0
-510 -741 0
-508 -517 0
-509 -518 0
-510 -519 0
-511 -952 0
-512 -953 0
-513 -954 0
-511 -724 0
-512 -725 0
-513 -726 0
-514 -619 0
-515 -620 0
-516 -621 0
-514 -583 0
-515 -584 0
-516 -585 0
-514 -571 0
-515 -572 0
-516 -573 0
-517 -541 0
-518 -542 0
-519 -543 0
-520 -649 0
-521 -650 0
-522 -651 0
-523 -709 0
-524 -710 0
-525 -711 0
-526 -982 0
-527 -983 0
-528 -984 0
-526 -748 0
-527 -749 0
-528 -750 0
-529 -784 0
-530 -785 0
-531 -786 0
-529 -982 0
-530 -983 0
-531 -984 0
-532 -760 0
-533 -761 0
-534 -762 0
-532 -754 0
-533 -755 0
-534 -756 0
-532 -835 0
-533 -836 0
-534 -837 0
-535 -628 0
-536 -629 0
-537 -630 0
-535 -835 0
-536 -836 0
-537 -837 0
-538 -547 0
-539 -548 0
-540 -549 0
-538 -628 0
-539 -629 0
-540 -630 0
-541 -895 0
-542 -896 0
-543 -897 0
-544 -721 0
-545 -722 0
-546 -723 0
-547 -901 0
-548 -902 0
-549 -903 0
-547 -556 0
-548 -557 0
-549 -558 0
-547 -721 0
-548 -722 0
-549 -723 0
-550 -901 0
-551 -902 0
-552 -903 0
-550 -598 0
-551 -599 0
-552 -600 0
-553 -793 0
-554 -794 0
-555 -795 0
-553 -670 0
-554 -671 0
-555 -672 0
-553 -631 0
-554 -632 0
-555 -633 0
-556 -964 0
-557 -965 0
-558 -966 0
-556 -604 0
-557 -605 0
-558 -606 0
-559 -793 0
-560 -794 0
-561 -795 0
-559 -607 0
-560 -608 0
-561 -609 0
-562 -691 0
-563 -692 0
-564 -693 0
-565 -895 0
-566 -896 0
-567 -897 0
-571 -682 0
-572 -683 0
-573 -684 0
-571 -814 0
-572 -815 0
-573 -816 0
-571 -910 0
-572 -911 0
-573 -912 0
-574 -700 0
-575 -701 0
-576 -702 0
-574 -649 0
-575 -650 0
-576 -651 0
-577 -649 0
-578 -650 0
-579 -651 0
-577 -637 0
-578 -638 0
-579 -639 0
-580 -646 0
-581 -647 0
-582 -648 0
-580 -718 0
-581 -719 0
-582 -720 0
-580 -604 0
-581 -605 0
-582 -606 0
-583 -712 0
-584 -713 0
-585 -714 0
-583 -673 0
-584 -674 0
-585 -675 0
-586 -730 0
-587 -731 0
-588 -732 0
-586 -658 0
-587 -659 0
-588 -660 0
-586 -928 0
-587 -929 0
-588 -930 0
-586 -640 0
-587 -641 0
-588 -642 0
-586 -643 0
-587 -644 0
-588 -645 0
-586 -652 0
-587 -653 0
-588 -654 0
-589 -640 0
-590 -641 0
-591 -642 0
-592 -865 0
-593 -866 0
-594 -867 0
-595 -961 0
-596 -962 0
-597 -963 0
-598 -616 0
-599 -617 0
-600 -618 0
-598 -634 0
-599 -635 0
-600 -636 0
-601 -826 0
-602 -827 0
-603 -828 0
-604 -769 0
-605 -770 0
-606 -771 0
-604 -640 0
-605 -641 0
-606 -642 0
-610 -640 0
-611 -641 0
-612 -642 0
-613 -778 0
-614 -779 0
-615 -780 0
-616 -670 0
-617 -671 0
-618 -672 0
-616 -655 0
-617 -656 0
-618 -657 0
-619 -814 0
-620 -815 0
-621 -816 0
-622 -982 0
-623 -983 0
-624 -984 0
-625 -694 0
-626 -695 0
-627 -696 0
-628 -892 0
-629 -893 0
-630 -894 0
-631 -640 0
-632 -641 0
-633 -642 0
-631 -664 0
-632 -665 0
-633 -666 0
-634 -685 0
-635 -686 0
-636 -687 0
-637 -646 0
-638 -647 0
-639 -648 0
-640 -826 0
-641 -827 0
-642 -828 0
-640 -880 0
-641 -881 0
-642 -882 0
-640 -718 0
-641 -719 0
-642 -720 0
-643 -883 0
-644 -884 0
-645 -885 0
-643 -772 0
-644 -773 0
-645 -774 0
-646 -700 0
-647 -701 0
-648 -702 0
-646 -769 0
-647 -770 0
-648 -771 0
-649 -976 0
-650 -977 0
-651 -978 0
-652 -883 0
-653 -884 0
-654 -885 0
-652 -961 0
-653 -962 0
-654 -963 0
-655 -802 0
-656 -803 0
-657 -804 0
-658 -979 0
-659 -980 0
-660 -981 0
-661 -766 0
-662 -767 0
-663 -768 0
-661 -850 0
-662 -851 0
-663 -852 0
-664 -841 0
-665 -842 0
-666 -843 0
-664 -724 0
-665 -725 0
-666 -726 0
-664 -880 0
-665 -881 0
-666 -882 0
-667 -712 0
-668 -713 0
-669 -714 0
-667 -907 0
-668 -908 0
-669 -909 0
-670 -763 0
-671 -764 0
-672 -765 0
-676 -754 0
-677 -755 0
-678 -756 0
-676 -970 0
-677 -971 0
-678 -972 0
-679 -883 0
-680 -884 0
-681 -885 0
-679 -964 0
-680 -965 0
-681 -966 0
-682 -952 0
-683 -953 0
-684 -954 0
-685 -775 0
-686 -776 0
-687 -777 0
-688 -844 0
-689 -845 0
-690 -846 0
-691 -874 0
-692 -875 0
-693 -876 0
-691 -805 0
-692 -806 0
-693 -807 0
-694 -742 0
-695 -743 0
-696 -744 0
-697 -784 0
-698 -785 0
-699 -786 0
-697 -919 0
-698 -920 0
-699 -921 0
-700 -907 0
-701 -908 0
-702 -909 0
-700 -916 0
-701 -917 0
-702 -918 0
-703 -823 0
-704 -824 0
-705 -825 0
-706 -772 0
-707 -773 0
-708 -774 0
-706 -748 0
-707 -749 0
-708 -750 0
-709 -832 0
-710 -833 0
-711 -834 0
-715 -739 0
-716 -740 0
-717 -741 0
-715 -925 0
-716 -926 0
-717 -927 0
-715 -724 0
-716 -725 0
-717 -726 0
-727 -976 0
-728 -977 0
-729 -978 0
-730 -910 0
-731 -911 0
-732 -912 0
-733 -838 0
-734 -839 0
-735 -840 0
-736 -865 0
-737 -866 0
-738 -867 0
-739 -799 0
-740 -800 0
-741 -801 0
-742 -838 0
-743 -839 0
-744 -840 0
-745 -853 0
-746 -854 0
-747 -855 0
-748 -871 0
-749 -872 0
-750 -873 0
-751 -988 0
-752 -989 0
-753 -990 0
-754 -808 0
-755 -809 0
-756 -810 0
-754 -811 0
-755 -812 0
-756 -813 0
-757 -919 0
-758 -920 0
-759 -921 0
-760 -892 0
-761 -893 0
-762 -894 0
-760 -934 0
-761 -935 0
-762 -936 0
-763 -793 0
-764 -794 0
-765 -795 0
-766 -958 0
-767 -959 0
-768 -960 0
-766 -913 0
-767 -914 0
-768 -915 0
-769 -907 0
-770 -908 0
-771 -909 0
-772 -868 0
-773 -869 0
-774 -870 0
-772 -862 0
-773 -863 0
-774 -864 0
-775 -790 0
-776 -791 0
-777 -792 0
-781 -928 0
-782 -929 0
-783 -930 0
-781 -853 0
-782 -854 0
-783 -855 0
-784 -898 0
-785 -899 0
-786 -900 0
-784 -856 0
-785 -857 0
-786 -858 0
-787 -820 0
-788 -821 0
-789 -822 0
-787 -796 0
-788 -797 0
-789 -798 0
-796 -958 0
-797 -959 0
-798 -960 0
-799 -925 0
-800 -926 0
-801 -927 0
-799 -823 0
-800 -824 0
-801 -825 0
-802 -916 0
-803 -917 0
-804 -918 0
-805 -850 0
-806 -851 0
-807 -852 0
-808 -814 0
-809 -815 0
-810 -816 0
-811 -970 0
-812 -971 0
-813 -972 0
-814 -817 0
-815 -818 0
-816 -819 0
-814 -877 0
-815 -878 0
-816 -879 0
-817 -967 0
-818 -968 0
-819 -969 0
-820 -832 0
-821 -833 0
-822 -834 0
-823 -904 0
-824 -905 0
-825 -906 0
-826 -829 0
-827 -830 0
-828 -831 0
-829 -853 0
-830 -854 0
-831 -855 0
-835 -892 0
-836 -893 0
-837 -894 0
-835 -871 0
-836 -872 0
-837 -873 0
-841 -949 0
-842 -950 0
-843 -951 0
-841 -886 0
-842 -887 0
-843 -888 0
-844 -889 0
-845 -890 0
-846 -891 0
-847 -883 0
-848 -884 0
-849 -885 0
-847 -967 0
-848 -968 0
-849 -969 0
-850 -958 0
-851 -959 0
-852 -960 0
-853 -859 0
-854 -860 0
-855 -861 0
-856 -883 0
-857 -884 0
-858 -885 0
-859 -895 0
-860 -896 0
-861 -897 0
-871 -979 0
-872 -980 0
-873 -981 0
-874 -889 0
-875 -890 0
-876 -891 0
-877 -967 0
-878 -968 0
-879 -969 0
-880 -886 0
-881 -887 0
-882 -888 0
-883 -946 0
-884 -947 0
-885 -948 0
-883 -940 0
-884 -941 0
-885 -942 0
-883 -943 0
-884 -944 0
-885 -945 0
-883 -898 0
-884 -899 0
-885 -900 0
-892 -979 0
-893 -980 0
-894 -981 0
-898 -919 0
-899 -920 0
-900 -921 0
-901 -964 0
-902 -965 0
-903 -966 0
-901 -985 0
-902 -986 0
-903 -987 0
-904 -925 0
-905 -926 0
-906 -927 0
-907 -922 0
-908 -923 0
-909 -924 0
-910 -937 0
-911 -938 0
-912 -939 0
-913 -955 0
-914 -956 0
-915 -957 0
-916 -922 0
-917 -923 0
-918 -924 0
-925 -931 0
-926 -932 0
-927 -933 0
-928 -979 0
-929 -980 0
-930 -981 0
-934 -952 0
-935 -953 0
-936 -954 0
-940 -967 0
-941 -968 0
-942 -969 0
-943 -964 0
-944 -965 0
-945 -966 0
-946 -961 0
-947 -962 0
-948 -963 0
-958 -985 0
-959 -986 0
-960 -987 0
-964 -973 0
-965 -974 0
-966 -975 0
-970 -991 0
-971 -992 0
-972 -993 0
1 0
497 0
