p cnf 2109 6000
1 2 3 0
4 5 6 0
7 8 9 0
10 11 12 0
13 14 15 0
16 17 18 0
19 20 21 0
22 23 24 0
25 26 27 0
28 29 30 0
31 32 33 0
34 35 36 0
37 38 39 0
40 41 42 0
43 44 45 0
46 47 48 0
49 50 51 0
52 53 54 0
55 56 57 0
58 59 60 0
61 62 63 0
64 65 66 0
67 68 69 0
70 71 72 0
73 74 75 0
76 77 78 0
79 80 81 0
82 83 84 0
85 86 87 0
88 89 90 0
91 92 93 0
94 95 96 0
97 98 99 0
100 101 102 0
103 104 105 0
106 107 108 0
109 110 111 0
112 113 114 0
115 116 117 0
118 119 120 0
121 122 123 0
124 125 126 0
127 128 129 0
130 131 132 0
133 134 135 0
136 137 138 0
139 140 141 0
142 143 144 0
145 146 147 0
148 149 150 0
151 152 153 0
154 155 156 0
157 158 159 0
160 161 162 0
163 164 165 0
166 167 168 0
169 170 171 0
172 173 174 0
175 176 177 0
178 179 180 0
181 182 183 0
184 185 186 0
187 188 189 0
190 191 192 0
193 194 195 0
196 197 198 0
199 200 201 0
202 203 204 0
205 206 207 0
208 209 210 0
211 212 213 0
214 215 216 0
217 218 219 0
220 221 222 0
223 224 225 0
226 227 228 0
229 230 231 0
232 233 234 0
235 236 237 0
238 239 240 0
241 242 243 0
244 245 246 0
247 248 249 0
250 251 252 0
253 254 255 0
256 257 258 0
259 260 261 0
262 263 264 0
265 266 267 0
268 269 270 0
271 272 273 0
274 275 276 0
277 278 279 0
280 281 282 0
283 284 285 0
286 287 288 0
289 290 291 0
292 293 294 0
295 296 297 0
298 299 300 0
301 302 303 0
304 305 306 0
307 308 309 0
310 311 312 0
313 314 315 0
316 317 318 0
319 320 321 0
322 323 324 0
325 326 327 0
328 329 330 0
331 332 333 0
334 335 336 0
337 338 339 0
340 341 342 0
343 344 345 0
346 347 348 0
349 350 351 0
352 353 354 0
355 356 357 0
358 359 360 0
361 362 363 0
364 365 366 0
367 368 369 0
370 371 372 0
373 374 375 0
376 377 378 0
379 380 381 0
382 383 384 0
385 386 387 0
388 389 390 0
391 392 393 0
394 395 396 0
397 398 399 0
400 401 402 0
403 404 405 0
406 407 408 0
409 410 411 0
412 413 414 0
415 416 417 0
418 419 420 0
421 422 423 0
424 425 426 0
427 428 429 0
430 431 432 0
433 434 435 0
436 437 438 0
439 440 441 0
442 443 444 0
445 446 447 0
448 449 450 0
451 452 453 0
454 455 456 0
457 458 459 0
460 461 462 0
463 464 465 0
466 467 468 0
469 470 471 0
472 473 474 0
475 476 477 0
478 479 480 0
481 482 483 0
484 485 486 0
487 488 489 0
490 491 492 0
493 494 495 0
496 497 498 0
499 500 501 0
502 503 504 0
505 506 507 0
508 509 510 0
511 512 513 0
514 515 516 0
517 518 519 0
520 521 522 0
523 524 525 0
526 527 528 0
529 530 531 0
532 533 534 0
535 536 537 0
538 539 540 0
541 542 543 0
544 545 546 0
547 548 549 0
550 551 552 0
553 554 555 0
556 557 558 0
559 560 561 0
562 563 564 0
565 566 567 0
568 569 570 0
571 572 573 0
574 575 576 0
577 578 579 0
580 581 582 0
583 584 585 0
586 587 588 0
589 590 591 0
592 593 594 0
595 596 597 0
598 599 600 0
601 602 603 0
604 605 606 0
607 608 609 0
610 611 612 0
613 614 615 0
616 617 618 0
619 620 621 0
622 623 624 0
625 626 627 0
628 629 630 0
631 632 633 0
634 635 636 0
637 638 639 0
640 641 642 0
643 644 645 0
646 647 648 0
649 650 651 0
652 653 654 0
655 656 657 0
658 659 660 0
661 662 663 0
664 665 666 0
667 668 669 0
670 671 672 0
673 674 675 0
676 677 678 0
679 680 681 0
682 683 684 0
685 686 687 0
688 689 690 0
691 692 693 0
694 695 696 0
697 698 699 0
700 701 702 0
703 704 705 0
706 707 708 0
709 710 711 0
712 713 714 0
715 716 717 0
718 719 720 0
721 722 723 0
724 725 726 0
727 728 729 0
730 731 732 0
733 734 735 0
736 737 738 0
739 740 741 0
742 743 744 0
745 746 747 0
748 749 750 0
751 752 753 0
754 755 756 0
757 758 759 0
760 761 762 0
763 764 765 0
766 767 768 0
769 770 771 0
772 773 774 0
775 776 777 0
778 779 780 0
781 782 783 0
784 785 786 0
787 788 789 0
790 791 792 0
793 794 795 0
796 797 798 0
799 800 801 0
802 803 804 0
805 806 807 0
808 809 810 0
811 812 813 0
814 815 816 0
817 818 819 0
820 821 822 0
823 824 825 0
826 827 828 0
829 830 831 0
832 833 834 0
835 836 837 0
838 839 840 0
841 842 843 0
844 845 846 0
847 848 849 0
850 851 852 0
853 854 855 0
856 857 858 0
859 860 861 0
862 863 864 0
865 866 867 0
868 869 870 0
871 872 873 0
874 875 876 0
877 878 879 0
880 881 882 0
883 884 885 0
886 887 888 0
889 890 891 0
892 893 894 0
895 896 897 0
898 899 900 0
901 902 903 0
904 905 906 0
907 908 909 0
910 911 912 0
913 914 915 0
916 917 918 0
919 920 921 0
922 923 924 0
925 926 927 0
928 929 930 0
931 932 933 0
934 935 936 0
937 938 939 0
940 941 942 0
943 944 945 0
946 947 948 0
949 950 951 0
952 953 954 0
955 956 957 0
958 959 960 0
961 962 963 0
964 965 966 0
967 968 969 0
970 971 972 0
973 974 975 0
976 977 978 0
979 980 981 0
982 983 984 0
985 986 987 0
988 989 990 0
991 992 993 0
994 995 996 0
997 998 999 0
1000 1001 1002 0
1003 1004 1005 0
1006 1007 1008 0
1009 1010 1011 0
1012 1013 1014 0
1015 1016 1017 0
1018 1019 1020 0
1021 1022 1023 0
1024 1025 1026 0
1027 1028 1029 0
1030 1031 1032 0
1033 1034 1035 0
1036 1037 1038 0
1039 1040 1041 0
1042 1043 1044 0
1045 1046 1047 0
1048 1049 1050 0
1051 1052 1053 0
1054 1055 1056 0
1057 1058 1059 0
1060 1061 1062 0
1063 1064 1065 0
1066 1067 1068 0
1069 1070 1071 0
1072 1073 1074 0
1075 1076 1077 0
1078 1079 1080 0
1081 1082 1083 0
1084 1085 1086 0
1087 1088 1089 0
1090 1091 1092 0
1093 1094 1095 0
1096 1097 1098 0
1099 1100 1101 0
1102 1103 1104 0
1105 1106 1107 0
1108 1109 1110 0
1111 1112 1113 0
1114 1115 1116 0
1117 1118 1119 0
1120 1121 1122 0
1123 1124 1125 0
1126 1127 1128 0
1129 1130 1131 0
1132 1133 1134 0
1135 1136 1137 0
1138 1139 1140 0
1141 1142 1143 0
1144 1145 1146 0
1147 1148 1149 0
1150 1151 1152 0
1153 1154 1155 0
1156 1157 1158 0
1159 1160 1161 0
1162 1163 1164 0
1165 1166 1167 0
1168 1169 1170 0
1171 1172 1173 0
1174 1175 1176 0
1177 1178 1179 0
1180 1181 1182 0
1183 1184 1185 0
1186 1187 1188 0
1189 1190 1191 0
1192 1193 1194 0
1195 1196 1197 0
1198 1199 1200 0
1201 1202 1203 0
1204 1205 1206 0
1207 1208 1209 0
1210 1211 1212 0
1213 1214 1215 0
1216 1217 1218 0
1219 1220 1221 0
1222 1223 1224 0
1225 1226 1227 0
1228 1229 1230 0
1231 1232 1233 0
1234 1235 1236 0
1237 1238 1239 0
1240 1241 1242 0
1243 1244 1245 0
1246 1247 1248 0
1249 1250 1251 0
1252 1253 1254 0
1255 1256 1257 0
1258 1259 1260 0
1261 1262 1263 0
1264 1265 1266 0
1267 1268 1269 0
1270 1271 1272 0
1273 1274 1275 0
1276 1277 1278 0
1279 1280 1281 0
1282 1283 1284 0
1285 1286 1287 0
1288 1289 1290 0
1291 1292 1293 0
1294 1295 1296 0
1297 1298 1299 0
1300 1301 1302 0
1303 1304 1305 0
1306 1307 1308 0
1309 1310 1311 0
1312 1313 1314 0
1315 1316 1317 0
1318 1319 1320 0
1321 1322 1323 0
1324 1325 1326 0
1327 1328 1329 0
1330 1331 1332 0
1333 1334 1335 0
1336 1337 1338 0
1339 1340 1341 0
1342 1343 1344 0
1345 1346 1347 0
1348 1349 1350 0
1351 1352 1353 0
1354 1355 1356 0
1357 1358 1359 0
1360 1361 1362 0
1363 1364 1365 0
1366 1367 1368 0
1369 1370 1371 0
1372 1373 1374 0
1375 1376 1377 0
1378 1379 1380 0
1381 1382 1383 0
1384 1385 1386 0
1387 1388 1389 0
1390 1391 1392 0
1393 1394 1395 0
1396 1397 1398 0
1399 1400 1401 0
1402 1403 1404 0
1405 1406 1407 0
1408 1409 1410 0
1411 1412 1413 0
1414 1415 1416 0
1417 1418 1419 0
1420 1421 1422 0
1423 1424 1425 0
1426 1427 1428 0
1429 1430 1431 0
1432 1433 1434 0
1435 1436 1437 0
1438 1439 1440 0
1441 1442 1443 0
1444 1445 1446 0
1447 1448 1449 0
1450 1451 1452 0
1453 1454 1455 0
1456 1457 1458 0
1459 1460 1461 0
1462 1463 1464 0
1465 1466 1467 0
1468 1469 1470 0
1471 1472 1473 0
1474 1475 1476 0
1477 1478 1479 0
1480 1481 1482 0
1483 1484 1485 0
1486 1487 1488 0
1489 1490 1491 0
1492 1493 1494 0
1495 1496 1497 0
1498 1499 1500 0
1501 1502 1503 0
1504 1505 1506 0
1507 1508 1509 0
1510 1511 1512 0
1513 1514 1515 0
1516 1517 1518 0
1519 1520 1521 0
1522 1523 1524 0
1525 1526 1527 0
1528 1529 1530 0
1531 1532 1533 0
1534 1535 1536 0
1537 1538 1539 0
1540 1541 1542 0
1543 1544 1545 0
1546 1547 1548 0
1549 1550 1551 0
1552 1553 1554 0
1555 1556 1557 0
1558 1559 1560 0
1561 1562 1563 0
1564 1565 1566 0
1567 1568 1569 0
1570 1571 1572 0
1573 1574 1575 0
1576 1577 1578 0
1579 1580 1581 0
1582 1583 1584 0
1585 1586 1587 0
1588 1589 1590 0
1591 1592 1593 0
1594 1595 1596 0
1597 1598 1599 0
1600 1601 1602 0
1603 1604 1605 0
1606 1607 1608 0
1609 1610 1611 0
1612 1613 1614 0
1615 1616 1617 0
1618 1619 1620 0
1621 1622 1623 0
1624 1625 1626 0
1627 1628 1629 0
1630 1631 1632 0
1633 1634 1635 0
1636 1637 1638 0
1639 1640 1641 0
1642 1643 1644 0
1645 1646 1647 0
1648 1649 1650 0
1651 1652 1653 0
1654 1655 1656 0
1657 1658 1659 0
1660 1661 1662 0
1663 1664 1665 0
1666 1667 1668 0
1669 1670 1671 0
1672 1673 1674 0
1675 1676 1677 0
1678 1679 1680 0
1681 1682 1683 0
1684 1685 1686 0
1687 1688 1689 0
1690 1691 1692 0
1693 1694 1695 0
1696 1697 1698 0
1699 1700 1701 0
1702 1703 1704 0
1705 1706 1707 0
1708 1709 1710 0
1711 1712 1713 0
1714 1715 1716 0
1717 1718 1719 0
1720 1721 1722 0
1723 1724 1725 0
1726 1727 1728 0
1729 1730 1731 0
1732 1733 1734 0
1735 1736 1737 0
1738 1739 1740 0
1741 1742 1743 0
1744 1745 1746 0
1747 1748 1749 0
1750 1751 1752 0
1753 1754 1755 0
1756 1757 1758 0
1759 1760 1761 0
1762 1763 1764 0
1765 1766 1767 0
1768 1769 1770 0
1771 1772 1773 0
1774 1775 1776 0
1777 1778 1779 0
1780 1781 1782 0
1783 1784 1785 0
1786 1787 1788 0
1789 1790 1791 0
1792 1793 1794 0
1795 1796 1797 0
1798 1799 1800 0
1801 1802 1803 0
1804 1805 1806 0
1807 1808 1809 0
1810 1811 1812 0
1813 1814 1815 0
1816 1817 1818 0
1819 1820 1821 0
1822 1823 1824 0
1825 1826 1827 0
1828 1829 1830 0
1831 1832 1833 0
1834 1835 1836 0
1837 1838 1839 0
1840 1841 1842 0
1843 1844 1845 0
1846 1847 1848 0
1849 1850 1851 0
1852 1853 1854 0
1855 1856 1857 0
1858 1859 1860 0
1861 1862 1863 0
1864 1865 1866 0
1867 1868 1869 0
1870 1871 1872 0
1873 1874 1875 0
1876 1877 1878 0
1879 1880 1881 0
1882 1883 1884 0
1885 1886 1887 0
1888 1889 1890 0
1891 1892 1893 0
1894 1895 1896 0
1897 1898 1899 0
1900 1901 1902 0
1903 1904 1905 0
1906 1907 1908 0
1909 1910 1911 0
1912 1913 1914 0
1915 1916 1917 0
1918 1919 1920 0
1921 1922 1923 0
1924 1925 1926 0
1927 1928 1929 0
1930 1931 1932 0
1933 1934 1935 0
1936 1937 1938 0
1939 1940 1941 0
1942 1943 1944 0
1945 1946 1947 0
1948 1949 1950 0
1951 1952 1953 0
1954 1955 1956 0
1957 1958 1959 0
1960 1961 1962 0
1963 1964 1965 0
1966 1967 1968 0
1969 1970 1971 0
1972 1973 1974 0
1975 1976 1977 0
1978 1979 1980 0
1981 1982 1983 0
1984 1985 1986 0
1987 1988 1989 0
1990 1991 1992 0
1993 1994 1995 0
1996 1997 1998 0
1999 2000 2001 0
2002 2003 2004 0
2005 2006 2007 0
2008 2009 2010 0
2011 2012 2013 0
2014 2015 2016 0
2017 2018 2019 0
2020 2021 2022 0
2023 2024 2025 0
2026 2027 2028 0
2029 2030 2031 0
2032 2033 2034 0
2035 2036 2037 0
2038 2039 2040 0
2041 2042 2043 0
2044 2045 2046 0
2047 2048 2049 0
2050 2051 2052 0
2053 2054 2055 0
2056 2057 2058 0
2059 2060 2061 0
2062 2063 2064 0
2065 2066 2067 0
2068 2069 2070 0
2071 2072 2073 0
2074 2075 2076 0
2077 2078 2079 0
2080 2081 2082 0
2083 2084 2085 0
2086 2087 2088 0
2089 2090 2091 0
2092 2093 2094 0
2095 2096 2097 0
2098 2099 2100 0
2101 2102 2103 0
2104 2105 2106 0
2107 2108 2109 0
-1 -1090 0
-2 -1091 0
-3 -1092 0
-1 -1750 0
-2 -1751 0
-3 -1752 0
-1 -2092 0
-2 -2093 0
-3 -2094 0
-1 -238 0
-2 -239 0
-3 -240 0
-1 -34 0
-2 -35 0
-3 -36 0
-4 -76 0
-5 -77 0
-6 -78 0
-4 -1840 0
-5 -1841 0
-6 -1842 0
-4 -1609 0
-5 -1610 0
-6 -1611 0
-4 -1612 0
-5 -1613 0
-6 -1614 0
-4 -166 0
-5 -167 0
-6 -168 0
-4 -1780 0
-5 -1781 0
-6 -1782 0
-7 -1093 0
-8 -1094 0
-9 -1095 0
-7 -61 0
-8 -62 0
-9 -63 0
-7 -1849 0
-8 -1850 0
-9 -1851 0
-7 -229 0
-8 -230 0
-9 -231 0
-7 -1741 0
-8 -1742 0
-9 -1743 0
-10 -1066 0
-11 -1067 0
-12 -1068 0
-10 -1309 0
-11 -1310 0
-12 -1311 0
-10 -127 0
-11 -128 0
-12 -129 0
-10 -1537 0
-11 -1538 0
-12 -1539 0
-10 -133 0
-11 -134 0
-12 -135 0
-10 -1774 0
-11 -1775 0
-12 -1776 0
-10 -1891 0
-11 -1892 0
-12 -1893 0
-10 -1069 0
-11 -1070 0
-12 -1071 0
-10 -1081 0
-11 -1082 0
-12 -1083 0
-13 -70 0
-14 -71 0
-15 -72 0
-13 -229 0
-14 -230 0
-15 -231 0
-13 -2008 0
-14 -2009 0
-15 -2010 0
-16 -70 0
-17 -71 0
-18 -72 0
-16 -259 0
-17 -260 0
-18 -261 0
-16 -1084 0
-17 -1085 0
-18 -1086 0
-16 -1741 0
-17 -1742 0
-18 -1743 0
-19 -70 0
-20 -71 0
-21 -72 0
-19 -1078 0
-20 -1079 0
-21 -1080 0
-19 -1624 0
-20 -1625 0
-21 -1626 0
-19 -406 0
-20 -407 0
-21 -408 0
-22 -1747 0
-23 -1748 0
-24 -1749 0
-22 -412 0
-23 -413 0
-24 -414 0
-22 -1744 0
-23 -1745 0
-24 -1746 0
-22 -67 0
-23 -68 0
-24 -69 0
-25 -1090 0
-26 -1091 0
-27 -1092 0
-25 -43 0
-26 -44 0
-27 -45 0
-25 -496 0
-26 -497 0
-27 -498 0
-25 -1303 0
-26 -1304 0
-27 -1305 0
-28 -376 0
-29 -377 0
-30 -378 0
-28 -1672 0
-29 -1673 0
-30 -1674 0
-28 -76 0
-29 -77 0
-30 -78 0
-28 -2053 0
-29 -2054 0
-30 -2055 0
-28 -1795 0
-29 -1796 0
-30 -1797 0
-31 -1219 0
-32 -1220 0
-33 -1221 0
-31 -1402 0
-32 -1403 0
-33 -1404 0
-31 -1993 0
-32 -1994 0
-33 -1995 0
-31 -577 0
-32 -578 0
-33 -579 0
-31 -1297 0
-32 -1298 0
-33 -1299 0
-31 -34 0
-32 -35 0
-33 -36 0
-34 -472 0
-35 -473 0
-36 -474 0
-34 -580 0
-35 -581 0
-36 -582 0
-34 -511 0
-35 -512 0
-36 -513 0
-34 -514 0
-35 -515 0
-36 -516 0
-34 -121 0
-35 -122 0
-36 -123 0
-34 -37 0
-35 -38 0
-36 -39 0
-34 -73 0
-35 -74 0
-36 -75 0
-34 -178 0
-35 -179 0
-36 -180 0
-34 -181 0
-35 -182 0
-36 -183 0
-34 -388 0
-35 -389 0
-36 -390 0
-34 -304 0
-35 -305 0
-36 -306 0
-34 -226 0
-35 -227 0
-36 -228 0
-34 -82 0
-35 -83 0
-36 -84 0
-34 -85 0
-35 -86 0
-36 -87 0
-37 -1843 0
-38 -1844 0
-39 -1845 0
-37 -1723 0
-38 -1724 0
-39 -1725 0
-37 -1759 0
-38 -1760 0
-39 -1761 0
-37 -1648 0
-38 -1649 0
-39 -1650 0
-37 -583 0
-38 -584 0
-39 -585 0
-37 -2044 0
-38 -2045 0
-39 -2046 0
-37 -1546 0
-38 -1547 0
-39 -1548 0
-37 -1171 0
-38 -1172 0
-39 -1173 0
-40 -1339 0
-41 -1340 0
-42 -1341 0
-40 -229 0
-41 -230 0
-42 -231 0
-40 -205 0
-41 -206 0
-42 -207 0
-40 -1354 0
-41 -1355 0
-42 -1356 0
-43 -49 0
-44 -50 0
-45 -51 0
-43 -580 0
-44 -581 0
-45 -582 0
-43 -265 0
-44 -266 0
-45 -267 0
-43 -244 0
-44 -245 0
-45 -246 0
-43 -247 0
-44 -248 0
-45 -249 0
-43 -271 0
-44 -272 0
-45 -273 0
-46 -637 0
-47 -638 0
-48 -639 0
-46 -580 0
-47 -581 0
-48 -582 0
-46 -340 0
-47 -341 0
-48 -342 0
-46 -355 0
-47 -356 0
-48 -357 0
-49 -1669 0
-50 -1670 0
-51 -1671 0
-49 -2071 0
-50 -2072 0
-51 -2073 0
-49 -1915 0
-50 -1916 0
-51 -1917 0
-49 -583 0
-50 -584 0
-51 -585 0
-52 -1642 0
-53 -1643 0
-54 -1644 0
-52 -130 0
-53 -131 0
-54 -132 0
-52 -1177 0
-53 -1178 0
-54 -1179 0
-52 -367 0
-53 -368 0
-54 -369 0
-55 -1066 0
-56 -1067 0
-57 -1068 0
-55 -1072 0
-56 -1073 0
-57 -1074 0
-55 -1984 0
-56 -1985 0
-57 -1986 0
-55 -133 0
-56 -134 0
-57 -135 0
-55 -367 0
-56 -368 0
-57 -369 0
-58 -373 0
-59 -374 0
-60 -375 0
-58 -130 0
-59 -131 0
-60 -132 0
-58 -1621 0
-59 -1622 0
-60 -1623 0
-58 -1078 0
-59 -1079 0
-60 -1080 0
-61 -151 0
-62 -152 0
-63 -153 0
-61 -154 0
-62 -155 0
-63 -156 0
-61 -580 0
-62 -581 0
-63 -582 0
-61 -664 0
-62 -665 0
-63 -666 0
-61 -535 0
-62 -536 0
-63 -537 0
-61 -268 0
-62 -269 0
-63 -270 0
-64 -2050 0
-65 -2051 0
-66 -2052 0
-64 -1420 0
-65 -1421 0
-66 -1422 0
-64 -328 0
-65 -329 0
-66 -330 0
-67 -109 0
-68 -110 0
-69 -111 0
-67 -580 0
-68 -581 0
-69 -582 0
-67 -172 0
-68 -173 0
-69 -174 0
-67 -298 0
-68 -299 0
-69 -300 0
-67 -616 0
-68 -617 0
-69 -618 0
-70 -112 0
-71 -113 0
-72 -114 0
-70 -580 0
-71 -581 0
-72 -582 0
-70 -118 0
-71 -119 0
-72 -120 0
-70 -211 0
-71 -212 0
-72 -213 0
-70 -301 0
-71 -302 0
-72 -303 0
-73 -694 0
-74 -695 0
-75 -696 0
-73 -2020 0
-74 -2021 0
-75 -2022 0
-73 -1306 0
-74 -1307 0
-75 -1308 0
-73 -1432 0
-74 -1433 0
-75 -1434 0
-73 -1300 0
-74 -1301 0
-75 -1302 0
-73 -1171 0
-74 -1172 0
-75 -1173 0
-76 -148 0
-77 -149 0
-78 -150 0
-76 -277 0
-77 -278 0
-78 -279 0
-76 -580 0
-77 -581 0
-78 -582 0
-76 -88 0
-77 -89 0
-78 -90 0
-76 -478 0
-77 -479 0
-78 -480 0
-76 -481 0
-77 -482 0
-78 -483 0
-76 -445 0
-77 -446 0
-78 -447 0
-76 -721 0
-77 -722 0
-78 -723 0
-76 -352 0
-77 -353 0
-78 -354 0
-76 -79 0
-77 -80 0
-78 -81 0
-76 -331 0
-77 -332 0
-78 -333 0
-79 -2038 0
-80 -2039 0
-81 -2040 0
-79 -583 0
-80 -584 0
-81 -585 0
-79 -1165 0
-80 -1166 0
-81 -1167 0
-82 -1723 0
-83 -1724 0
-84 -1725 0
-82 -739 0
-83 -740 0
-84 -741 0
-82 -1792 0
-83 -1793 0
-84 -1794 0
-82 -1459 0
-83 -1460 0
-84 -1461 0
-82 -1666 0
-83 -1667 0
-84 -1668 0
-85 -1120 0
-86 -1121 0
-87 -1122 0
-85 -1216 0
-86 -1217 0
-87 -1218 0
-88 -589 0
-89 -590 0
-90 -591 0
-88 -1426 0
-89 -1427 0
-90 -1428 0
-88 -1207 0
-89 -1208 0
-90 -1209 0
-91 -1327 0
-92 -1328 0
-93 -1329 0
-91 -1861 0
-92 -1862 0
-93 -1863 0
-91 -1423 0
-92 -1424 0
-93 -1425 0
-91 -217 0
-92 -218 0
-93 -219 0
-91 -1759 0
-92 -1760 0
-93 -1761 0
-91 -379 0
-92 -380 0
-93 -381 0
-91 -1663 0
-92 -1664 0
-93 -1665 0
-91 -1777 0
-92 -1778 0
-93 -1779 0
-94 -1723 0
-95 -1724 0
-96 -1725 0
-94 -382 0
-95 -383 0
-96 -384 0
-94 -1714 0
-95 -1715 0
-96 -1716 0
-97 -1933 0
-98 -1934 0
-99 -1935 0
-97 -2041 0
-98 -2042 0
-99 -2043 0
-97 -328 0
-98 -329 0
-99 -330 0
-100 -415 0
-101 -416 0
-102 -417 0
-100 -1981 0
-101 -1982 0
-102 -1983 0
-100 -217 0
-101 -218 0
-102 -219 0
-100 -1408 0
-101 -1409 0
-102 -1410 0
-100 -1663 0
-101 -1664 0
-102 -1665 0
-100 -1624 0
-101 -1625 0
-102 -1626 0
-103 -376 0
-104 -377 0
-105 -378 0
-103 -1537 0
-104 -1538 0
-105 -1539 0
-103 -2014 0
-104 -2015 0
-105 -2016 0
-103 -238 0
-104 -239 0
-105 -240 0
-106 -1627 0
-107 -1628 0
-108 -1629 0
-106 -1981 0
-107 -1982 0
-108 -1983 0
-106 -217 0
-107 -218 0
-108 -219 0
-106 -430 0
-107 -431 0
-108 -432 0
-109 -2095 0
-110 -2096 0
-111 -2097 0
-109 -1744 0
-110 -1745 0
-111 -1746 0
-109 -676 0
-110 -677 0
-111 -678 0
-112 -1465 0
-113 -1466 0
-114 -1467 0
-112 -1075 0
-113 -1076 0
-114 -1077 0
-112 -1894 0
-113 -1895 0
-114 -1896 0
-112 -1105 0
-113 -1106 0
-114 -1107 0
-112 -673 0
-113 -674 0
-114 -675 0
-112 -1741 0
-113 -1742 0
-114 -1743 0
-115 -1468 0
-116 -1469 0
-117 -1470 0
-115 -286 0
-116 -287 0
-117 -288 0
-115 -1075 0
-116 -1076 0
-117 -1077 0
-115 -325 0
-116 -326 0
-117 -327 0
-118 -1465 0
-119 -1466 0
-120 -1467 0
-118 -682 0
-119 -683 0
-120 -684 0
-118 -1480 0
-119 -1481 0
-120 -1482 0
-118 -1693 0
-119 -1694 0
-120 -1695 0
-118 -1078 0
-119 -1079 0
-120 -1080 0
-118 -2047 0
-119 -2048 0
-120 -2049 0
-121 -775 0
-122 -776 0
-123 -777 0
-121 -1543 0
-122 -1544 0
-123 -1545 0
-124 -1642 0
-125 -1643 0
-126 -1644 0
-124 -130 0
-125 -131 0
-126 -132 0
-124 -1078 0
-125 -1079 0
-126 -1080 0
-127 -550 0
-128 -551 0
-129 -552 0
-127 -256 0
-128 -257 0
-129 -258 0
-127 -580 0
-128 -581 0
-129 -582 0
-127 -235 0
-128 -236 0
-129 -237 0
-127 -421 0
-128 -422 0
-129 -423 0
-130 -580 0
-131 -581 0
-132 -582 0
-133 -580 0
-134 -581 0
-135 -582 0
-133 -802 0
-134 -803 0
-135 -804 0
-133 -442 0
-134 -443 0
-135 -444 0
-133 -136 0
-134 -137 0
-135 -138 0
-136 -1522 0
-137 -1523 0
-138 -1524 0
-136 -2068 0
-137 -2069 0
-138 -2070 0
-136 -1984 0
-137 -1985 0
-138 -1986 0
-136 -583 0
-137 -584 0
-138 -585 0
-136 -1774 0
-137 -1775 0
-138 -1776 0
-139 -2011 0
-140 -2012 0
-141 -2013 0
-139 -262 0
-140 -263 0
-141 -264 0
-139 -1987 0
-140 -1988 0
-141 -1989 0
-139 -367 0
-140 -368 0
-141 -369 0
-142 -376 0
-143 -377 0
-144 -378 0
-142 -1567 0
-143 -1568 0
-144 -1569 0
-142 -1945 0
-143 -1946 0
-144 -1947 0
-142 -1093 0
-143 -1094 0
-144 -1095 0
-142 -259 0
-143 -260 0
-144 -261 0
-142 -1132 0
-143 -1133 0
-144 -1134 0
-145 -1585 0
-146 -1586 0
-147 -1587 0
-145 -205 0
-146 -206 0
-147 -207 0
-145 -460 0
-146 -461 0
-147 -462 0
-145 -1354 0
-146 -1355 0
-147 -1356 0
-148 -670 0
-149 -671 0
-150 -672 0
-148 -1207 0
-149 -1208 0
-150 -1209 0
-148 -1363 0
-149 -1364 0
-150 -1365 0
-151 -1066 0
-152 -1067 0
-153 -1068 0
-151 -739 0
-152 -740 0
-153 -741 0
-151 -1084 0
-152 -1085 0
-153 -1086 0
-151 -1891 0
-152 -1892 0
-153 -1893 0
-151 -1561 0
-152 -1562 0
-153 -1563 0
-151 -1741 0
-152 -1742 0
-153 -1743 0
-154 -2104 0
-155 -2105 0
-156 -2106 0
-154 -1891 0
-155 -1892 0
-156 -1893 0
-154 -745 0
-155 -746 0
-156 -747 0
-157 -1939 0
-158 -1940 0
-159 -1941 0
-157 -1858 0
-158 -1859 0
-159 -1860 0
-157 -1117 0
-158 -1118 0
-159 -1119 0
-157 -214 0
-158 -215 0
-159 -216 0
-157 -454 0
-158 -455 0
-159 -456 0
-160 -1120 0
-161 -1121 0
-162 -1122 0
-160 -1747 0
-161 -1748 0
-162 -1749 0
-160 -1357 0
-161 -1358 0
-162 -1359 0
-160 -460 0
-161 -461 0
-162 -462 0
-163 -1840 0
-164 -1841 0
-165 -1842 0
-163 -577 0
-164 -578 0
-165 -579 0
-163 -1342 0
-164 -1343 0
-165 -1344 0
-163 -166 0
-164 -167 0
-165 -168 0
-163 -1240 0
-164 -1241 0
-165 -1242 0
-163 -1996 0
-164 -1997 0
-165 -1998 0
-166 -580 0
-167 -581 0
-168 -582 0
-166 -751 0
-167 -752 0
-168 -753 0
-166 -601 0
-167 -602 0
-168 -603 0
-166 -685 0
-167 -686 0
-168 -687 0
-169 -2011 0
-170 -2012 0
-171 -2013 0
-169 -262 0
-170 -263 0
-171 -264 0
-169 -1990 0
-170 -1991 0
-171 -1992 0
-169 -412 0
-170 -413 0
-171 -414 0
-169 -1456 0
-170 -1457 0
-171 -1458 0
-172 -1528 0
-173 -1529 0
-174 -1530 0
-172 -1570 0
-173 -1571 0
-174 -1572 0
-172 -709 0
-173 -710 0
-174 -711 0
-175 -280 0
-176 -281 0
-177 -282 0
-175 -1201 0
-176 -1202 0
-177 -1203 0
-175 -1288 0
-176 -1289 0
-177 -1290 0
-175 -1486 0
-176 -1487 0
-177 -1488 0
-175 -1192 0
-176 -1193 0
-177 -1194 0
-175 -1069 0
-176 -1070 0
-177 -1071 0
-175 -367 0
-176 -368 0
-177 -369 0
-175 -1081 0
-176 -1082 0
-177 -1083 0
-178 -1843 0
-179 -1844 0
-180 -1845 0
-178 -1306 0
-179 -1307 0
-180 -1308 0
-178 -823 0
-179 -824 0
-180 -825 0
-178 -1414 0
-179 -1415 0
-180 -1416 0
-178 -1294 0
-179 -1295 0
-180 -1296 0
-181 -2107 0
-182 -2108 0
-183 -2109 0
-181 -1297 0
-182 -1298 0
-183 -1299 0
-181 -832 0
-182 -833 0
-183 -834 0
-184 -1681 0
-185 -1682 0
-186 -1683 0
-184 -259 0
-185 -260 0
-186 -261 0
-184 -1609 0
-185 -1610 0
-186 -1611 0
-184 -424 0
-185 -425 0
-186 -426 0
-187 -262 0
-188 -263 0
-189 -264 0
-187 -1612 0
-188 -1613 0
-189 -1614 0
-187 -1372 0
-188 -1373 0
-189 -1374 0
-190 -1075 0
-191 -1076 0
-192 -1077 0
-190 -1210 0
-191 -1211 0
-192 -1212 0
-190 -1105 0
-191 -1106 0
-192 -1107 0
-190 -325 0
-191 -326 0
-192 -327 0
-193 -373 0
-194 -374 0
-195 -375 0
-193 -2086 0
-194 -2087 0
-195 -2088 0
-193 -328 0
-194 -329 0
-195 -330 0
-193 -2074 0
-194 -2075 0
-195 -2076 0
-196 -262 0
-197 -263 0
-198 -264 0
-196 -451 0
-197 -452 0
-198 -453 0
-196 -1612 0
-197 -1613 0
-198 -1614 0
-196 -1987 0
-197 -1988 0
-198 -1989 0
-196 -1903 0
-197 -1904 0
-198 -1905 0
-199 -457 0
-200 -458 0
-201 -459 0
-199 -1567 0
-200 -1568 0
-201 -1569 0
-199 -1096 0
-200 -1097 0
-201 -1098 0
-199 -259 0
-200 -260 0
-201 -261 0
-199 -1609 0
-200 -1610 0
-201 -1611 0
-202 -217 0
-203 -218 0
-204 -219 0
-202 -1759 0
-203 -1760 0
-204 -1761 0
-202 -556 0
-203 -557 0
-204 -558 0
-202 -1825 0
-203 -1826 0
-204 -1827 0
-202 -2080 0
-203 -2081 0
-204 -2082 0
-205 -580 0
-206 -581 0
-207 -582 0
-205 -208 0
-206 -209 0
-207 -210 0
-205 -343 0
-206 -344 0
-207 -345 0
-205 -319 0
-206 -320 0
-207 -321 0
-205 -538 0
-206 -539 0
-207 -540 0
-205 -811 0
-206 -812 0
-207 -813 0
-205 -400 0
-206 -401 0
-207 -402 0
-208 -1114 0
-209 -1115 0
-210 -1116 0
-208 -583 0
-209 -584 0
-210 -585 0
-208 -1087 0
-209 -1088 0
-210 -1089 0
-211 -1930 0
-212 -1931 0
-213 -1932 0
-211 -775 0
-212 -776 0
-213 -777 0
-211 -1960 0
-212 -1961 0
-213 -1962 0
-214 -580 0
-215 -581 0
-216 -582 0
-214 -499 0
-215 -500 0
-216 -501 0
-214 -574 0
-215 -575 0
-216 -576 0
-217 -691 0
-218 -692 0
-219 -693 0
-217 -580 0
-218 -581 0
-219 -582 0
-217 -667 0
-218 -668 0
-219 -669 0
-217 -916 0
-218 -917 0
-219 -918 0
-217 -418 0
-218 -419 0
-219 -420 0
-217 -349 0
-218 -350 0
-219 -351 0
-217 -790 0
-218 -791 0
-219 -792 0
-220 -1108 0
-221 -1109 0
-222 -1110 0
-220 -424 0
-221 -425 0
-222 -426 0
-220 -1102 0
-221 -1103 0
-222 -1104 0
-223 -1573 0
-224 -1574 0
-225 -1575 0
-223 -286 0
-224 -287 0
-225 -288 0
-223 -496 0
-224 -497 0
-225 -498 0
-223 -1369 0
-224 -1370 0
-225 -1371 0
-226 -931 0
-227 -932 0
-228 -933 0
-226 -1534 0
-227 -1535 0
-228 -1536 0
-226 -1216 0
-227 -1217 0
-228 -1218 0
-229 -580 0
-230 -581 0
-231 -582 0
-229 -346 0
-230 -347 0
-231 -348 0
-229 -805 0
-230 -806 0
-231 -807 0
-232 -376 0
-233 -377 0
-234 -378 0
-232 -1471 0
-233 -1472 0
-234 -1473 0
-232 -1537 0
-233 -1538 0
-234 -1539 0
-232 -1540 0
-233 -1541 0
-234 -1542 0
-232 -1795 0
-233 -1796 0
-234 -1797 0
-232 -367 0
-233 -368 0
-234 -369 0
-232 -1081 0
-233 -1082 0
-234 -1083 0
-235 -703 0
-236 -704 0
-237 -705 0
-235 -2059 0
-236 -2060 0
-237 -2061 0
-235 -2077 0
-236 -2078 0
-237 -2079 0
-238 -580 0
-239 -581 0
-240 -582 0
-238 -241 0
-239 -242 0
-240 -243 0
-238 -613 0
-239 -614 0
-240 -615 0
-238 -856 0
-239 -857 0
-240 -858 0
-238 -706 0
-239 -707 0
-240 -708 0
-238 -886 0
-239 -887 0
-240 -888 0
-241 -1336 0
-242 -1337 0
-243 -1338 0
-241 -1732 0
-242 -1733 0
-243 -1734 0
-241 -583 0
-242 -584 0
-243 -585 0
-241 -1111 0
-242 -1112 0
-243 -1113 0
-241 -1615 0
-242 -1616 0
-243 -1617 0
-241 -1183 0
-242 -1184 0
-243 -1185 0
-241 -1165 0
-242 -1166 0
-243 -1167 0
-241 -1450 0
-242 -1451 0
-243 -1452 0
-241 -1558 0
-242 -1559 0
-243 -1560 0
-244 -1090 0
-245 -1091 0
-246 -1092 0
-244 -892 0
-245 -893 0
-246 -894 0
-244 -1162 0
-245 -1163 0
-246 -1164 0
-247 -1669 0
-248 -1670 0
-249 -1671 0
-247 -910 0
-248 -911 0
-249 -912 0
-247 -2041 0
-248 -2042 0
-249 -2043 0
-247 -2062 0
-248 -2063 0
-249 -2064 0
-250 -1525 0
-251 -1526 0
-252 -1527 0
-250 -1234 0
-251 -1235 0
-252 -1236 0
-250 -406 0
-251 -407 0
-252 -408 0
-250 -367 0
-251 -368 0
-252 -369 0
-253 -415 0
-254 -416 0
-255 -417 0
-253 -1801 0
-254 -1802 0
-255 -1803 0
-253 -379 0
-254 -380 0
-255 -381 0
-253 -1663 0
-254 -1664 0
-255 -1665 0
-256 -739 0
-257 -740 0
-258 -741 0
-256 -1318 0
-257 -1319 0
-258 -1320 0
-256 -1792 0
-257 -1793 0
-258 -1794 0
-256 -1069 0
-257 -1070 0
-258 -1071 0
-256 -2077 0
-257 -2078 0
-258 -2079 0
-259 -580 0
-260 -581 0
-261 -582 0
-259 -334 0
-260 -335 0
-261 -336 0
-262 -580 0
-263 -581 0
-264 -582 0
-265 -1483 0
-266 -1484 0
-267 -1485 0
-265 -922 0
-266 -923 0
-267 -924 0
-265 -2062 0
-266 -2063 0
-267 -2064 0
-265 -1489 0
-266 -1490 0
-267 -1491 0
-268 -910 0
-269 -911 0
-270 -912 0
-268 -2020 0
-269 -2021 0
-270 -2022 0
-268 -1531 0
-269 -1532 0
-270 -1533 0
-271 -931 0
-272 -932 0
-273 -933 0
-271 -2041 0
-272 -2042 0
-273 -2043 0
-271 -1900 0
-272 -1901 0
-273 -1902 0
-274 -415 0
-275 -416 0
-276 -417 0
-274 -1918 0
-275 -1919 0
-276 -1920 0
-274 -1981 0
-275 -1982 0
-276 -1983 0
-274 -430 0
-275 -431 0
-276 -432 0
-277 -1135 0
-278 -1136 0
-279 -1137 0
-277 -1651 0
-278 -1652 0
-279 -1653 0
-277 -832 0
-278 -833 0
-279 -834 0
-277 -1168 0
-278 -1169 0
-279 -1170 0
-280 -283 0
-281 -284 0
-282 -285 0
-280 -580 0
-281 -581 0
-282 -582 0
-280 -838 0
-281 -839 0
-282 -840 0
-283 -1201 0
-284 -1202 0
-285 -1203 0
-283 -583 0
-284 -584 0
-285 -585 0
-283 -1342 0
-284 -1343 0
-285 -1344 0
-286 -580 0
-287 -581 0
-288 -582 0
-286 -919 0
-287 -920 0
-288 -921 0
-289 -457 0
-290 -458 0
-291 -459 0
-289 -1072 0
-290 -1073 0
-291 -1074 0
-289 -1615 0
-290 -1616 0
-291 -1617 0
-289 -367 0
-290 -368 0
-291 -369 0
-292 -460 0
-293 -461 0
-294 -462 0
-292 -1873 0
-293 -1874 0
-294 -1875 0
-292 -1993 0
-293 -1994 0
-294 -1995 0
-292 -382 0
-293 -383 0
-294 -384 0
-295 -1798 0
-296 -1799 0
-297 -1800 0
-295 -379 0
-296 -380 0
-297 -381 0
-295 -1402 0
-296 -1403 0
-297 -1404 0
-295 -1429 0
-296 -1430 0
-297 -1431 0
-295 -466 0
-296 -467 0
-297 -468 0
-298 -1282 0
-299 -1283 0
-300 -1284 0
-298 -901 0
-299 -902 0
-300 -903 0
-298 -1813 0
-299 -1814 0
-300 -1815 0
-301 -910 0
-302 -911 0
-303 -912 0
-301 -1084 0
-302 -1085 0
-303 -1086 0
-304 -1120 0
-305 -1121 0
-306 -1122 0
-304 -1606 0
-305 -1607 0
-306 -1608 0
-307 -412 0
-308 -413 0
-309 -414 0
-307 -1990 0
-308 -1991 0
-309 -1992 0
-307 -460 0
-308 -461 0
-309 -462 0
-307 -1243 0
-308 -1244 0
-309 -1245 0
-310 -1381 0
-311 -1382 0
-312 -1383 0
-310 -1855 0
-311 -1856 0
-312 -1857 0
-310 -466 0
-311 -467 0
-312 -468 0
-310 -1783 0
-311 -1784 0
-312 -1785 0
-310 -406 0
-311 -407 0
-312 -408 0
-310 -1246 0
-311 -1247 0
-312 -1248 0
-313 -1576 0
-314 -1577 0
-315 -1578 0
-313 -466 0
-314 -467 0
-315 -468 0
-313 -424 0
-314 -425 0
-315 -426 0
-316 -1807 0
-317 -1808 0
-318 -1809 0
-316 -475 0
-317 -476 0
-318 -477 0
-316 -1894 0
-317 -1895 0
-318 -1896 0
-316 -406 0
-317 -407 0
-318 -408 0
-319 -715 0
-320 -716 0
-321 -717 0
-319 -2059 0
-320 -2060 0
-321 -2061 0
-319 -1579 0
-320 -1580 0
-321 -1581 0
-319 -1678 0
-320 -1679 0
-321 -1680 0
-322 -1942 0
-323 -1943 0
-324 -1944 0
-322 -577 0
-323 -578 0
-324 -579 0
-322 -1210 0
-323 -1211 0
-324 -1212 0
-322 -325 0
-323 -326 0
-324 -327 0
-325 -580 0
-326 -581 0
-327 -582 0
-325 -517 0
-326 -518 0
-327 -519 0
-325 -436 0
-326 -437 0
-327 -438 0
-328 -580 0
-329 -581 0
-330 -582 0
-328 -433 0
-329 -434 0
-330 -435 0
-331 -1720 0
-332 -1721 0
-333 -1722 0
-331 -1963 0
-332 -1964 0
-333 -1965 0
-331 -892 0
-332 -893 0
-333 -894 0
-334 -1093 0
-335 -1094 0
-336 -1095 0
-334 -1948 0
-335 -1949 0
-336 -1950 0
-334 -1390 0
-335 -1391 0
-336 -1392 0
-334 -673 0
-335 -674 0
-336 -675 0
-334 -1741 0
-335 -1742 0
-336 -1743 0
-337 -1117 0
-338 -1118 0
-339 -1119 0
-337 -1765 0
-338 -1766 0
-339 -1767 0
-337 -928 0
-338 -929 0
-339 -930 0
-340 -1834 0
-341 -1835 0
-342 -1836 0
-340 -1966 0
-341 -1967 0
-342 -1968 0
-340 -1096 0
-341 -1097 0
-342 -1098 0
-340 -955 0
-341 -956 0
-342 -957 0
-340 -1903 0
-341 -1904 0
-342 -1905 0
-343 -1312 0
-344 -1313 0
-345 -1314 0
-343 -739 0
-344 -740 0
-345 -741 0
-343 -1687 0
-344 -1688 0
-345 -1689 0
-343 -1678 0
-344 -1679 0
-345 -1680 0
-346 -694 0
-347 -695 0
-348 -696 0
-346 -2017 0
-347 -2018 0
-348 -2019 0
-346 -1828 0
-347 -1829 0
-348 -1830 0
-349 -739 0
-350 -740 0
-351 -741 0
-349 -1411 0
-350 -1412 0
-351 -1413 0
-349 -1321 0
-350 -1322 0
-351 -1323 0
-352 -1426 0
-353 -1427 0
-354 -1428 0
-352 -2014 0
-353 -2015 0
-354 -2016 0
-355 -1966 0
-356 -1967 0
-357 -1968 0
-355 -1540 0
-356 -1541 0
-357 -1542 0
-355 -982 0
-356 -983 0
-357 -984 0
-355 -1927 0
-356 -1928 0
-357 -1929 0
-358 -1279 0
-359 -1280 0
-360 -1281 0
-358 -1762 0
-359 -1763 0
-360 -1764 0
-358 -460 0
-359 -461 0
-360 -462 0
-358 -454 0
-359 -455 0
-360 -456 0
-361 -1576 0
-362 -1577 0
-363 -1578 0
-361 -1123 0
-362 -1124 0
-363 -1125 0
-361 -466 0
-362 -467 0
-363 -468 0
-361 -1549 0
-362 -1550 0
-363 -1551 0
-361 -448 0
-362 -449 0
-363 -450 0
-364 -1837 0
-365 -1838 0
-366 -1839 0
-364 -2002 0
-365 -2003 0
-366 -2004 0
-364 -577 0
-365 -578 0
-366 -579 0
-364 -1486 0
-365 -1487 0
-366 -1488 0
-364 -1447 0
-365 -1448 0
-366 -1449 0
-364 -367 0
-365 -368 0
-366 -369 0
-367 -580 0
-368 -581 0
-369 -582 0
-367 -862 0
-368 -863 0
-369 -864 0
-367 -946 0
-368 -947 0
-369 -948 0
-367 -370 0
-368 -371 0
-369 -372 0
-367 -847 0
-368 -848 0
-369 -849 0
-367 -391 0
-368 -392 0
-369 -393 0
-370 -1525 0
-371 -1526 0
-372 -1527 0
-370 -1201 0
-371 -1202 0
-372 -1203 0
-370 -1984 0
-371 -1985 0
-372 -1986 0
-370 -583 0
-371 -584 0
-372 -585 0
-370 -1330 0
-371 -1331 0
-372 -1332 0
-370 -1819 0
-371 -1820 0
-372 -1821 0
-373 -580 0
-374 -581 0
-375 -582 0
-373 -997 0
-374 -998 0
-375 -999 0
-376 -580 0
-377 -581 0
-378 -582 0
-376 -970 0
-377 -971 0
-378 -972 0
-376 -850 0
-377 -851 0
-378 -852 0
-376 -394 0
-377 -395 0
-378 -396 0
-376 -397 0
-377 -398 0
-378 -399 0
-379 -580 0
-380 -581 0
-381 -582 0
-379 -553 0
-380 -554 0
-381 -555 0
-379 -646 0
-380 -647 0
-381 -648 0
-379 -877 0
-380 -878 0
-381 -879 0
-379 -541 0
-380 -542 0
-381 -543 0
-379 -547 0
-380 -548 0
-381 -549 0
-379 -403 0
-380 -404 0
-381 -405 0
-382 -580 0
-383 -581 0
-384 -582 0
-382 -874 0
-383 -875 0
-384 -876 0
-382 -880 0
-383 -881 0
-384 -882 0
-382 -544 0
-383 -545 0
-384 -546 0
-385 -1501 0
-386 -1502 0
-387 -1503 0
-385 -1921 0
-386 -1922 0
-387 -1923 0
-385 -556 0
-386 -557 0
-387 -558 0
-385 -1675 0
-386 -1676 0
-387 -1677 0
-385 -406 0
-386 -407 0
-387 -408 0
-388 -1720 0
-389 -1721 0
-390 -1722 0
-388 -1750 0
-389 -1751 0
-390 -1752 0
-388 -1003 0
-389 -1004 0
-390 -1005 0
-388 -1696 0
-389 -1697 0
-390 -1698 0
-388 -1459 0
-389 -1460 0
-390 -1461 0
-388 -1219 0
-389 -1220 0
-390 -1221 0
-388 -1462 0
-389 -1463 0
-390 -1464 0
-391 -1588 0
-392 -1589 0
-393 -1590 0
-391 -589 0
-392 -590 0
-393 -591 0
-391 -1615 0
-392 -1616 0
-393 -1617 0
-394 -589 0
-395 -590 0
-396 -591 0
-394 -2014 0
-395 -2015 0
-396 -2016 0
-394 -1384 0
-395 -1385 0
-396 -1386 0
-397 -592 0
-398 -593 0
-399 -594 0
-397 -1336 0
-398 -1337 0
-399 -1338 0
-397 -1387 0
-398 -1388 0
-399 -1389 0
-400 -2059 0
-401 -2060 0
-402 -2061 0
-400 -775 0
-401 -776 0
-402 -777 0
-400 -1636 0
-401 -1637 0
-402 -1638 0
-403 -1402 0
-404 -1403 0
-405 -1404 0
-403 -589 0
-404 -590 0
-405 -591 0
-403 -1552 0
-404 -1553 0
-405 -1554 0
-406 -409 0
-407 -410 0
-408 -411 0
-406 -505 0
-407 -506 0
-408 -507 0
-406 -580 0
-407 -581 0
-408 -582 0
-406 -508 0
-407 -509 0
-408 -510 0
-406 -568 0
-407 -569 0
-408 -570 0
-406 -772 0
-407 -773 0
-408 -774 0
-406 -781 0
-407 -782 0
-408 -783 0
-409 -1525 0
-410 -1526 0
-411 -1527 0
-409 -2068 0
-410 -2069 0
-411 -2070 0
-409 -2083 0
-410 -2084 0
-411 -2085 0
-409 -583 0
-410 -584 0
-411 -585 0
-409 -1087 0
-410 -1088 0
-411 -1089 0
-412 -580 0
-413 -581 0
-414 -582 0
-412 -598 0
-413 -599 0
-414 -600 0
-412 -565 0
-413 -566 0
-414 -567 0
-412 -787 0
-413 -788 0
-414 -789 0
-415 -580 0
-416 -581 0
-417 -582 0
-418 -1930 0
-419 -1931 0
-420 -1932 0
-418 -775 0
-419 -776 0
-420 -777 0
-418 -1543 0
-419 -1544 0
-420 -1545 0
-418 -1564 0
-419 -1565 0
-420 -1566 0
-418 -1321 0
-419 -1322 0
-420 -1323 0
-418 -2080 0
-419 -2081 0
-420 -2082 0
-421 -1804 0
-422 -1805 0
-423 -1806 0
-421 -892 0
-422 -893 0
-423 -894 0
-421 -1474 0
-422 -1475 0
-423 -1476 0
-421 -2059 0
-422 -2060 0
-423 -2061 0
-421 -1081 0
-422 -1082 0
-423 -1083 0
-424 -895 0
-425 -896 0
-426 -897 0
-424 -580 0
-425 -581 0
-426 -582 0
-424 -607 0
-425 -608 0
-426 -609 0
-424 -520 0
-425 -521 0
-426 -522 0
-424 -529 0
-425 -530 0
-426 -531 0
-424 -586 0
-425 -587 0
-426 -588 0
-427 -580 0
-428 -581 0
-429 -582 0
-427 -604 0
-428 -605 0
-429 -606 0
-427 -523 0
-428 -524 0
-429 -525 0
-427 -727 0
-428 -728 0
-429 -729 0
-427 -793 0
-428 -794 0
-429 -795 0
-430 -502 0
-431 -503 0
-432 -504 0
-430 -580 0
-431 -581 0
-432 -582 0
-430 -610 0
-431 -611 0
-432 -612 0
-430 -526 0
-431 -527 0
-432 -528 0
-430 -532 0
-431 -533 0
-432 -534 0
-430 -763 0
-431 -764 0
-432 -765 0
-430 -766 0
-431 -767 0
-432 -768 0
-433 -1420 0
-434 -1421 0
-435 -1422 0
-433 -676 0
-434 -677 0
-435 -678 0
-433 -1933 0
-434 -1934 0
-435 -1935 0
-433 -2074 0
-434 -2075 0
-435 -2076 0
-433 -1756 0
-434 -1757 0
-435 -1758 0
-433 -1417 0
-434 -1418 0
-435 -1419 0
-436 -1468 0
-437 -1469 0
-438 -1470 0
-436 -1942 0
-437 -1943 0
-438 -1944 0
-436 -682 0
-437 -683 0
-438 -684 0
-436 -1906 0
-437 -1907 0
-438 -1908 0
-439 -1726 0
-440 -1727 0
-441 -1728 0
-439 -556 0
-440 -557 0
-441 -558 0
-439 -448 0
-440 -449 0
-441 -450 0
-439 -1453 0
-440 -1454 0
-441 -1455 0
-442 -931 0
-443 -932 0
-444 -933 0
-442 -1534 0
-443 -1535 0
-444 -1536 0
-442 -1189 0
-443 -1190 0
-444 -1191 0
-445 -1963 0
-446 -1964 0
-447 -1965 0
-445 -955 0
-446 -956 0
-447 -957 0
-445 -2005 0
-446 -2006 0
-447 -2007 0
-445 -2038 0
-446 -2039 0
-447 -2040 0
-445 -1126 0
-446 -1127 0
-447 -1128 0
-445 -1102 0
-446 -1103 0
-447 -1104 0
-448 -580 0
-449 -581 0
-450 -582 0
-448 -619 0
-449 -620 0
-450 -621 0
-448 -628 0
-449 -629 0
-450 -630 0
-451 -580 0
-452 -581 0
-453 -582 0
-451 -487 0
-452 -488 0
-453 -489 0
-451 -658 0
-452 -659 0
-453 -660 0
-454 -820 0
-455 -821 0
-456 -822 0
-454 -580 0
-455 -581 0
-456 -582 0
-454 -631 0
-455 -632 0
-456 -633 0
-457 -580 0
-458 -581 0
-459 -582 0
-457 -988 0
-458 -989 0
-459 -990 0
-457 -559 0
-458 -560 0
-459 -561 0
-457 -484 0
-458 -485 0
-459 -486 0
-457 -622 0
-458 -623 0
-459 -624 0
-457 -661 0
-458 -662 0
-459 -663 0
-460 -580 0
-461 -581 0
-462 -582 0
-460 -769 0
-461 -770 0
-462 -771 0
-460 -841 0
-461 -842 0
-462 -843 0
-460 -625 0
-461 -626 0
-462 -627 0
-463 -1936 0
-464 -1937 0
-465 -1938 0
-463 -577 0
-464 -578 0
-465 -579 0
-463 -466 0
-464 -467 0
-465 -468 0
-463 -1138 0
-464 -1139 0
-465 -1140 0
-463 -1783 0
-464 -1784 0
-465 -1785 0
-466 -634 0
-467 -635 0
-468 -636 0
-466 -580 0
-467 -581 0
-468 -582 0
-466 -640 0
-467 -641 0
-468 -642 0
-466 -562 0
-467 -563 0
-468 -564 0
-466 -844 0
-467 -845 0
-468 -846 0
-466 -490 0
-467 -491 0
-468 -492 0
-469 -859 0
-470 -860 0
-471 -861 0
-469 -1591 0
-470 -1592 0
-471 -1593 0
-469 -1900 0
-470 -1901 0
-471 -1902 0
-472 -1627 0
-473 -1628 0
-474 -1629 0
-472 -2107 0
-473 -2108 0
-474 -2109 0
-472 -1015 0
-473 -1016 0
-474 -1017 0
-472 -1633 0
-473 -1634 0
-474 -1635 0
-475 -580 0
-476 -581 0
-477 -582 0
-475 -643 0
-476 -644 0
-477 -645 0
-478 -1135 0
-479 -1136 0
-480 -1137 0
-478 -1609 0
-479 -1610 0
-480 -1611 0
-478 -982 0
-479 -983 0
-480 -984 0
-478 -1513 0
-479 -1514 0
-480 -1515 0
-478 -1927 0
-479 -1928 0
-480 -1929 0
-481 -1672 0
-482 -1673 0
-483 -1674 0
-481 -1612 0
-482 -1613 0
-483 -1614 0
-481 -985 0
-482 -986 0
-483 -987 0
-481 -1513 0
-482 -1514 0
-483 -1515 0
-481 -1363 0
-482 -1364 0
-483 -1365 0
-484 -1096 0
-485 -1097 0
-486 -1098 0
-484 -589 0
-485 -590 0
-486 -591 0
-484 -1615 0
-485 -1616 0
-486 -1617 0
-484 -1351 0
-485 -1352 0
-486 -1353 0
-484 -1450 0
-485 -1451 0
-486 -1452 0
-487 -1438 0
-488 -1439 0
-489 -1440 0
-487 -592 0
-488 -593 0
-489 -594 0
-487 -1336 0
-488 -1337 0
-489 -1338 0
-487 -1291 0
-488 -1292 0
-489 -1293 0
-487 -1111 0
-488 -1112 0
-489 -1113 0
-487 -1903 0
-488 -1904 0
-489 -1905 0
-490 -1402 0
-491 -1403 0
-492 -1404 0
-490 -589 0
-491 -590 0
-492 -591 0
-490 -1450 0
-491 -1451 0
-492 -1452 0
-490 -1435 0
-491 -1436 0
-492 -1437 0
-493 -1582 0
-494 -1583 0
-495 -1584 0
-493 -859 0
-494 -860 0
-495 -861 0
-493 -1900 0
-494 -1901 0
-495 -1902 0
-496 -580 0
-497 -581 0
-498 -582 0
-496 -865 0
-497 -866 0
-498 -867 0
-496 -868 0
-497 -869 0
-498 -870 0
-499 -1939 0
-500 -1940 0
-501 -1941 0
-499 -2023 0
-500 -2024 0
-501 -2025 0
-499 -859 0
-500 -860 0
-501 -861 0
-499 -1618 0
-500 -1619 0
-501 -1620 0
-499 -2035 0
-500 -2036 0
-501 -2037 0
-502 -1684 0
-503 -1685 0
-504 -1686 0
-502 -655 0
-503 -656 0
-504 -657 0
-502 -1633 0
-503 -1634 0
-504 -1635 0
-502 -1711 0
-503 -1712 0
-504 -1713 0
-502 -1852 0
-503 -1853 0
-504 -1854 0
-505 -670 0
-506 -671 0
-507 -672 0
-505 -1408 0
-506 -1409 0
-507 -1410 0
-505 -1894 0
-506 -1895 0
-507 -1896 0
-505 -1954 0
-506 -1955 0
-507 -1956 0
-505 -1675 0
-506 -1676 0
-507 -1677 0
-508 -1498 0
-509 -1499 0
-510 -1500 0
-508 -682 0
-509 -683 0
-510 -684 0
-508 -1954 0
-509 -1955 0
-510 -1956 0
-508 -1078 0
-509 -1079 0
-510 -1080 0
-511 -2029 0
-512 -2030 0
-513 -2031 0
-511 -1720 0
-512 -1721 0
-513 -1722 0
-511 -1729 0
-512 -1730 0
-513 -1731 0
-511 -1018 0
-512 -1019 0
-513 -1020 0
-511 -1546 0
-512 -1547 0
-513 -1548 0
-514 -1090 0
-515 -1091 0
-516 -1092 0
-514 -1162 0
-515 -1163 0
-516 -1164 0
-514 -1414 0
-515 -1415 0
-516 -1416 0
-517 -1105 0
-518 -1106 0
-519 -1107 0
-517 -745 0
-518 -746 0
-519 -747 0
-520 -1102 0
-521 -1103 0
-522 -1104 0
-520 -1204 0
-521 -1205 0
-522 -1206 0
-520 -1126 0
-521 -1127 0
-522 -1128 0
-520 -673 0
-521 -674 0
-522 -675 0
-523 -676 0
-524 -677 0
-525 -678 0
-523 -2095 0
-524 -2096 0
-525 -2097 0
-523 -1756 0
-524 -1757 0
-525 -1758 0
-526 -673 0
-527 -674 0
-528 -675 0
-526 -1897 0
-527 -1898 0
-528 -1899 0
-526 -1087 0
-527 -1088 0
-528 -1089 0
-526 -1375 0
-527 -1376 0
-528 -1377 0
-529 -682 0
-530 -683 0
-531 -684 0
-529 -1726 0
-530 -1727 0
-531 -1728 0
-529 -2008 0
-530 -2009 0
-531 -2010 0
-529 -1957 0
-530 -1958 0
-531 -1959 0
-532 -682 0
-533 -683 0
-534 -684 0
-532 -1225 0
-533 -1226 0
-534 -1227 0
-532 -1906 0
-533 -1907 0
-534 -1908 0
-532 -1375 0
-533 -1376 0
-534 -1377 0
-535 -2104 0
-536 -2105 0
-537 -2106 0
-535 -1093 0
-536 -1094 0
-537 -1095 0
-535 -1009 0
-536 -1010 0
-537 -1011 0
-538 -892 0
-539 -893 0
-540 -894 0
-538 -2026 0
-539 -2027 0
-540 -2028 0
-538 -1123 0
-539 -1124 0
-540 -1125 0
-538 -1735 0
-539 -1736 0
-540 -1737 0
-541 -694 0
-542 -695 0
-543 -696 0
-541 -1918 0
-542 -1919 0
-543 -1920 0
-541 -1423 0
-542 -1424 0
-543 -1425 0
-541 -1810 0
-542 -1811 0
-543 -1812 0
-541 -1429 0
-542 -1430 0
-543 -1431 0
-541 -1897 0
-542 -1898 0
-543 -1899 0
-541 -1552 0
-542 -1553 0
-543 -1554 0
-541 -1555 0
-542 -1556 0
-543 -1557 0
-544 -1717 0
-545 -1718 0
-546 -1719 0
-544 -697 0
-545 -698 0
-546 -699 0
-544 -1477 0
-545 -1478 0
-546 -1479 0
-544 -1345 0
-545 -1346 0
-546 -1347 0
-544 -1714 0
-545 -1715 0
-546 -1716 0
-544 -1495 0
-545 -1496 0
-546 -1497 0
-544 -1909 0
-545 -1910 0
-546 -1911 0
-547 -1801 0
-548 -1802 0
-549 -1803 0
-547 -1135 0
-548 -1136 0
-549 -1137 0
-547 -1786 0
-548 -1787 0
-549 -1788 0
-547 -1777 0
-548 -1778 0
-549 -1779 0
-547 -1213 0
-548 -1214 0
-549 -1215 0
-547 -703 0
-548 -704 0
-549 -705 0
-550 -1474 0
-551 -1475 0
-552 -1476 0
-550 -955 0
-551 -956 0
-552 -957 0
-550 -1864 0
-551 -1865 0
-552 -1866 0
-553 -1897 0
-554 -1898 0
-555 -1899 0
-553 -712 0
-554 -713 0
-555 -714 0
-556 -580 0
-557 -581 0
-558 -582 0
-556 -649 0
-557 -650 0
-558 -651 0
-556 -652 0
-557 -653 0
-558 -654 0
-559 -655 0
-560 -656 0
-561 -657 0
-559 -1852 0
-560 -1853 0
-561 -1854 0
-562 -1798 0
-563 -1799 0
-564 -1800 0
-562 -655 0
-563 -656 0
-564 -657 0
-562 -1129 0
-563 -1130 0
-564 -1131 0
-562 -1435 0
-563 -1436 0
-564 -1437 0
-565 -697 0
-566 -698 0
-567 -699 0
-565 -1747 0
-566 -1748 0
-567 -1749 0
-565 -1345 0
-566 -1346 0
-567 -1347 0
-565 -1141 0
-566 -1142 0
-567 -1143 0
-568 -1636 0
-569 -1637 0
-570 -1638 0
-568 -1639 0
-569 -1640 0
-570 -1641 0
-568 -703 0
-569 -704 0
-570 -705 0
-568 -2083 0
-569 -2084 0
-570 -2085 0
-568 -1360 0
-569 -1361 0
-570 -1362 0
-568 -1213 0
-569 -1214 0
-570 -1215 0
-568 -1501 0
-569 -1502 0
-570 -1503 0
-568 -1408 0
-569 -1409 0
-570 -1410 0
-568 -1624 0
-569 -1625 0
-570 -1626 0
-571 -1114 0
-572 -1115 0
-573 -1116 0
-571 -1315 0
-572 -1316 0
-573 -1317 0
-571 -1483 0
-572 -1484 0
-573 -1485 0
-571 -922 0
-572 -923 0
-573 -924 0
-574 -1858 0
-575 -1859 0
-576 -1860 0
-574 -1606 0
-575 -1607 0
-576 -1608 0
-574 -922 0
-575 -923 0
-576 -924 0
-574 -1510 0
-575 -1511 0
-576 -1512 0
-577 -889 0
-578 -890 0
-579 -891 0
-577 -580 0
-578 -581 0
-579 -582 0
-577 -826 0
-578 -827 0
-579 -828 0
-577 -1000 0
-578 -1001 0
-579 -1002 0
-577 -979 0
-578 -980 0
-579 -981 0
-577 -736 0
-578 -737 0
-579 -738 0
-577 -1033 0
-578 -1034 0
-579 -1035 0
-580 -928 0
-581 -929 0
-582 -930 0
-580 -955 0
-581 -956 0
-582 -957 0
-580 -589 0
-581 -590 0
-582 -591 0
-580 -859 0
-581 -860 0
-582 -861 0
-580 -745 0
-581 -746 0
-582 -747 0
-580 -592 0
-581 -593 0
-582 -594 0
-580 -892 0
-581 -893 0
-582 -894 0
-580 -1009 0
-581 -1010 0
-582 -1011 0
-580 -931 0
-581 -932 0
-582 -933 0
-580 -934 0
-581 -935 0
-582 -936 0
-580 -823 0
-581 -824 0
-582 -825 0
-580 -832 0
-581 -833 0
-582 -834 0
-580 -901 0
-581 -902 0
-582 -903 0
-580 -583 0
-581 -584 0
-582 -585 0
-580 -1018 0
-581 -1019 0
-582 -1020 0
-580 -715 0
-581 -716 0
-582 -717 0
-580 -910 0
-581 -911 0
-582 -912 0
-580 -1003 0
-581 -1004 0
-582 -1005 0
-580 -670 0
-581 -671 0
-582 -672 0
-580 -673 0
-581 -674 0
-582 -675 0
-580 -676 0
-581 -677 0
-582 -678 0
-580 -982 0
-581 -983 0
-582 -984 0
-580 -985 0
-581 -986 0
-582 -987 0
-580 -682 0
-581 -683 0
-582 -684 0
-580 -775 0
-581 -776 0
-582 -777 0
-580 -778 0
-581 -779 0
-582 -780 0
-580 -922 0
-581 -923 0
-582 -924 0
-580 -1015 0
-581 -1016 0
-582 -1017 0
-580 -925 0
-581 -926 0
-582 -927 0
-580 -694 0
-581 -695 0
-582 -696 0
-580 -697 0
-581 -698 0
-582 -699 0
-580 -730 0
-581 -731 0
-582 -732 0
-580 -733 0
-581 -734 0
-582 -735 0
-580 -700 0
-581 -701 0
-582 -702 0
-580 -703 0
-581 -704 0
-582 -705 0
-580 -655 0
-581 -656 0
-582 -657 0
-580 -709 0
-581 -710 0
-582 -711 0
-580 -739 0
-581 -740 0
-582 -741 0
-580 -712 0
-581 -713 0
-582 -714 0
-580 -1036 0
-581 -1037 0
-582 -1038 0
-583 -958 0
-584 -959 0
-585 -960 0
-583 -748 0
-584 -749 0
-585 -750 0
-583 -829 0
-584 -830 0
-585 -831 0
-583 -835 0
-584 -836 0
-585 -837 0
-583 -904 0
-584 -905 0
-585 -906 0
-583 -913 0
-584 -914 0
-585 -915 0
-583 -679 0
-584 -680 0
-585 -681 0
-583 -742 0
-584 -743 0
-585 -744 0
-586 -1870 0
-587 -1871 0
-588 -1872 0
-586 -1348 0
-587 -1349 0
-588 -1350 0
-586 -712 0
-587 -713 0
-588 -714 0
-589 -688 0
-590 -689 0
-591 -690 0
-589 -754 0
-590 -755 0
-591 -756 0
-589 -937 0
-590 -938 0
-591 -939 0
-589 -724 0
-590 -725 0
-591 -726 0
-595 -1099 0
-596 -1100 0
-597 -1101 0
-595 -1951 0
-596 -1952 0
-597 -1953 0
-595 -730 0
-596 -731 0
-597 -732 0
-598 -1099 0
-599 -1100 0
-600 -1101 0
-598 -739 0
-599 -740 0
-600 -741 0
-598 -1264 0
-599 -1265 0
-600 -1266 0
-601 -1612 0
-602 -1613 0
-603 -1614 0
-601 -985 0
-602 -986 0
-603 -987 0
-601 -1516 0
-602 -1517 0
-603 -1518 0
-604 -1867 0
-605 -1868 0
-606 -1869 0
-604 -730 0
-605 -731 0
-606 -732 0
-607 -1108 0
-608 -1109 0
-609 -1110 0
-607 -1870 0
-608 -1871 0
-609 -1872 0
-607 -2101 0
-608 -2102 0
-609 -2103 0
-607 -1699 0
-608 -1700 0
-609 -1701 0
-607 -1816 0
-608 -1817 0
-609 -1818 0
-607 -733 0
-608 -734 0
-609 -735 0
-610 -1918 0
-611 -1919 0
-612 -1920 0
-610 -1231 0
-611 -1232 0
-612 -1233 0
-610 -1897 0
-611 -1898 0
-612 -1899 0
-610 -733 0
-611 -734 0
-612 -735 0
-613 -2092 0
-614 -2093 0
-615 -2094 0
-613 -934 0
-614 -935 0
-615 -936 0
-616 -1174 0
-617 -1175 0
-618 -1176 0
-616 -1282 0
-617 -1283 0
-618 -1284 0
-616 -1015 0
-617 -1016 0
-618 -1017 0
-616 -1186 0
-617 -1187 0
-618 -1188 0
-619 -1156 0
-620 -1157 0
-621 -1158 0
-619 -1360 0
-620 -1361 0
-621 -1362 0
-619 -703 0
-620 -704 0
-621 -705 0
-619 -1453 0
-620 -1454 0
-621 -1455 0
-622 -694 0
-623 -695 0
-624 -696 0
-622 -1918 0
-623 -1919 0
-624 -1920 0
-625 -1762 0
-626 -1763 0
-627 -1764 0
-625 -1846 0
-626 -1847 0
-627 -1848 0
-625 -1594 0
-626 -1595 0
-627 -1596 0
-625 -700 0
-626 -701 0
-627 -702 0
-628 -1912 0
-629 -1913 0
-630 -1914 0
-628 -1123 0
-629 -1124 0
-630 -1125 0
-628 -1348 0
-629 -1349 0
-630 -1350 0
-628 -712 0
-629 -713 0
-630 -714 0
-628 -1144 0
-629 -1145 0
-630 -1146 0
-631 -1831 0
-632 -1832 0
-633 -1833 0
-631 -1279 0
-632 -1280 0
-633 -1281 0
-631 -1570 0
-632 -1571 0
-633 -1572 0
-631 -1876 0
-632 -1877 0
-633 -1878 0
-631 -709 0
-632 -710 0
-633 -711 0
-634 -1123 0
-635 -1124 0
-636 -1125 0
-634 -712 0
-635 -713 0
-636 -714 0
-634 -1147 0
-635 -1148 0
-636 -1149 0
-637 -1750 0
-638 -1751 0
-639 -1752 0
-637 -1036 0
-638 -1037 0
-639 -1038 0
-640 -715 0
-641 -716 0
-642 -717 0
-640 -1129 0
-641 -1130 0
-642 -1131 0
-640 -1549 0
-641 -1550 0
-642 -1551 0
-643 -694 0
-644 -695 0
-645 -696 0
-643 -1531 0
-644 -1532 0
-645 -1533 0
-643 -1807 0
-644 -1808 0
-645 -1809 0
-643 -2017 0
-644 -2018 0
-645 -2019 0
-643 -1249 0
-644 -1250 0
-645 -1251 0
-646 -1135 0
-647 -1136 0
-648 -1137 0
-646 -775 0
-647 -776 0
-648 -777 0
-649 -1522 0
-650 -1523 0
-651 -1524 0
-649 -670 0
-650 -671 0
-651 -672 0
-649 -1447 0
-650 -1448 0
-651 -1449 0
-649 -1675 0
-650 -1676 0
-651 -1677 0
-652 -1258 0
-653 -1259 0
-654 -1260 0
-652 -1921 0
-653 -1922 0
-654 -1923 0
-652 -1447 0
-653 -1448 0
-654 -1449 0
-652 -1138 0
-653 -1139 0
-654 -1140 0
-652 -673 0
-653 -674 0
-654 -675 0
-652 -1276 0
-653 -1277 0
-654 -1278 0
-655 -784 0
-656 -785 0
-657 -786 0
-658 -2029 0
-659 -2030 0
-660 -2031 0
-658 -1282 0
-659 -1283 0
-660 -1284 0
-658 -1291 0
-659 -1292 0
-660 -1293 0
-658 -745 0
-659 -746 0
-660 -747 0
-661 -1084 0
-662 -1085 0
-663 -1086 0
-661 -739 0
-662 -740 0
-663 -741 0
-664 -1252 0
-665 -1253 0
-666 -1254 0
-664 -1531 0
-665 -1532 0
-666 -1533 0
-664 -1786 0
-665 -1787 0
-666 -1788 0
-664 -1561 0
-665 -1562 0
-666 -1563 0
-664 -1645 0
-665 -1646 0
-666 -1647 0
-664 -1714 0
-665 -1715 0
-666 -1716 0
-664 -1717 0
-665 -1718 0
-666 -1719 0
-664 -1660 0
-665 -1661 0
-666 -1662 0
-664 -2017 0
-665 -2018 0
-666 -2019 0
-664 -1849 0
-665 -1850 0
-666 -1851 0
-664 -1777 0
-665 -1778 0
-666 -1779 0
-664 -1237 0
-665 -1238 0
-666 -1239 0
-664 -1036 0
-665 -1037 0
-666 -1038 0
-667 -955 0
-668 -956 0
-669 -957 0
-667 -1861 0
-668 -1862 0
-669 -1863 0
-670 -757 0
-671 -758 0
-672 -759 0
-670 -949 0
-671 -950 0
-672 -951 0
-673 -1045 0
-674 -1046 0
-675 -1047 0
-673 -760 0
-674 -761 0
-675 -762 0
-673 -817 0
-674 -818 0
-675 -819 0
-673 -796 0
-674 -797 0
-675 -798 0
-676 -964 0
-677 -965 0
-678 -966 0
-676 -679 0
-677 -680 0
-678 -681 0
-679 -2071 0
-680 -2072 0
-681 -2073 0
-682 -688 0
-683 -689 0
-684 -690 0
-682 -799 0
-683 -800 0
-684 -801 0
-682 -967 0
-683 -968 0
-684 -969 0
-682 -1048 0
-683 -1049 0
-684 -1050 0
-682 -757 0
-683 -758 0
-684 -759 0
-682 -760 0
-683 -761 0
-684 -762 0
-685 -1516 0
-686 -1517 0
-687 -1518 0
-685 -1003 0
-686 -1004 0
-687 -1005 0
-685 -1240 0
-686 -1241 0
-687 -1242 0
-685 -1492 0
-686 -1493 0
-687 -1494 0
-685 -1462 0
-686 -1463 0
-687 -1464 0
-688 -1498 0
-689 -1499 0
-690 -1500 0
-688 -1225 0
-689 -1226 0
-690 -1227 0
-688 -1726 0
-689 -1727 0
-690 -1728 0
-688 -2065 0
-689 -2066 0
-690 -2067 0
-688 -2047 0
-689 -2048 0
-690 -2049 0
-688 -1453 0
-689 -1454 0
-690 -1455 0
-691 -1285 0
-692 -1286 0
-693 -1287 0
-691 -985 0
-692 -986 0
-693 -987 0
-691 -1564 0
-692 -1565 0
-693 -1566 0
-694 -799 0
-695 -800 0
-696 -801 0
-694 -991 0
-695 -992 0
-696 -993 0
-694 -871 0
-695 -872 0
-696 -873 0
-694 -1012 0
-695 -1013 0
-696 -1014 0
-694 -853 0
-695 -854 0
-696 -855 0
-694 -796 0
-695 -797 0
-696 -798 0
-700 -943 0
-701 -944 0
-702 -945 0
-700 -994 0
-701 -995 0
-702 -996 0
-703 -976 0
-704 -977 0
-705 -978 0
-706 -2056 0
-707 -2057 0
-708 -2058 0
-706 -985 0
-707 -986 0
-708 -987 0
-706 -1639 0
-707 -1640 0
-708 -1641 0
-706 -1738 0
-707 -1739 0
-708 -1740 0
-706 -1558 0
-707 -1559 0
-708 -1560 0
-709 -883 0
-710 -884 0
-711 -885 0
-715 -853 0
-716 -854 0
-717 -855 0
-715 -724 0
-716 -725 0
-717 -726 0
-715 -784 0
-716 -785 0
-717 -786 0
-718 -1951 0
-719 -1952 0
-720 -1953 0
-718 -1867 0
-719 -1868 0
-720 -1869 0
-718 -730 0
-719 -731 0
-720 -732 0
-721 -1720 0
-722 -1721 0
-723 -1722 0
-721 -2005 0
-722 -2006 0
-723 -2007 0
-721 -1750 0
-722 -1751 0
-723 -1752 0
-721 -1036 0
-722 -1037 0
-723 -1038 0
-724 -1588 0
-725 -1589 0
-726 -1590 0
-724 -1579 0
-725 -1580 0
-726 -1581 0
-727 -2023 0
-728 -2024 0
-729 -2025 0
-727 -1582 0
-728 -1583 0
-729 -1584 0
-727 -859 0
-728 -860 0
-729 -861 0
-733 -754 0
-734 -755 0
-735 -756 0
-736 -1312 0
-737 -1313 0
-738 -1314 0
-736 -1195 0
-737 -1196 0
-738 -1197 0
-736 -739 0
-737 -740 0
-738 -741 0
-739 -907 0
-740 -908 0
-741 -909 0
-739 -973 0
-740 -974 0
-741 -975 0
-739 -940 0
-740 -941 0
-741 -942 0
-739 -952 0
-740 -953 0
-741 -954 0
-739 -742 0
-740 -743 0
-741 -744 0
-742 -1702 0
-743 -1703 0
-744 -1704 0
-742 -1705 0
-743 -1706 0
-744 -1707 0
-742 -1723 0
-743 -1724 0
-744 -1725 0
-742 -1999 0
-743 -2000 0
-744 -2001 0
-742 -1111 0
-743 -1112 0
-744 -1113 0
-745 -748 0
-746 -749 0
-747 -750 0
-745 -907 0
-746 -908 0
-747 -909 0
-745 -883 0
-746 -884 0
-747 -885 0
-745 -814 0
-746 -815 0
-747 -816 0
-745 -817 0
-746 -818 0
-747 -819 0
-748 -1759 0
-749 -1760 0
-750 -1761 0
-748 -1261 0
-749 -1262 0
-750 -1263 0
-748 -1450 0
-749 -1451 0
-750 -1452 0
-751 -1342 0
-752 -1343 0
-753 -1344 0
-751 -1015 0
-752 -1016 0
-753 -1017 0
-751 -1780 0
-752 -1781 0
-753 -1782 0
-751 -2032 0
-752 -2033 0
-753 -2034 0
-754 -2002 0
-755 -2003 0
-756 -2004 0
-754 -1231 0
-755 -1232 0
-756 -1233 0
-757 -1732 0
-758 -1733 0
-759 -1734 0
-757 -1954 0
-758 -1955 0
-759 -1956 0
-760 -1465 0
-761 -1466 0
-762 -1467 0
-760 -1375 0
-761 -1376 0
-762 -1377 0
-763 -892 0
-764 -893 0
-765 -894 0
-763 -2026 0
-764 -2027 0
-765 -2028 0
-766 -910 0
-767 -911 0
-768 -912 0
-766 -1627 0
-767 -1628 0
-768 -1629 0
-766 -1633 0
-767 -1634 0
-768 -1635 0
-769 -1357 0
-770 -1358 0
-771 -1359 0
-769 -859 0
-770 -860 0
-771 -861 0
-769 -1618 0
-770 -1619 0
-771 -1620 0
-772 -1381 0
-773 -1382 0
-774 -1383 0
-772 -1234 0
-773 -1235 0
-774 -1236 0
-775 -1051 0
-776 -1052 0
-777 -1053 0
-775 -1027 0
-776 -1028 0
-777 -1029 0
-775 -940 0
-776 -941 0
-777 -942 0
-778 -1006 0
-779 -1007 0
-780 -1008 0
-778 -1030 0
-779 -1031 0
-780 -1032 0
-781 -1639 0
-782 -1640 0
-783 -1641 0
-781 -931 0
-782 -932 0
-783 -933 0
-781 -1768 0
-782 -1769 0
-783 -1770 0
-781 -2098 0
-782 -2099 0
-783 -2100 0
-781 -1246 0
-782 -1247 0
-783 -1248 0
-784 -1684 0
-785 -1685 0
-786 -1686 0
-784 -1444 0
-785 -1445 0
-786 -1446 0
-784 -1129 0
-785 -1130 0
-786 -1131 0
-787 -1222 0
-788 -1223 0
-789 -1224 0
-787 -1264 0
-788 -1265 0
-789 -1266 0
-787 -934 0
-788 -935 0
-789 -936 0
-787 -1141 0
-788 -1142 0
-789 -1143 0
-787 -1150 0
-788 -1151 0
-789 -1152 0
-787 -1456 0
-788 -1457 0
-789 -1458 0
-790 -1327 0
-791 -1328 0
-792 -1329 0
-790 -1408 0
-791 -1409 0
-792 -1410 0
-790 -1630 0
-791 -1631 0
-792 -1632 0
-790 -1009 0
-791 -1010 0
-792 -1011 0
-790 -1129 0
-791 -1130 0
-792 -1131 0
-790 -1825 0
-791 -1826 0
-792 -1827 0
-793 -1315 0
-794 -1316 0
-795 -1317 0
-793 -922 0
-794 -923 0
-795 -924 0
-793 -1489 0
-794 -1490 0
-795 -1491 0
-793 -1507 0
-794 -1508 0
-795 -1509 0
-796 -1258 0
-797 -1259 0
-798 -1260 0
-796 -1249 0
-797 -1250 0
-798 -1251 0
-799 -1957 0
-800 -1958 0
-801 -1959 0
-799 -1735 0
-800 -1736 0
-801 -1737 0
-799 -1555 0
-800 -1556 0
-801 -1557 0
-802 -1309 0
-803 -1310 0
-804 -1311 0
-802 -1522 0
-803 -1523 0
-804 -1524 0
-802 -1777 0
-803 -1778 0
-804 -1779 0
-802 -1036 0
-803 -1037 0
-804 -1038 0
-802 -1396 0
-803 -1397 0
-804 -1398 0
-805 -1093 0
-806 -1094 0
-807 -1095 0
-805 -1009 0
-806 -1010 0
-807 -1011 0
-805 -1132 0
-806 -1133 0
-807 -1134 0
-808 -1174 0
-809 -1175 0
-810 -1176 0
-808 -1180 0
-809 -1181 0
-810 -1182 0
-808 -1771 0
-809 -1772 0
-810 -1773 0
-808 -1015 0
-809 -1016 0
-810 -1017 0
-811 -1228 0
-812 -1229 0
-813 -1230 0
-811 -1180 0
-812 -1181 0
-813 -1182 0
-811 -1015 0
-812 -1016 0
-813 -1017 0
-811 -1735 0
-812 -1736 0
-813 -1737 0
-814 -2029 0
-815 -2030 0
-816 -2031 0
-814 -1261 0
-815 -1262 0
-816 -1263 0
-814 -1729 0
-815 -1730 0
-816 -1731 0
-817 -1948 0
-818 -1949 0
-819 -1950 0
-817 -1126 0
-818 -1127 0
-819 -1128 0
-817 -1138 0
-818 -1139 0
-819 -1140 0
-820 -1858 0
-821 -1859 0
-822 -1860 0
-820 -1831 0
-821 -1832 0
-822 -1833 0
-820 -922 0
-821 -923 0
-822 -924 0
-820 -1114 0
-821 -1115 0
-822 -1116 0
-823 -943 0
-824 -944 0
-825 -945 0
-823 -829 0
-824 -830 0
-825 -831 0
-826 -1285 0
-827 -1286 0
-828 -1287 0
-826 -832 0
-827 -833 0
-828 -834 0
-826 -1297 0
-827 -1298 0
-828 -1299 0
-826 -1195 0
-827 -1196 0
-828 -1197 0
-826 -1996 0
-827 -1997 0
-828 -1998 0
-829 -1843 0
-830 -1844 0
-831 -1845 0
-829 -2023 0
-830 -2024 0
-831 -2025 0
-829 -1915 0
-830 -1916 0
-831 -1917 0
-829 -1114 0
-830 -1115 0
-831 -1116 0
-829 -2035 0
-830 -2036 0
-831 -2037 0
-832 -835 0
-833 -836 0
-834 -837 0
-832 -1039 0
-833 -1040 0
-834 -1041 0
-832 -952 0
-833 -953 0
-834 -954 0
-835 -1702 0
-836 -1703 0
-837 -1704 0
-835 -1972 0
-836 -1973 0
-837 -1974 0
-835 -1183 0
-836 -1184 0
-837 -1185 0
-838 -1108 0
-839 -1109 0
-840 -1110 0
-838 -1198 0
-839 -1199 0
-840 -1200 0
-838 -1708 0
-839 -1709 0
-840 -1710 0
-838 -1192 0
-839 -1193 0
-840 -1194 0
-838 -1003 0
-839 -1004 0
-840 -1005 0
-841 -1243 0
-842 -1244 0
-843 -1245 0
-841 -1594 0
-842 -1595 0
-843 -1596 0
-841 -1585 0
-842 -1586 0
-843 -1587 0
-841 -928 0
-842 -929 0
-843 -930 0
-844 -931 0
-845 -932 0
-846 -933 0
-844 -1246 0
-845 -1247 0
-846 -1248 0
-844 -1147 0
-845 -1148 0
-846 -1149 0
-847 -1471 0
-848 -1472 0
-849 -1473 0
-847 -955 0
-848 -956 0
-849 -957 0
-847 -1096 0
-848 -1097 0
-849 -1098 0
-847 -1288 0
-848 -1289 0
-849 -1290 0
-847 -1102 0
-848 -1103 0
-849 -1104 0
-850 -1471 0
-851 -1472 0
-852 -1473 0
-850 -955 0
-851 -956 0
-852 -957 0
-850 -1903 0
-851 -1904 0
-852 -1905 0
-853 -1753 0
-854 -1754 0
-855 -1755 0
-853 -1273 0
-854 -1274 0
-855 -1275 0
-856 -1882 0
-857 -1883 0
-858 -1884 0
-856 -1762 0
-857 -1763 0
-858 -1764 0
-856 -1015 0
-857 -1016 0
-858 -1017 0
-856 -1366 0
-857 -1367 0
-858 -1368 0
-859 -1021 0
-860 -1022 0
-861 -1023 0
-859 -1042 0
-860 -1043 0
-861 -1044 0
-862 -1177 0
-863 -1178 0
-864 -1179 0
-862 -982 0
-863 -983 0
-864 -984 0
-862 -1654 0
-863 -1655 0
-864 -1656 0
-865 -931 0
-866 -932 0
-867 -933 0
-865 -1603 0
-866 -1604 0
-867 -1605 0
-865 -1369 0
-866 -1370 0
-867 -1371 0
-868 -1600 0
-869 -1601 0
-870 -1602 0
-868 -1603 0
-869 -1604 0
-870 -1605 0
-868 -934 0
-869 -935 0
-870 -936 0
-868 -1303 0
-869 -1304 0
-870 -1305 0
-871 -2089 0
-872 -2090 0
-873 -2091 0
-871 -1300 0
-872 -1301 0
-873 -1302 0
-874 -1873 0
-875 -1874 0
-876 -1875 0
-874 -1477 0
-875 -1478 0
-876 -1479 0
-874 -982 0
-875 -983 0
-876 -984 0
-874 -1393 0
-875 -1394 0
-876 -1395 0
-877 -2056 0
-878 -2057 0
-879 -2058 0
-877 -985 0
-878 -986 0
-879 -987 0
-877 -2032 0
-878 -2033 0
-879 -2034 0
-880 -1717 0
-881 -1718 0
-882 -1719 0
-880 -1333 0
-881 -1334 0
-882 -1335 0
-880 -985 0
-881 -986 0
-882 -987 0
-883 -1876 0
-884 -1877 0
-885 -1878 0
-886 -1882 0
-887 -1883 0
-888 -1884 0
-886 -1090 0
-887 -1091 0
-888 -1092 0
-889 -1255 0
-890 -1256 0
-891 -1257 0
-889 -1789 0
-890 -1790 0
-891 -1791 0
-889 -1138 0
-890 -1139 0
-891 -1140 0
-889 -1804 0
-890 -1805 0
-891 -1806 0
-889 -1279 0
-890 -1280 0
-891 -1281 0
-889 -892 0
-890 -893 0
-891 -894 0
-889 -1441 0
-890 -1442 0
-891 -1443 0
-889 -1969 0
-890 -1970 0
-891 -1971 0
-889 -1447 0
-890 -1448 0
-891 -1449 0
-889 -1822 0
-890 -1823 0
-891 -1824 0
-889 -1144 0
-890 -1145 0
-891 -1146 0
-889 -1147 0
-890 -1148 0
-891 -1149 0
-889 -1924 0
-890 -1925 0
-891 -1926 0
-889 -1123 0
-890 -1124 0
-891 -1125 0
-892 -949 0
-893 -950 0
-894 -951 0
-892 -1024 0
-893 -1025 0
-894 -1026 0
-892 -976 0
-893 -977 0
-894 -978 0
-895 -1681 0
-896 -1682 0
-897 -1683 0
-895 -1768 0
-896 -1769 0
-897 -1770 0
-895 -985 0
-896 -986 0
-897 -987 0
-898 -982 0
-899 -983 0
-900 -984 0
-898 -1150 0
-899 -1151 0
-900 -1152 0
-898 -1372 0
-899 -1373 0
-900 -1374 0
-901 -904 0
-902 -905 0
-903 -906 0
-901 -1006 0
-902 -1007 0
-903 -1008 0
-904 -1603 0
-905 -1604 0
-906 -1605 0
-907 -1891 0
-908 -1892 0
-909 -1893 0
-907 -1738 0
-908 -1739 0
-909 -1740 0
-907 -1666 0
-908 -1667 0
-909 -1668 0
-910 -913 0
-911 -914 0
-912 -915 0
-913 -1669 0
-914 -1670 0
-915 -1671 0
-913 -1603 0
-914 -1604 0
-915 -1605 0
-913 -1819 0
-914 -1820 0
-915 -1821 0
-916 -2017 0
-917 -2018 0
-918 -2019 0
-916 -1036 0
-917 -1037 0
-918 -1038 0
-919 -1228 0
-920 -1229 0
-921 -1230 0
-919 -1015 0
-920 -1016 0
-921 -1017 0
-919 -1366 0
-920 -1367 0
-921 -1368 0
-922 -961 0
-923 -962 0
-924 -963 0
-925 -964 0
-926 -965 0
-927 -966 0
-925 -994 0
-926 -995 0
-927 -996 0
-925 -1021 0
-926 -1022 0
-927 -1023 0
-937 -2002 0
-938 -2003 0
-939 -2004 0
-937 -1426 0
-938 -1427 0
-939 -1428 0
-937 -2065 0
-938 -2066 0
-939 -2067 0
-940 -1318 0
-941 -1319 0
-942 -1320 0
-940 -1321 0
-941 -1322 0
-942 -1323 0
-940 -1153 0
-941 -1154 0
-942 -1155 0
-943 -1159 0
-944 -1160 0
-945 -1161 0
-943 -2035 0
-944 -2036 0
-945 -2037 0
-946 -1156 0
-947 -1157 0
-948 -1158 0
-946 -1330 0
-947 -1331 0
-948 -1332 0
-946 -1009 0
-947 -1010 0
-948 -1011 0
-949 -1144 0
-950 -1145 0
-951 -1146 0
-949 -1324 0
-950 -1325 0
-951 -1326 0
-952 -1702 0
-953 -1703 0
-954 -1704 0
-952 -1153 0
-953 -1154 0
-954 -1155 0
-952 -1651 0
-953 -1652 0
-954 -1653 0
-952 -1738 0
-953 -1739 0
-954 -1740 0
-952 -1195 0
-953 -1196 0
-954 -1197 0
-955 -958 0
-956 -959 0
-957 -960 0
-955 -1057 0
-956 -1058 0
-957 -1059 0
-955 -1060 0
-956 -1061 0
-957 -1062 0
-958 -1648 0
-959 -1649 0
-960 -1650 0
-958 -1864 0
-959 -1865 0
-960 -1866 0
-958 -2038 0
-959 -2039 0
-960 -2040 0
-958 -1342 0
-959 -1343 0
-960 -1344 0
-958 -1996 0
-959 -1997 0
-960 -1998 0
-961 -1504 0
-962 -1505 0
-963 -1506 0
-961 -1621 0
-962 -1622 0
-963 -1623 0
-961 -1507 0
-962 -1508 0
-963 -1509 0
-964 -1597 0
-965 -1598 0
-966 -1599 0
-964 -1405 0
-965 -1406 0
-966 -1407 0
-964 -1417 0
-965 -1418 0
-966 -1419 0
-967 -2026 0
-968 -2027 0
-969 -2028 0
-967 -2065 0
-968 -2066 0
-969 -2067 0
-967 -1735 0
-968 -1736 0
-969 -1737 0
-970 -2053 0
-971 -2054 0
-972 -2055 0
-970 -1540 0
-971 -1541 0
-972 -1542 0
-970 -1015 0
-971 -1016 0
-972 -1017 0
-970 -1384 0
-971 -1385 0
-972 -1386 0
-970 -1387 0
-971 -1388 0
-972 -1389 0
-970 -1132 0
-971 -1133 0
-972 -1134 0
-973 -1705 0
-974 -1706 0
-975 -1707 0
-973 -1687 0
-974 -1688 0
-975 -1689 0
-973 -1690 0
-974 -1691 0
-975 -1692 0
-973 -1411 0
-974 -1412 0
-975 -1413 0
-976 -2059 0
-977 -2060 0
-978 -2061 0
-976 -1636 0
-977 -1637 0
-978 -1638 0
-979 -1975 0
-980 -1976 0
-981 -1977 0
-979 -1402 0
-980 -1403 0
-981 -1404 0
-979 -982 0
-980 -983 0
-981 -984 0
-979 -1270 0
-980 -1271 0
-981 -1272 0
-982 -1054 0
-983 -1055 0
-984 -1056 0
-982 -1012 0
-983 -1013 0
-984 -1014 0
-982 -1039 0
-983 -1040 0
-984 -1041 0
-982 -1030 0
-983 -1031 0
-984 -1032 0
-985 -1054 0
-986 -1055 0
-987 -1056 0
-985 -1027 0
-986 -1028 0
-987 -1029 0
-988 -1129 0
-989 -1130 0
-990 -1131 0
-988 -1351 0
-989 -1352 0
-990 -1353 0
-988 -1009 0
-989 -1010 0
-990 -1011 0
-988 -1132 0
-989 -1133 0
-990 -1134 0
-991 -1378 0
-992 -1379 0
-993 -1380 0
-991 -2020 0
-992 -2021 0
-993 -2022 0
-991 -1531 0
-992 -1532 0
-993 -1533 0
-991 -1735 0
-992 -1736 0
-993 -1737 0
-994 -1159 0
-995 -1160 0
-996 -1161 0
-997 -2086 0
-998 -2087 0
-999 -2088 0
-997 -1621 0
-998 -1622 0
-999 -1623 0
-997 -1036 0
-998 -1037 0
-999 -1038 0
-1000 -1789 0
-1001 -1790 0
-1002 -1791 0
-1000 -1003 0
-1001 -1004 0
-1002 -1005 0
-1000 -1240 0
-1001 -1241 0
-1002 -1242 0
-1000 -1219 0
-1001 -1220 0
-1002 -1221 0
-1003 -1057 0
-1004 -1058 0
-1005 -1059 0
-1006 -1399 0
-1007 -1400 0
-1008 -1401 0
-1006 -1813 0
-1007 -1814 0
-1008 -1815 0
-1012 -1432 0
-1013 -1433 0
-1014 -1434 0
-1012 -1270 0
-1013 -1271 0
-1014 -1272 0
-1012 -1273 0
-1013 -1274 0
-1014 -1275 0
-1012 -1828 0
-1013 -1829 0
-1014 -1830 0
-1015 -1051 0
-1016 -1052 0
-1017 -1053 0
-1015 -1060 0
-1016 -1061 0
-1017 -1062 0
-1018 -1063 0
-1019 -1064 0
-1020 -1065 0
-1021 -1597 0
-1022 -1598 0
-1023 -1599 0
-1021 -1591 0
-1022 -1592 0
-1023 -1593 0
-1024 -1162 0
-1025 -1163 0
-1026 -1164 0
-1024 -1441 0
-1025 -1442 0
-1026 -1443 0
-1024 -1888 0
-1025 -1889 0
-1026 -1890 0
-1027 -1768 0
-1028 -1769 0
-1029 -1770 0
-1027 -1636 0
-1028 -1637 0
-1029 -1638 0
-1027 -1639 0
-1028 -1640 0
-1029 -1641 0
-1027 -1564 0
-1028 -1565 0
-1029 -1566 0
-1027 -1960 0
-1028 -1961 0
-1029 -1962 0
-1030 -1399 0
-1031 -1400 0
-1032 -1401 0
-1030 -1141 0
-1031 -1142 0
-1032 -1143 0
-1030 -1150 0
-1031 -1151 0
-1032 -1152 0
-1030 -1393 0
-1031 -1394 0
-1032 -1395 0
-1033 -2002 0
-1034 -2003 0
-1035 -2004 0
-1033 -1879 0
-1034 -1880 0
-1035 -1881 0
-1033 -1036 0
-1034 -1037 0
-1035 -1038 0
-1036 -1045 0
-1037 -1046 0
-1038 -1047 0
-1036 -1048 0
-1037 -1049 0
-1038 -1050 0
-1036 -1063 0
-1037 -1064 0
-1038 -1065 0
-1039 -1519 0
-1040 -1520 0
-1041 -1521 0
-1039 -1972 0
-1040 -1973 0
-1041 -1974 0
-1039 -1135 0
-1040 -1136 0
-1041 -1137 0
-1042 -1159 0
-1043 -1160 0
-1044 -1161 0
-1042 -2035 0
-1043 -2036 0
-1044 -2037 0
-1045 -1657 0
-1046 -1658 0
-1047 -1659 0
-1045 -1252 0
-1046 -1253 0
-1047 -1254 0
-1045 -1204 0
-1046 -1205 0
-1047 -1206 0
-1045 -1267 0
-1046 -1268 0
-1047 -1269 0
-1045 -1390 0
-1046 -1391 0
-1047 -1392 0
-1045 -1276 0
-1046 -1277 0
-1047 -1278 0
-1048 -1693 0
-1049 -1694 0
-1050 -1695 0
-1048 -1879 0
-1049 -1880 0
-1050 -1881 0
-1051 -2032 0
-1052 -2033 0
-1053 -2034 0
-1054 -1519 0
-1055 -1520 0
-1056 -1521 0
-1054 -1975 0
-1055 -1976 0
-1056 -1977 0
-1054 -1540 0
-1055 -1541 0
-1056 -1542 0
-1054 -1738 0
-1055 -1739 0
-1056 -1740 0
-1054 -1513 0
-1055 -1514 0
-1056 -1515 0
-1057 -1696 0
-1058 -1697 0
-1059 -1698 0
-1060 -1834 0
-1061 -1835 0
-1062 -1836 0
-1063 -1660 0
-1064 -1661 0
-1065 -1662 0
-1066 -1978 0
-1067 -1979 0
-1068 -1980 0
-1072 -1978 0
-1073 -1979 0
-1074 -1980 0
-1075 -1171 0
-1076 -1172 0
-1077 -1173 0
-1078 -1534 0
-1079 -1535 0
-1080 -1536 0
-1078 -1189 0
-1079 -1190 0
-1080 -1191 0
-1081 -1219 0
-1082 -1220 0
-1083 -1221 0
-1081 -1183 0
-1082 -1184 0
-1083 -1185 0
-1081 -1165 0
-1082 -1166 0
-1083 -1167 0
-1081 -1240 0
-1082 -1241 0
-1083 -1242 0
-1081 -1168 0
-1082 -1169 0
-1083 -1170 0
-1081 -1462 0
-1082 -1463 0
-1083 -1464 0
-1084 -1978 0
-1085 -1979 0
-1086 -1980 0
-1090 -1228 0
-1091 -1229 0
-1092 -1230 0
-1090 -1180 0
-1091 -1181 0
-1092 -1182 0
-1093 -1588 0
-1094 -1589 0
-1095 -1590 0
-1093 -1579 0
-1094 -1580 0
-1095 -1581 0
-1093 -1543 0
-1094 -1544 0
-1095 -1545 0
-1093 -1564 0
-1094 -1565 0
-1095 -1566 0
-1096 -1645 0
-1097 -1646 0
-1098 -1647 0
-1096 -1561 0
-1097 -1562 0
-1098 -1563 0
-1099 -1174 0
-1100 -1175 0
-1101 -1176 0
-1099 -1186 0
-1100 -1187 0
-1101 -1188 0
-1102 -1195 0
-1103 -1196 0
-1104 -1197 0
-1102 -1297 0
-1103 -1298 0
-1104 -1299 0
-1108 -1558 0
-1109 -1559 0
-1110 -1560 0
-1111 -1198 0
-1112 -1199 0
-1113 -1200 0
-1111 -1192 0
-1112 -1193 0
-1113 -1194 0
-1111 -1246 0
-1112 -1247 0
-1113 -1248 0
-1117 -1504 0
-1118 -1505 0
-1119 -1506 0
-1120 -1933 0
-1121 -1934 0
-1122 -1935 0
-1120 -1417 0
-1121 -1418 0
-1122 -1419 0
-1120 -1654 0
-1121 -1655 0
-1122 -1656 0
-1123 -1243 0
-1124 -1244 0
-1125 -1245 0
-1123 -1573 0
-1124 -1574 0
-1125 -1575 0
-1123 -1600 0
-1124 -1601 0
-1125 -1602 0
-1123 -1213 0
-1124 -1214 0
-1125 -1215 0
-1129 -1258 0
-1130 -1259 0
-1131 -1260 0
-1129 -1225 0
-1130 -1226 0
-1131 -1227 0
-1129 -1231 0
-1130 -1232 0
-1131 -1233 0
-1129 -1249 0
-1130 -1250 0
-1131 -1251 0
-1132 -1252 0
-1133 -1253 0
-1134 -1254 0
-1132 -1237 0
-1133 -1238 0
-1134 -1239 0
-1132 -1276 0
-1133 -1277 0
-1134 -1278 0
-1135 -1804 0
-1136 -1805 0
-1137 -1806 0
-1135 -1441 0
-1136 -1442 0
-1137 -1443 0
-1138 -1687 0
-1139 -1688 0
-1140 -1689 0
-1138 -1678 0
-1139 -1679 0
-1140 -1680 0
-1141 -1255 0
-1142 -1256 0
-1143 -1257 0
-1144 -1234 0
-1145 -1235 0
-1146 -1236 0
-1150 -1333 0
-1151 -1334 0
-1152 -1335 0
-1150 -1261 0
-1151 -1262 0
-1152 -1263 0
-1153 -1204 0
-1154 -1205 0
-1155 -1206 0
-1156 -1270 0
-1157 -1271 0
-1158 -1272 0
-1156 -1273 0
-1157 -1274 0
-1158 -1275 0
-1168 -1804 0
-1169 -1805 0
-1170 -1806 0
-1168 -1486 0
-1169 -1487 0
-1170 -1488 0
-1171 -1465 0
-1172 -1466 0
-1173 -1467 0
-1171 -1468 0
-1172 -1469 0
-1173 -1470 0
-1171 -1480 0
-1172 -1481 0
-1173 -1482 0
-1174 -1951 0
-1175 -1952 0
-1176 -1953 0
-1177 -1216 0
-1178 -1217 0
-1179 -1218 0
-1180 -1414 0
-1181 -1415 0
-1182 -1416 0
-1183 -1192 0
-1184 -1193 0
-1185 -1194 0
-1186 -1222 0
-1187 -1223 0
-1188 -1224 0
-1186 -1264 0
-1187 -1265 0
-1188 -1266 0
-1189 -1693 0
-1190 -1694 0
-1191 -1695 0
-1189 -1621 0
-1190 -1622 0
-1191 -1623 0
-1192 -1702 0
-1193 -1703 0
-1194 -1704 0
-1195 -2005 0
-1196 -2006 0
-1197 -2007 0
-1195 -1204 0
-1196 -1205 0
-1197 -1206 0
-1195 -1267 0
-1196 -1268 0
-1197 -1269 0
-1198 -1291 0
-1199 -1292 0
-1200 -1293 0
-1198 -1450 0
-1199 -1451 0
-1200 -1452 0
-1201 -1462 0
-1202 -1463 0
-1203 -1464 0
-1201 -1459 0
-1202 -1460 0
-1203 -1461 0
-1207 -1318 0
-1208 -1319 0
-1209 -1320 0
-1207 -1321 0
-1208 -1322 0
-1209 -1323 0
-1210 -1294 0
-1211 -1295 0
-1212 -1296 0
-1210 -1306 0
-1211 -1307 0
-1212 -1308 0
-1213 -1576 0
-1214 -1577 0
-1215 -1578 0
-1213 -1348 0
-1214 -1349 0
-1215 -1350 0
-1213 -1822 0
-1214 -1823 0
-1215 -1824 0
-1216 -1642 0
-1217 -1643 0
-1218 -1644 0
-1216 -1654 0
-1217 -1655 0
-1218 -1656 0
-1219 -1471 0
-1220 -1472 0
-1221 -1473 0
-1219 -1474 0
-1220 -1475 0
-1221 -1476 0
-1219 -1288 0
-1220 -1289 0
-1221 -1290 0
-1222 -1387 0
-1223 -1388 0
-1224 -1389 0
-1225 -1327 0
-1226 -1328 0
-1227 -1329 0
-1225 -1798 0
-1226 -1799 0
-1227 -1800 0
-1228 -2092 0
-1229 -2093 0
-1230 -2094 0
-1228 -1303 0
-1229 -1304 0
-1230 -1305 0
-1231 -1630 0
-1232 -1631 0
-1233 -1632 0
-1231 -1549 0
-1232 -1550 0
-1233 -1551 0
-1234 -1279 0
-1235 -1280 0
-1236 -1281 0
-1234 -1324 0
-1235 -1325 0
-1236 -1326 0
-1237 -1567 0
-1238 -1568 0
-1239 -1569 0
-1240 -1309 0
-1241 -1310 0
-1242 -1311 0
-1243 -1312 0
-1244 -1313 0
-1245 -1314 0
-1246 -1438 0
-1247 -1439 0
-1248 -1440 0
-1246 -1705 0
-1247 -1706 0
-1248 -1707 0
-1246 -1690 0
-1247 -1691 0
-1248 -1692 0
-1249 -1351 0
-1250 -1352 0
-1251 -1353 0
-1249 -1435 0
-1250 -1436 0
-1251 -1437 0
-1252 -1384 0
-1253 -1385 0
-1254 -1386 0
-1252 -1351 0
-1253 -1352 0
-1254 -1353 0
-1255 -1393 0
-1256 -1394 0
-1257 -1395 0
-1255 -1345 0
-1256 -1346 0
-1257 -1347 0
-1258 -1444 0
-1259 -1445 0
-1260 -1446 0
-1261 -1456 0
-1262 -1457 0
-1263 -1458 0
-1261 -1372 0
-1262 -1373 0
-1263 -1374 0
-1264 -1282 0
-1265 -1283 0
-1266 -1284 0
-1264 -1291 0
-1265 -1292 0
-1266 -1293 0
-1267 -1285 0
-1268 -1286 0
-1269 -1287 0
-1267 -1411 0
-1268 -1412 0
-1269 -1413 0
-1270 -1360 0
-1271 -1361 0
-1272 -1362 0
-1273 -1330 0
-1274 -1331 0
-1275 -1332 0
-1273 -1819 0
-1274 -1820 0
-1275 -1821 0
-1279 -1381 0
-1280 -1382 0
-1281 -1383 0
-1279 -1573 0
-1280 -1574 0
-1281 -1575 0
-1279 -1345 0
-1280 -1346 0
-1281 -1347 0
-1279 -1369 0
-1280 -1370 0
-1281 -1371 0
-1282 -1396 0
-1283 -1397 0
-1284 -1398 0
-1285 -1657 0
-1286 -1658 0
-1287 -1659 0
-1288 -1459 0
-1289 -1460 0
-1290 -1461 0
-1291 -1456 0
-1292 -1457 0
-1293 -1458 0
-1294 -1378 0
-1295 -1379 0
-1296 -1380 0
-1297 -1471 0
-1298 -1472 0
-1299 -1473 0
-1297 -1885 0
-1298 -1886 0
-1299 -1887 0
-1297 -1795 0
-1298 -1796 0
-1299 -1797 0
-1300 -1468 0
-1301 -1469 0
-1302 -1470 0
-1300 -1942 0
-1301 -1943 0
-1302 -1944 0
-1303 -1366 0
-1304 -1367 0
-1305 -1368 0
-1306 -1942 0
-1307 -1943 0
-1308 -1944 0
-1309 -1834 0
-1310 -1835 0
-1311 -1836 0
-1309 -1492 0
-1310 -1493 0
-1311 -1494 0
-1315 -1339 0
-1316 -1340 0
-1317 -1341 0
-1315 -1354 0
-1316 -1355 0
-1317 -1356 0
-1318 -1426 0
-1319 -1427 0
-1320 -1428 0
-1321 -1390 0
-1322 -1391 0
-1323 -1392 0
-1321 -1363 0
-1322 -1364 0
-1323 -1365 0
-1324 -1525 0
-1325 -1526 0
-1326 -1527 0
-1327 -1348 0
-1328 -1349 0
-1329 -1350 0
-1327 -1375 0
-1328 -1376 0
-1329 -1377 0
-1330 -1828 0
-1331 -1829 0
-1332 -1830 0
-1333 -1399 0
-1334 -1400 0
-1335 -1401 0
-1336 -2011 0
-1337 -2012 0
-1338 -2013 0
-1336 -1456 0
-1337 -1457 0
-1338 -1458 0
-1339 -1507 0
-1340 -1508 0
-1341 -1509 0
-1342 -1459 0
-1343 -1460 0
-1344 -1461 0
-1342 -1666 0
-1343 -1667 0
-1344 -1668 0
-1348 -1663 0
-1349 -1664 0
-1350 -1665 0
-1348 -1408 0
-1349 -1409 0
-1350 -1410 0
-1351 -1531 0
-1352 -1532 0
-1353 -1533 0
-1354 -1483 0
-1355 -1484 0
-1356 -1485 0
-1354 -1489 0
-1355 -1490 0
-1356 -1491 0
-1357 -1420 0
-1358 -1421 0
-1359 -1422 0
-1357 -1405 0
-1358 -1406 0
-1359 -1407 0
-1357 -1417 0
-1358 -1418 0
-1359 -1419 0
-1360 -1552 0
-1361 -1553 0
-1362 -1554 0
-1360 -1402 0
-1361 -1403 0
-1362 -1404 0
-1360 -1429 0
-1361 -1430 0
-1362 -1431 0
-1360 -1432 0
-1361 -1433 0
-1362 -1434 0
-1363 -2080 0
-1364 -2081 0
-1365 -2082 0
-1366 -1669 0
-1367 -1670 0
-1368 -1671 0
-1366 -1603 0
-1367 -1604 0
-1368 -1605 0
-1369 -1969 0
-1370 -1970 0
-1371 -1971 0
-1372 -1729 0
-1373 -1730 0
-1374 -1731 0
-1372 -1546 0
-1373 -1547 0
-1374 -1548 0
-1375 -1759 0
-1376 -1760 0
-1377 -1761 0
-1375 -1825 0
-1376 -1826 0
-1377 -1827 0
-1378 -1414 0
-1379 -1415 0
-1380 -1416 0
-1381 -1876 0
-1382 -1877 0
-1383 -1878 0
-1384 -1861 0
-1385 -1862 0
-1386 -1863 0
-1390 -1564 0
-1391 -1565 0
-1392 -1566 0
-1393 -1441 0
-1394 -1442 0
-1395 -1443 0
-1396 -1813 0
-1397 -1814 0
-1398 -1815 0
-1399 -1717 0
-1400 -1718 0
-1401 -1719 0
-1399 -1909 0
-1400 -1910 0
-1401 -1911 0
-1402 -1963 0
-1403 -1964 0
-1404 -1965 0
-1402 -1474 0
-1403 -1475 0
-1404 -1476 0
-1405 -1510 0
-1406 -1511 0
-1407 -1512 0
-1408 -1870 0
-1409 -1871 0
-1410 -1872 0
-1408 -1552 0
-1409 -1553 0
-1410 -1554 0
-1408 -1555 0
-1409 -1556 0
-1410 -1557 0
-1414 -1771 0
-1415 -1772 0
-1416 -1773 0
-1414 -1735 0
-1415 -1736 0
-1416 -1737 0
-1420 -1618 0
-1421 -1619 0
-1422 -1620 0
-1423 -1465 0
-1424 -1466 0
-1425 -1467 0
-1423 -2047 0
-1424 -2048 0
-1425 -2049 0
-1429 -1498 0
-1430 -1499 0
-1431 -1500 0
-1429 -1501 0
-1430 -1502 0
-1431 -1503 0
-1429 -1453 0
-1430 -1454 0
-1431 -1455 0
-1432 -2083 0
-1433 -2084 0
-1434 -2085 0
-1435 -1807 0
-1436 -1808 0
-1437 -1809 0
-1438 -1855 0
-1439 -1856 0
-1440 -1857 0
-1441 -1519 0
-1442 -1520 0
-1443 -1521 0
-1441 -1477 0
-1442 -1478 0
-1443 -1479 0
-1441 -1513 0
-1442 -1514 0
-1443 -1515 0
-1444 -1447 0
-1445 -1448 0
-1446 -1449 0
-1447 -1684 0
-1448 -1685 0
-1449 -1686 0
-1447 -1651 0
-1448 -1652 0
-1449 -1653 0
-1447 -1711 0
-1448 -1712 0
-1449 -1713 0
-1450 -1807 0
-1451 -1808 0
-1452 -1809 0
-1450 -1990 0
-1451 -1991 0
-1452 -1992 0
-1450 -1456 0
-1451 -1457 0
-1452 -1458 0
-1459 -1837 0
-1460 -1838 0
-1461 -1839 0
-1462 -1774 0
-1463 -1775 0
-1464 -1776 0
-1465 -1759 0
-1466 -1760 0
-1467 -1761 0
-1465 -1810 0
-1466 -1811 0
-1467 -1812 0
-1468 -2044 0
-1469 -2045 0
-1470 -2046 0
-1471 -1660 0
-1472 -1661 0
-1473 -1662 0
-1471 -1645 0
-1472 -1646 0
-1473 -1647 0
-1480 -1534 0
-1481 -1535 0
-1482 -1536 0
-1483 -1846 0
-1484 -1847 0
-1485 -1848 0
-1486 -1651 0
-1487 -1652 0
-1488 -1653 0
-1489 -1585 0
-1490 -1586 0
-1491 -1587 0
-1492 -1522 0
-1493 -1523 0
-1494 -1524 0
-1492 -1774 0
-1493 -1775 0
-1494 -1776 0
-1495 -1831 0
-1496 -1832 0
-1497 -1833 0
-1495 -1528 0
-1496 -1529 0
-1497 -1530 0
-1495 -1570 0
-1496 -1571 0
-1497 -1572 0
-1498 -1798 0
-1499 -1799 0
-1500 -1800 0
-1501 -1555 0
-1502 -1556 0
-1503 -1557 0
-1504 -1939 0
-1505 -1940 0
-1506 -1941 0
-1504 -1765 0
-1505 -1766 0
-1506 -1767 0
-1507 -1765 0
-1508 -1766 0
-1509 -1767 0
-1510 -1597 0
-1511 -1598 0
-1512 -1599 0
-1510 -1582 0
-1511 -1583 0
-1512 -1584 0
-1510 -1591 0
-1511 -1592 0
-1512 -1593 0
-1513 -1648 0
-1514 -1649 0
-1515 -1650 0
-1513 -1546 0
-1514 -1547 0
-1515 -1548 0
-1516 -1522 0
-1517 -1523 0
-1518 -1524 0
-1519 -1789 0
-1520 -1790 0
-1521 -1791 0
-1519 -1888 0
-1520 -1889 0
-1521 -1890 0
-1522 -1957 0
-1523 -1958 0
-1524 -1959 0
-1525 -1828 0
-1526 -1829 0
-1527 -1830 0
-1528 -1867 0
-1529 -1868 0
-1530 -1869 0
-1534 -1642 0
-1535 -1643 0
-1536 -1644 0
-1540 -1660 0
-1541 -1661 0
-1542 -1662 0
-1540 -1648 0
-1541 -1649 0
-1542 -1650 0
-1540 -1696 0
-1541 -1697 0
-1542 -1698 0
-1546 -1681 0
-1547 -1682 0
-1548 -1683 0
-1546 -1609 0
-1547 -1610 0
-1548 -1611 0
-1546 -1612 0
-1547 -1613 0
-1548 -1614 0
-1549 -1801 0
-1550 -1802 0
-1551 -1803 0
-1552 -1630 0
-1553 -1631 0
-1554 -1632 0
-1555 -1675 0
-1556 -1676 0
-1557 -1677 0
-1555 -1825 0
-1556 -1826 0
-1557 -1827 0
-1558 -1708 0
-1559 -1709 0
-1560 -1710 0
-1558 -1699 0
-1559 -1700 0
-1560 -1701 0
-1561 -1834 0
-1562 -1835 0
-1563 -1836 0
-1564 -1657 0
-1565 -1658 0
-1566 -1659 0
-1564 -1849 0
-1565 -1850 0
-1566 -1851 0
-1567 -1645 0
-1568 -1646 0
-1569 -1647 0
-1570 -1714 0
-1571 -1715 0
-1572 -1716 0
-1576 -1801 0
-1577 -1802 0
-1578 -1803 0
-1579 -2104 0
-1580 -2105 0
-1581 -2106 0
-1579 -1948 0
-1580 -1949 0
-1581 -1950 0
-1582 -1606 0
-1583 -1607 0
-1584 -1608 0
-1585 -2062 0
-1586 -2063 0
-1587 -2064 0
-1588 -1945 0
-1589 -1946 0
-1590 -1947 0
-1591 -1858 0
-1592 -1859 0
-1593 -1860 0
-1594 -2041 0
-1595 -2042 0
-1596 -2043 0
-1594 -2062 0
-1595 -2063 0
-1596 -2064 0
-1600 -1924 0
-1601 -1925 0
-1602 -1926 0
-1603 -1882 0
-1604 -1883 0
-1605 -1884 0
-1603 -1924 0
-1604 -1925 0
-1605 -1926 0
-1603 -1969 0
-1604 -1970 0
-1605 -1971 0
-1615 -1945 0
-1616 -1946 0
-1617 -1947 0
-1618 -2050 0
-1619 -2051 0
-1620 -2052 0
-1621 -1939 0
-1622 -1940 0
-1623 -1941 0
-1630 -1897 0
-1631 -1898 0
-1632 -1899 0
-1639 -1816 0
-1640 -1817 0
-1641 -1818 0
-1639 -1822 0
-1640 -1823 0
-1641 -1824 0
-1639 -1699 0
-1640 -1700 0
-1641 -1701 0
-1645 -1987 0
-1646 -1988 0
-1647 -1989 0
-1645 -1903 0
-1646 -1904 0
-1647 -1905 0
-1648 -2053 0
-1649 -2054 0
-1650 -2055 0
-1648 -1885 0
-1649 -1886 0
-1650 -1887 0
-1648 -1795 0
-1649 -1796 0
-1650 -1797 0
-1648 -1927 0
-1649 -1928 0
-1650 -1929 0
-1660 -1966 0
-1661 -1967 0
-1662 -1968 0
-1660 -1885 0
-1661 -1886 0
-1662 -1887 0
-1663 -1912 0
-1664 -1913 0
-1665 -1914 0
-1666 -1840 0
-1667 -1841 0
-1668 -1842 0
-1666 -2038 0
-1667 -2039 0
-1668 -2040 0
-1666 -1780 0
-1667 -1781 0
-1668 -1782 0
-1669 -1762 0
-1670 -1763 0
-1671 -1764 0
-1672 -2080 0
-1673 -2081 0
-1674 -2082 0
-1675 -1852 0
-1676 -1853 0
-1677 -1854 0
-1675 -1957 0
-1676 -1958 0
-1677 -1959 0
-1675 -1711 0
-1676 -1712 0
-1677 -1713 0
-1678 -1936 0
-1679 -1937 0
-1680 -1938 0
-1678 -1948 0
-1679 -1949 0
-1680 -1950 0
-1681 -1999 0
-1682 -2000 0
-1683 -2001 0
-1687 -1921 0
-1688 -1922 0
-1689 -1923 0
-1687 -1783 0
-1688 -1784 0
-1689 -1785 0
-1690 -1783 0
-1691 -1784 0
-1692 -1785 0
-1696 -1837 0
-1697 -1838 0
-1698 -1839 0
-1696 -1975 0
-1697 -1976 0
-1698 -1977 0
-1699 -2083 0
-1700 -2084 0
-1701 -2085 0
-1702 -1708 0
-1703 -1709 0
-1704 -1710 0
-1705 -1768 0
-1706 -1769 0
-1707 -1770 0
-1708 -1738 0
-1709 -1739 0
-1710 -1740 0
-1711 -1921 0
-1712 -1922 0
-1713 -1923 0
-1714 -1930 0
-1715 -1931 0
-1716 -1932 0
-1714 -1966 0
-1715 -1967 0
-1716 -1968 0
-1717 -1813 0
-1718 -1814 0
-1719 -1815 0
-1720 -1975 0
-1721 -1976 0
-1722 -1977 0
-1723 -2095 0
-1724 -2096 0
-1725 -2097 0
-1723 -1780 0
-1724 -1781 0
-1725 -1782 0
-1732 -2101 0
-1733 -2102 0
-1734 -2103 0
-1738 -2005 0
-1739 -2006 0
-1740 -2007 0
-1738 -2038 0
-1739 -2039 0
-1740 -2040 0
-1738 -1789 0
-1739 -1790 0
-1740 -1791 0
-1744 -1792 0
-1745 -1793 0
-1746 -1794 0
-1750 -1864 0
-1751 -1865 0
-1752 -1866 0
-1750 -1774 0
-1751 -1775 0
-1752 -1776 0
-1753 -1984 0
-1754 -1985 0
-1755 -1986 0
-1753 -1819 0
-1754 -1820 0
-1755 -1821 0
-1756 -1843 0
-1757 -1844 0
-1758 -1845 0
-1759 -2053 0
-1760 -2054 0
-1761 -2055 0
-1759 -1780 0
-1760 -1781 0
-1761 -1782 0
-1762 -1915 0
-1763 -1916 0
-1764 -1917 0
-1768 -1999 0
-1769 -2000 0
-1770 -2001 0
-1771 -1951 0
-1772 -1952 0
-1773 -1953 0
-1777 -1912 0
-1778 -1913 0
-1779 -1914 0
-1777 -1813 0
-1778 -1814 0
-1779 -1815 0
-1786 -1960 0
-1787 -1961 0
-1788 -1962 0
-1795 -1996 0
-1796 -1997 0
-1797 -1998 0
-1801 -1912 0
-1802 -1913 0
-1803 -1914 0
-1810 -1894 0
-1811 -1895 0
-1812 -1896 0
-1810 -1954 0
-1811 -1955 0
-1812 -1956 0
-1816 -2098 0
-1817 -2099 0
-1818 -2100 0
-1822 -2056 0
-1823 -2057 0
-1824 -2058 0
-1825 -1897 0
-1826 -1898 0
-1827 -1899 0
-1831 -1909 0
-1832 -1910 0
-1833 -1911 0
-1834 -1891 0
-1835 -1892 0
-1836 -1893 0
-1840 -1891 0
-1841 -1892 0
-1842 -1893 0
-1843 -2074 0
-1844 -2075 0
-1845 -2076 0
-1843 -1906 0
-1844 -1907 0
-1845 -1908 0
-1846 -2071 0
-1847 -2072 0
-1848 -2073 0
-1846 -1915 0
-1847 -1916 0
-1848 -1917 0
-1849 -1930 0
-1850 -1931 0
-1851 -1932 0
-1849 -1960 0
-1850 -1961 0
-1851 -1962 0
-1852 -1894 0
-1853 -1895 0
-1854 -1896 0
-1855 -1876 0
-1856 -1877 0
-1857 -1878 0
-1858 -1900 0
-1859 -1901 0
-1860 -1902 0
-1861 -2053 0
-1862 -2054 0
-1863 -2055 0
-1864 -1927 0
-1865 -1928 0
-1866 -1929 0
-1870 -1954 0
-1871 -1955 0
-1872 -1956 0
-1873 -1963 0
-1874 -1964 0
-1875 -1965 0
-1879 -2089 0
-1880 -2090 0
-1881 -2091 0
-1885 -2107 0
-1886 -2108 0
-1887 -2109 0
-1888 -1972 0
-1889 -1973 0
-1890 -1974 0
-1906 -2044 0
-1907 -2045 0
-1908 -2046 0
-1918 -2065 0
-1919 -2066 0
-1920 -2067 0
-1918 -2047 0
-1919 -2048 0
-1920 -2049 0
-1936 -2077 0
-1937 -2078 0
-1938 -2079 0
-1939 -2050 0
-1940 -2051 0
-1941 -2052 0
-1939 -2086 0
-1940 -2087 0
-1941 -2088 0
-1942 -2089 0
-1943 -2090 0
-1944 -2091 0
-1954 -2101 0
-1955 -2102 0
-1956 -2103 0
-1957 -2068 0
-1958 -2069 0
-1959 -2070 0
-1963 -1975 0
-1964 -1976 0
-1965 -1977 0
-1963 -1993 0
-1964 -1994 0
-1965 -1995 0
-1975 -2005 0
-1976 -2006 0
-1977 -2007 0
-1981 -2047 0
-1982 -2048 0
-1983 -2049 0
-2008 -2068 0
-2009 -2069 0
-2010 -2070 0
-2035 -2086 0
-2036 -2087 0
-2037 -2088 0
-2035 -2074 0
-2036 -2075 0
-2037 -2076 0
-2098 -2101 0
-2099 -2102 0
-2100 -2103 0
1 0
1091 0
