p cnf 213 523
1 2 3 0
4 5 6 0
7 8 9 0
10 11 12 0
13 14 15 0
16 17 18 0
19 20 21 0
22 23 24 0
25 26 27 0
28 29 30 0
31 32 33 0
34 35 36 0
37 38 39 0
40 41 42 0
43 44 45 0
46 47 48 0
49 50 51 0
52 53 54 0
55 56 57 0
58 59 60 0
61 62 63 0
64 65 66 0
67 68 69 0
70 71 72 0
73 74 75 0
76 77 78 0
79 80 81 0
82 83 84 0
85 86 87 0
88 89 90 0
91 92 93 0
94 95 96 0
97 98 99 0
100 101 102 0
103 104 105 0
106 107 108 0
109 110 111 0
112 113 114 0
115 116 117 0
118 119 120 0
121 122 123 0
124 125 126 0
127 128 129 0
130 131 132 0
133 134 135 0
136 137 138 0
139 140 141 0
142 143 144 0
145 146 147 0
148 149 150 0
151 152 153 0
154 155 156 0
157 158 159 0
160 161 162 0
163 164 165 0
166 167 168 0
169 170 171 0
172 173 174 0
175 176 177 0
178 179 180 0
181 182 183 0
184 185 186 0
187 188 189 0
190 191 192 0
193 194 195 0
196 197 198 0
199 200 201 0
202 203 204 0
205 206 207 0
208 209 210 0
211 212 213 0
-1 -157 0
-2 -158 0
-3 -159 0
-1 -31 0
-2 -32 0
-3 -33 0
-1 -145 0
-2 -146 0
-3 -147 0
-4 -7 0
-5 -8 0
-6 -9 0
-4 -31 0
-5 -32 0
-6 -33 0
-4 -40 0
-5 -41 0
-6 -42 0
-7 -34 0
-8 -35 0
-9 -36 0
-7 -37 0
-8 -38 0
-9 -39 0
-7 -43 0
-8 -44 0
-9 -45 0
-7 -46 0
-8 -47 0
-9 -48 0
-10 -178 0
-11 -179 0
-12 -180 0
-10 -40 0
-11 -41 0
-12 -42 0
-10 -43 0
-11 -44 0
-12 -45 0
-10 -142 0
-11 -143 0
-12 -144 0
-13 -43 0
-14 -44 0
-15 -45 0
-13 -136 0
-14 -137 0
-15 -138 0
-13 -139 0
-14 -140 0
-15 -141 0
-16 -43 0
-17 -44 0
-18 -45 0
-16 -157 0
-17 -158 0
-18 -159 0
-16 -49 0
-17 -50 0
-18 -51 0
-16 -145 0
-17 -146 0
-18 -147 0
-19 -49 0
-20 -50 0
-21 -51 0
-19 -139 0
-20 -140 0
-21 -141 0
-19 -52 0
-20 -53 0
-21 -54 0
-19 -157 0
-20 -158 0
-21 -159 0
-19 -160 0
-20 -161 0
-21 -162 0
-22 -157 0
-23 -158 0
-24 -159 0
-22 -160 0
-23 -161 0
-24 -162 0
-22 -31 0
-23 -32 0
-24 -33 0
-22 -58 0
-23 -59 0
-24 -60 0
-25 -52 0
-26 -53 0
-27 -54 0
-25 -145 0
-26 -146 0
-27 -147 0
-25 -55 0
-26 -56 0
-27 -57 0
-28 -136 0
-29 -137 0
-30 -138 0
-28 -49 0
-29 -50 0
-30 -51 0
-28 -58 0
-29 -59 0
-30 -60 0
-31 -85 0
-32 -86 0
-33 -87 0
-31 -91 0
-32 -92 0
-33 -93 0
-31 -37 0
-32 -38 0
-33 -39 0
-31 -64 0
-32 -65 0
-33 -66 0
-34 -88 0
-35 -89 0
-36 -90 0
-34 -91 0
-35 -92 0
-36 -93 0
-34 -61 0
-35 -62 0
-36 -63 0
-34 -67 0
-35 -68 0
-36 -69 0
-37 -88 0
-38 -89 0
-39 -90 0
-40 -91 0
-41 -92 0
-42 -93 0
-40 -94 0
-41 -95 0
-42 -96 0
-40 -46 0
-41 -47 0
-42 -48 0
-40 -70 0
-41 -71 0
-42 -72 0
-40 -76 0
-41 -77 0
-42 -78 0
-43 -91 0
-44 -92 0
-45 -93 0
-43 -97 0
-44 -98 0
-45 -99 0
-46 -97 0
-47 -98 0
-48 -99 0
-49 -91 0
-50 -92 0
-51 -93 0
-49 -103 0
-50 -104 0
-51 -105 0
-49 -106 0
-50 -107 0
-51 -108 0
-52 -91 0
-53 -92 0
-54 -93 0
-52 -82 0
-53 -83 0
-54 -84 0
-55 -91 0
-56 -92 0
-57 -93 0
-55 -100 0
-56 -101 0
-57 -102 0
-58 -112 0
-59 -113 0
-60 -114 0
-58 -91 0
-59 -92 0
-60 -93 0
-61 -151 0
-62 -152 0
-63 -153 0
-61 -115 0
-62 -116 0
-63 -117 0
-61 -184 0
-62 -185 0
-63 -186 0
-64 -118 0
-65 -119 0
-66 -120 0
-64 -145 0
-65 -146 0
-66 -147 0
-67 -196 0
-68 -197 0
-69 -198 0
-67 -154 0
-68 -155 0
-69 -156 0
-67 -121 0
-68 -122 0
-69 -123 0
-70 -184 0
-71 -185 0
-72 -186 0
-70 -121 0
-71 -122 0
-72 -123 0
-70 -151 0
-71 -152 0
-72 -153 0
-70 -166 0
-71 -167 0
-72 -168 0
-73 -184 0
-74 -185 0
-75 -186 0
-73 -115 0
-74 -116 0
-75 -117 0
-73 -166 0
-74 -167 0
-75 -168 0
-73 -169 0
-74 -170 0
-75 -171 0
-76 -151 0
-77 -152 0
-78 -153 0
-76 -181 0
-77 -182 0
-78 -183 0
-79 -115 0
-80 -116 0
-81 -117 0
-79 -163 0
-80 -164 0
-81 -165 0
-79 -169 0
-80 -170 0
-81 -171 0
-82 -136 0
-83 -137 0
-84 -138 0
-82 -139 0
-83 -140 0
-84 -141 0
-85 -88 0
-86 -89 0
-87 -90 0
-85 -199 0
-86 -200 0
-87 -201 0
-85 -124 0
-86 -125 0
-87 -126 0
-85 -160 0
-86 -161 0
-87 -162 0
-88 -181 0
-89 -182 0
-90 -183 0
-88 -148 0
-89 -149 0
-90 -150 0
-88 -151 0
-89 -152 0
-90 -153 0
-88 -154 0
-89 -155 0
-90 -156 0
-91 -115 0
-92 -116 0
-93 -117 0
-91 -118 0
-92 -119 0
-93 -120 0
-91 -121 0
-92 -122 0
-93 -123 0
-91 -124 0
-92 -125 0
-93 -126 0
-91 -127 0
-92 -128 0
-93 -129 0
-91 -130 0
-92 -131 0
-93 -132 0
-94 -97 0
-95 -98 0
-96 -99 0
-94 -196 0
-95 -197 0
-96 -198 0
-94 -127 0
-95 -128 0
-96 -129 0
-94 -142 0
-95 -143 0
-96 -144 0
-94 -166 0
-95 -167 0
-96 -168 0
-94 -169 0
-95 -170 0
-96 -171 0
-97 -178 0
-98 -179 0
-99 -180 0
-97 -130 0
-98 -131 0
-99 -132 0
-97 -139 0
-98 -140 0
-99 -141 0
-97 -172 0
-98 -173 0
-99 -174 0
-100 -199 0
-101 -200 0
-102 -201 0
-100 -118 0
-101 -119 0
-102 -120 0
-103 -202 0
-104 -203 0
-105 -204 0
-103 -124 0
-104 -125 0
-105 -126 0
-106 -175 0
-107 -176 0
-108 -177 0
-106 -202 0
-107 -203 0
-108 -204 0
-106 -130 0
-107 -131 0
-108 -132 0
-106 -160 0
-107 -161 0
-108 -162 0
-109 -127 0
-110 -128 0
-111 -129 0
-109 -148 0
-110 -149 0
-111 -150 0
-109 -154 0
-110 -155 0
-111 -156 0
-109 -163 0
-110 -164 0
-111 -165 0
-112 -175 0
-113 -176 0
-114 -177 0
-112 -118 0
-113 -119 0
-114 -120 0
-112 -172 0
-113 -173 0
-114 -174 0
-130 -133 0
-131 -134 0
-132 -135 0
-133 -175 0
-134 -176 0
-135 -177 0
-133 -172 0
-134 -173 0
-135 -174 0
-139 -187 0
-140 -188 0
-141 -189 0
-139 -142 0
-140 -143 0
-141 -144 0
-142 -211 0
-143 -212 0
-144 -213 0
-148 -205 0
-149 -206 0
-150 -207 0
-148 -208 0
-149 -209 0
-150 -210 0
-151 -193 0
-152 -194 0
-153 -195 0
-151 -208 0
-152 -209 0
-153 -210 0
-160 -187 0
-161 -188 0
-162 -189 0
-160 -190 0
-161 -191 0
-162 -192 0
-163 -193 0
-164 -194 0
-165 -195 0
-169 -178 0
-170 -179 0
-171 -180 0
-169 -193 0
-170 -194 0
-171 -195 0
-169 -208 0
-170 -209 0
-171 -210 0
-172 -187 0
-173 -188 0
-174 -189 0
-172 -190 0
-173 -191 0
-174 -192 0
-178 -211 0
-179 -212 0
-180 -213 0
-181 -205 0
-182 -206 0
-183 -207 0
-184 -205 0
-185 -206 0
-186 -207 0
-187 -211 0
-188 -212 0
-189 -213 0
-190 -199 0
-191 -200 0
-192 -201 0
-190 -202 0
-191 -203 0
-192 -204 0
-193 -196 0
-194 -197 0
-195 -198 0
-208 -211 0
-209 -212 0
-210 -213 0
1 0
158 0
