p cnf 2448 7220
1 2 3 0
4 5 6 0
7 8 9 0
10 11 12 0
13 14 15 0
16 17 18 0
19 20 21 0
22 23 24 0
25 26 27 0
28 29 30 0
31 32 33 0
34 35 36 0
37 38 39 0
40 41 42 0
43 44 45 0
46 47 48 0
49 50 51 0
52 53 54 0
55 56 57 0
58 59 60 0
61 62 63 0
64 65 66 0
67 68 69 0
70 71 72 0
73 74 75 0
76 77 78 0
79 80 81 0
82 83 84 0
85 86 87 0
88 89 90 0
91 92 93 0
94 95 96 0
97 98 99 0
100 101 102 0
103 104 105 0
106 107 108 0
109 110 111 0
112 113 114 0
115 116 117 0
118 119 120 0
121 122 123 0
124 125 126 0
127 128 129 0
130 131 132 0
133 134 135 0
136 137 138 0
139 140 141 0
142 143 144 0
145 146 147 0
148 149 150 0
151 152 153 0
154 155 156 0
157 158 159 0
160 161 162 0
163 164 165 0
166 167 168 0
169 170 171 0
172 173 174 0
175 176 177 0
178 179 180 0
181 182 183 0
184 185 186 0
187 188 189 0
190 191 192 0
193 194 195 0
196 197 198 0
199 200 201 0
202 203 204 0
205 206 207 0
208 209 210 0
211 212 213 0
214 215 216 0
217 218 219 0
220 221 222 0
223 224 225 0
226 227 228 0
229 230 231 0
232 233 234 0
235 236 237 0
238 239 240 0
241 242 243 0
244 245 246 0
247 248 249 0
250 251 252 0
253 254 255 0
256 257 258 0
259 260 261 0
262 263 264 0
265 266 267 0
268 269 270 0
271 272 273 0
274 275 276 0
277 278 279 0
280 281 282 0
283 284 285 0
286 287 288 0
289 290 291 0
292 293 294 0
295 296 297 0
298 299 300 0
301 302 303 0
304 305 306 0
307 308 309 0
310 311 312 0
313 314 315 0
316 317 318 0
319 320 321 0
322 323 324 0
325 326 327 0
328 329 330 0
331 332 333 0
334 335 336 0
337 338 339 0
340 341 342 0
343 344 345 0
346 347 348 0
349 350 351 0
352 353 354 0
355 356 357 0
358 359 360 0
361 362 363 0
364 365 366 0
367 368 369 0
370 371 372 0
373 374 375 0
376 377 378 0
379 380 381 0
382 383 384 0
385 386 387 0
388 389 390 0
391 392 393 0
394 395 396 0
397 398 399 0
400 401 402 0
403 404 405 0
406 407 408 0
409 410 411 0
412 413 414 0
415 416 417 0
418 419 420 0
421 422 423 0
424 425 426 0
427 428 429 0
430 431 432 0
433 434 435 0
436 437 438 0
439 440 441 0
442 443 444 0
445 446 447 0
448 449 450 0
451 452 453 0
454 455 456 0
457 458 459 0
460 461 462 0
463 464 465 0
466 467 468 0
469 470 471 0
472 473 474 0
475 476 477 0
478 479 480 0
481 482 483 0
484 485 486 0
487 488 489 0
490 491 492 0
493 494 495 0
496 497 498 0
499 500 501 0
502 503 504 0
505 506 507 0
508 509 510 0
511 512 513 0
514 515 516 0
517 518 519 0
520 521 522 0
523 524 525 0
526 527 528 0
529 530 531 0
532 533 534 0
535 536 537 0
538 539 540 0
541 542 543 0
544 545 546 0
547 548 549 0
550 551 552 0
553 554 555 0
556 557 558 0
559 560 561 0
562 563 564 0
565 566 567 0
568 569 570 0
571 572 573 0
574 575 576 0
577 578 579 0
580 581 582 0
583 584 585 0
586 587 588 0
589 590 591 0
592 593 594 0
595 596 597 0
598 599 600 0
601 602 603 0
604 605 606 0
607 608 609 0
610 611 612 0
613 614 615 0
616 617 618 0
619 620 621 0
622 623 624 0
625 626 627 0
628 629 630 0
631 632 633 0
634 635 636 0
637 638 639 0
640 641 642 0
643 644 645 0
646 647 648 0
649 650 651 0
652 653 654 0
655 656 657 0
658 659 660 0
661 662 663 0
664 665 666 0
667 668 669 0
670 671 672 0
673 674 675 0
676 677 678 0
679 680 681 0
682 683 684 0
685 686 687 0
688 689 690 0
691 692 693 0
694 695 696 0
697 698 699 0
700 701 702 0
703 704 705 0
706 707 708 0
709 710 711 0
712 713 714 0
715 716 717 0
718 719 720 0
721 722 723 0
724 725 726 0
727 728 729 0
730 731 732 0
733 734 735 0
736 737 738 0
739 740 741 0
742 743 744 0
745 746 747 0
748 749 750 0
751 752 753 0
754 755 756 0
757 758 759 0
760 761 762 0
763 764 765 0
766 767 768 0
769 770 771 0
772 773 774 0
775 776 777 0
778 779 780 0
781 782 783 0
784 785 786 0
787 788 789 0
790 791 792 0
793 794 795 0
796 797 798 0
799 800 801 0
802 803 804 0
805 806 807 0
808 809 810 0
811 812 813 0
814 815 816 0
817 818 819 0
820 821 822 0
823 824 825 0
826 827 828 0
829 830 831 0
832 833 834 0
835 836 837 0
838 839 840 0
841 842 843 0
844 845 846 0
847 848 849 0
850 851 852 0
853 854 855 0
856 857 858 0
859 860 861 0
862 863 864 0
865 866 867 0
868 869 870 0
871 872 873 0
874 875 876 0
877 878 879 0
880 881 882 0
883 884 885 0
886 887 888 0
889 890 891 0
892 893 894 0
895 896 897 0
898 899 900 0
901 902 903 0
904 905 906 0
907 908 909 0
910 911 912 0
913 914 915 0
916 917 918 0
919 920 921 0
922 923 924 0
925 926 927 0
928 929 930 0
931 932 933 0
934 935 936 0
937 938 939 0
940 941 942 0
943 944 945 0
946 947 948 0
949 950 951 0
952 953 954 0
955 956 957 0
958 959 960 0
961 962 963 0
964 965 966 0
967 968 969 0
970 971 972 0
973 974 975 0
976 977 978 0
979 980 981 0
982 983 984 0
985 986 987 0
988 989 990 0
991 992 993 0
994 995 996 0
997 998 999 0
1000 1001 1002 0
1003 1004 1005 0
1006 1007 1008 0
1009 1010 1011 0
1012 1013 1014 0
1015 1016 1017 0
1018 1019 1020 0
1021 1022 1023 0
1024 1025 1026 0
1027 1028 1029 0
1030 1031 1032 0
1033 1034 1035 0
1036 1037 1038 0
1039 1040 1041 0
1042 1043 1044 0
1045 1046 1047 0
1048 1049 1050 0
1051 1052 1053 0
1054 1055 1056 0
1057 1058 1059 0
1060 1061 1062 0
1063 1064 1065 0
1066 1067 1068 0
1069 1070 1071 0
1072 1073 1074 0
1075 1076 1077 0
1078 1079 1080 0
1081 1082 1083 0
1084 1085 1086 0
1087 1088 1089 0
1090 1091 1092 0
1093 1094 1095 0
1096 1097 1098 0
1099 1100 1101 0
1102 1103 1104 0
1105 1106 1107 0
1108 1109 1110 0
1111 1112 1113 0
1114 1115 1116 0
1117 1118 1119 0
1120 1121 1122 0
1123 1124 1125 0
1126 1127 1128 0
1129 1130 1131 0
1132 1133 1134 0
1135 1136 1137 0
1138 1139 1140 0
1141 1142 1143 0
1144 1145 1146 0
1147 1148 1149 0
1150 1151 1152 0
1153 1154 1155 0
1156 1157 1158 0
1159 1160 1161 0
1162 1163 1164 0
1165 1166 1167 0
1168 1169 1170 0
1171 1172 1173 0
1174 1175 1176 0
1177 1178 1179 0
1180 1181 1182 0
1183 1184 1185 0
1186 1187 1188 0
1189 1190 1191 0
1192 1193 1194 0
1195 1196 1197 0
1198 1199 1200 0
1201 1202 1203 0
1204 1205 1206 0
1207 1208 1209 0
1210 1211 1212 0
1213 1214 1215 0
1216 1217 1218 0
1219 1220 1221 0
1222 1223 1224 0
1225 1226 1227 0
1228 1229 1230 0
1231 1232 1233 0
1234 1235 1236 0
1237 1238 1239 0
1240 1241 1242 0
1243 1244 1245 0
1246 1247 1248 0
1249 1250 1251 0
1252 1253 1254 0
1255 1256 1257 0
1258 1259 1260 0
1261 1262 1263 0
1264 1265 1266 0
1267 1268 1269 0
1270 1271 1272 0
1273 1274 1275 0
1276 1277 1278 0
1279 1280 1281 0
1282 1283 1284 0
1285 1286 1287 0
1288 1289 1290 0
1291 1292 1293 0
1294 1295 1296 0
1297 1298 1299 0
1300 1301 1302 0
1303 1304 1305 0
1306 1307 1308 0
1309 1310 1311 0
1312 1313 1314 0
1315 1316 1317 0
1318 1319 1320 0
1321 1322 1323 0
1324 1325 1326 0
1327 1328 1329 0
1330 1331 1332 0
1333 1334 1335 0
1336 1337 1338 0
1339 1340 1341 0
1342 1343 1344 0
1345 1346 1347 0
1348 1349 1350 0
1351 1352 1353 0
1354 1355 1356 0
1357 1358 1359 0
1360 1361 1362 0
1363 1364 1365 0
1366 1367 1368 0
1369 1370 1371 0
1372 1373 1374 0
1375 1376 1377 0
1378 1379 1380 0
1381 1382 1383 0
1384 1385 1386 0
1387 1388 1389 0
1390 1391 1392 0
1393 1394 1395 0
1396 1397 1398 0
1399 1400 1401 0
1402 1403 1404 0
1405 1406 1407 0
1408 1409 1410 0
1411 1412 1413 0
1414 1415 1416 0
1417 1418 1419 0
1420 1421 1422 0
1423 1424 1425 0
1426 1427 1428 0
1429 1430 1431 0
1432 1433 1434 0
1435 1436 1437 0
1438 1439 1440 0
1441 1442 1443 0
1444 1445 1446 0
1447 1448 1449 0
1450 1451 1452 0
1453 1454 1455 0
1456 1457 1458 0
1459 1460 1461 0
1462 1463 1464 0
1465 1466 1467 0
1468 1469 1470 0
1471 1472 1473 0
1474 1475 1476 0
1477 1478 1479 0
1480 1481 1482 0
1483 1484 1485 0
1486 1487 1488 0
1489 1490 1491 0
1492 1493 1494 0
1495 1496 1497 0
1498 1499 1500 0
1501 1502 1503 0
1504 1505 1506 0
1507 1508 1509 0
1510 1511 1512 0
1513 1514 1515 0
1516 1517 1518 0
1519 1520 1521 0
1522 1523 1524 0
1525 1526 1527 0
1528 1529 1530 0
1531 1532 1533 0
1534 1535 1536 0
1537 1538 1539 0
1540 1541 1542 0
1543 1544 1545 0
1546 1547 1548 0
1549 1550 1551 0
1552 1553 1554 0
1555 1556 1557 0
1558 1559 1560 0
1561 1562 1563 0
1564 1565 1566 0
1567 1568 1569 0
1570 1571 1572 0
1573 1574 1575 0
1576 1577 1578 0
1579 1580 1581 0
1582 1583 1584 0
1585 1586 1587 0
1588 1589 1590 0
1591 1592 1593 0
1594 1595 1596 0
1597 1598 1599 0
1600 1601 1602 0
1603 1604 1605 0
1606 1607 1608 0
1609 1610 1611 0
1612 1613 1614 0
1615 1616 1617 0
1618 1619 1620 0
1621 1622 1623 0
1624 1625 1626 0
1627 1628 1629 0
1630 1631 1632 0
1633 1634 1635 0
1636 1637 1638 0
1639 1640 1641 0
1642 1643 1644 0
1645 1646 1647 0
1648 1649 1650 0
1651 1652 1653 0
1654 1655 1656 0
1657 1658 1659 0
1660 1661 1662 0
1663 1664 1665 0
1666 1667 1668 0
1669 1670 1671 0
1672 1673 1674 0
1675 1676 1677 0
1678 1679 1680 0
1681 1682 1683 0
1684 1685 1686 0
1687 1688 1689 0
1690 1691 1692 0
1693 1694 1695 0
1696 1697 1698 0
1699 1700 1701 0
1702 1703 1704 0
1705 1706 1707 0
1708 1709 1710 0
1711 1712 1713 0
1714 1715 1716 0
1717 1718 1719 0
1720 1721 1722 0
1723 1724 1725 0
1726 1727 1728 0
1729 1730 1731 0
1732 1733 1734 0
1735 1736 1737 0
1738 1739 1740 0
1741 1742 1743 0
1744 1745 1746 0
1747 1748 1749 0
1750 1751 1752 0
1753 1754 1755 0
1756 1757 1758 0
1759 1760 1761 0
1762 1763 1764 0
1765 1766 1767 0
1768 1769 1770 0
1771 1772 1773 0
1774 1775 1776 0
1777 1778 1779 0
1780 1781 1782 0
1783 1784 1785 0
1786 1787 1788 0
1789 1790 1791 0
1792 1793 1794 0
1795 1796 1797 0
1798 1799 1800 0
1801 1802 1803 0
1804 1805 1806 0
1807 1808 1809 0
1810 1811 1812 0
1813 1814 1815 0
1816 1817 1818 0
1819 1820 1821 0
1822 1823 1824 0
1825 1826 1827 0
1828 1829 1830 0
1831 1832 1833 0
1834 1835 1836 0
1837 1838 1839 0
1840 1841 1842 0
1843 1844 1845 0
1846 1847 1848 0
1849 1850 1851 0
1852 1853 1854 0
1855 1856 1857 0
1858 1859 1860 0
1861 1862 1863 0
1864 1865 1866 0
1867 1868 1869 0
1870 1871 1872 0
1873 1874 1875 0
1876 1877 1878 0
1879 1880 1881 0
1882 1883 1884 0
1885 1886 1887 0
1888 1889 1890 0
1891 1892 1893 0
1894 1895 1896 0
1897 1898 1899 0
1900 1901 1902 0
1903 1904 1905 0
1906 1907 1908 0
1909 1910 1911 0
1912 1913 1914 0
1915 1916 1917 0
1918 1919 1920 0
1921 1922 1923 0
1924 1925 1926 0
1927 1928 1929 0
1930 1931 1932 0
1933 1934 1935 0
1936 1937 1938 0
1939 1940 1941 0
1942 1943 1944 0
1945 1946 1947 0
1948 1949 1950 0
1951 1952 1953 0
1954 1955 1956 0
1957 1958 1959 0
1960 1961 1962 0
1963 1964 1965 0
1966 1967 1968 0
1969 1970 1971 0
1972 1973 1974 0
1975 1976 1977 0
1978 1979 1980 0
1981 1982 1983 0
1984 1985 1986 0
1987 1988 1989 0
1990 1991 1992 0
1993 1994 1995 0
1996 1997 1998 0
1999 2000 2001 0
2002 2003 2004 0
2005 2006 2007 0
2008 2009 2010 0
2011 2012 2013 0
2014 2015 2016 0
2017 2018 2019 0
2020 2021 2022 0
2023 2024 2025 0
2026 2027 2028 0
2029 2030 2031 0
2032 2033 2034 0
2035 2036 2037 0
2038 2039 2040 0
2041 2042 2043 0
2044 2045 2046 0
2047 2048 2049 0
2050 2051 2052 0
2053 2054 2055 0
2056 2057 2058 0
2059 2060 2061 0
2062 2063 2064 0
2065 2066 2067 0
2068 2069 2070 0
2071 2072 2073 0
2074 2075 2076 0
2077 2078 2079 0
2080 2081 2082 0
2083 2084 2085 0
2086 2087 2088 0
2089 2090 2091 0
2092 2093 2094 0
2095 2096 2097 0
2098 2099 2100 0
2101 2102 2103 0
2104 2105 2106 0
2107 2108 2109 0
2110 2111 2112 0
2113 2114 2115 0
2116 2117 2118 0
2119 2120 2121 0
2122 2123 2124 0
2125 2126 2127 0
2128 2129 2130 0
2131 2132 2133 0
2134 2135 2136 0
2137 2138 2139 0
2140 2141 2142 0
2143 2144 2145 0
2146 2147 2148 0
2149 2150 2151 0
2152 2153 2154 0
2155 2156 2157 0
2158 2159 2160 0
2161 2162 2163 0
2164 2165 2166 0
2167 2168 2169 0
2170 2171 2172 0
2173 2174 2175 0
2176 2177 2178 0
2179 2180 2181 0
2182 2183 2184 0
2185 2186 2187 0
2188 2189 2190 0
2191 2192 2193 0
2194 2195 2196 0
2197 2198 2199 0
2200 2201 2202 0
2203 2204 2205 0
2206 2207 2208 0
2209 2210 2211 0
2212 2213 2214 0
2215 2216 2217 0
2218 2219 2220 0
2221 2222 2223 0
2224 2225 2226 0
2227 2228 2229 0
2230 2231 2232 0
2233 2234 2235 0
2236 2237 2238 0
2239 2240 2241 0
2242 2243 2244 0
2245 2246 2247 0
2248 2249 2250 0
2251 2252 2253 0
2254 2255 2256 0
2257 2258 2259 0
2260 2261 2262 0
2263 2264 2265 0
2266 2267 2268 0
2269 2270 2271 0
2272 2273 2274 0
2275 2276 2277 0
2278 2279 2280 0
2281 2282 2283 0
2284 2285 2286 0
2287 2288 2289 0
2290 2291 2292 0
2293 2294 2295 0
2296 2297 2298 0
2299 2300 2301 0
2302 2303 2304 0
2305 2306 2307 0
2308 2309 2310 0
2311 2312 2313 0
2314 2315 2316 0
2317 2318 2319 0
2320 2321 2322 0
2323 2324 2325 0
2326 2327 2328 0
2329 2330 2331 0
2332 2333 2334 0
2335 2336 2337 0
2338 2339 2340 0
2341 2342 2343 0
2344 2345 2346 0
2347 2348 2349 0
2350 2351 2352 0
2353 2354 2355 0
2356 2357 2358 0
2359 2360 2361 0
2362 2363 2364 0
2365 2366 2367 0
2368 2369 2370 0
2371 2372 2373 0
2374 2375 2376 0
2377 2378 2379 0
2380 2381 2382 0
2383 2384 2385 0
2386 2387 2388 0
2389 2390 2391 0
2392 2393 2394 0
2395 2396 2397 0
2398 2399 2400 0
2401 2402 2403 0
2404 2405 2406 0
2407 2408 2409 0
2410 2411 2412 0
2413 2414 2415 0
2416 2417 2418 0
2419 2420 2421 0
2422 2423 2424 0
2425 2426 2427 0
2428 2429 2430 0
2431 2432 2433 0
2434 2435 2436 0
2437 2438 2439 0
2440 2441 2442 0
2443 2444 2445 0
2446 2447 2448 0
-1 -2062 0
-2 -2063 0
-3 -2064 0
-1 -2146 0
-2 -2147 0
-3 -2148 0
-1 -73 0
-2 -74 0
-3 -75 0
-1 -1618 0
-2 -1619 0
-3 -1620 0
-1 -1705 0
-2 -1706 0
-3 -1707 0
-4 -1849 0
-5 -1850 0
-6 -1851 0
-4 -2080 0
-5 -2081 0
-6 -2082 0
-4 -1633 0
-5 -1634 0
-6 -1635 0
-4 -2218 0
-5 -2219 0
-6 -2220 0
-4 -85 0
-5 -86 0
-6 -87 0
-4 -265 0
-5 -266 0
-6 -267 0
-7 -1642 0
-8 -1643 0
-9 -1644 0
-7 -1630 0
-8 -1631 0
-9 -1632 0
-7 -88 0
-8 -89 0
-9 -90 0
-7 -2311 0
-8 -2312 0
-9 -2313 0
-10 -1909 0
-11 -1910 0
-12 -1911 0
-10 -73 0
-11 -74 0
-12 -75 0
-10 -2017 0
-11 -2018 0
-12 -2019 0
-10 -346 0
-11 -347 0
-12 -348 0
-10 -1984 0
-11 -1985 0
-12 -1986 0
-10 -1987 0
-11 -1988 0
-12 -1989 0
-13 -1906 0
-14 -1907 0
-15 -1908 0
-13 -127 0
-14 -128 0
-15 -129 0
-13 -1648 0
-14 -1649 0
-15 -1650 0
-13 -1831 0
-14 -1832 0
-15 -1833 0
-13 -1834 0
-14 -1835 0
-15 -1836 0
-13 -196 0
-14 -197 0
-15 -198 0
-13 -1618 0
-14 -1619 0
-15 -1620 0
-16 -1621 0
-17 -1622 0
-18 -1623 0
-16 -2062 0
-17 -2063 0
-18 -2064 0
-16 -124 0
-17 -125 0
-18 -126 0
-16 -1762 0
-17 -1763 0
-18 -1764 0
-16 -1855 0
-17 -1856 0
-18 -1857 0
-16 -205 0
-17 -206 0
-18 -207 0
-16 -1636 0
-17 -1637 0
-18 -1638 0
-19 -139 0
-20 -140 0
-21 -141 0
-19 -280 0
-20 -281 0
-21 -282 0
-19 -1180 0
-20 -1181 0
-21 -1182 0
-19 -1630 0
-20 -1631 0
-21 -1632 0
-22 -1639 0
-23 -1640 0
-24 -1641 0
-22 -283 0
-23 -284 0
-24 -285 0
-22 -1633 0
-23 -1634 0
-24 -1635 0
-25 -2059 0
-26 -2060 0
-27 -2061 0
-25 -1687 0
-26 -1688 0
-27 -1689 0
-25 -286 0
-26 -287 0
-27 -288 0
-25 -136 0
-26 -137 0
-27 -138 0
-28 -2293 0
-29 -2294 0
-30 -2295 0
-28 -124 0
-29 -125 0
-30 -126 0
-28 -346 0
-29 -347 0
-30 -348 0
-28 -1624 0
-29 -1625 0
-30 -1626 0
-31 -2146 0
-32 -2147 0
-33 -2148 0
-31 -2062 0
-32 -2063 0
-33 -2064 0
-31 -2137 0
-32 -2138 0
-33 -2139 0
-31 -205 0
-32 -206 0
-33 -207 0
-34 -1519 0
-35 -1520 0
-36 -1521 0
-34 -151 0
-35 -152 0
-36 -153 0
-34 -346 0
-35 -347 0
-36 -348 0
-34 -2389 0
-35 -2390 0
-36 -2391 0
-37 -370 0
-38 -371 0
-39 -372 0
-37 -2197 0
-38 -2198 0
-39 -2199 0
-37 -148 0
-38 -149 0
-39 -150 0
-37 -1513 0
-38 -1514 0
-39 -1515 0
-40 -1519 0
-41 -1520 0
-42 -1521 0
-40 -226 0
-41 -227 0
-42 -228 0
-40 -235 0
-41 -236 0
-42 -237 0
-40 -1525 0
-41 -1526 0
-42 -1527 0
-40 -1408 0
-41 -1409 0
-42 -1410 0
-40 -1459 0
-41 -1460 0
-42 -1461 0
-43 -1513 0
-44 -1514 0
-45 -1515 0
-43 -1522 0
-44 -1523 0
-45 -1524 0
-43 -1219 0
-44 -1220 0
-45 -1221 0
-43 -1627 0
-44 -1628 0
-45 -1629 0
-43 -229 0
-44 -230 0
-45 -231 0
-43 -238 0
-44 -239 0
-45 -240 0
-46 -1687 0
-47 -1688 0
-48 -1689 0
-46 -2221 0
-47 -2222 0
-48 -2223 0
-46 -1477 0
-47 -1478 0
-48 -1479 0
-46 -280 0
-47 -281 0
-48 -282 0
-46 -1843 0
-47 -1844 0
-48 -1845 0
-46 -1714 0
-47 -1715 0
-48 -1716 0
-46 -1747 0
-47 -1748 0
-48 -1749 0
-49 -2200 0
-50 -2201 0
-51 -2202 0
-49 -286 0
-50 -287 0
-51 -288 0
-49 -2287 0
-50 -2288 0
-51 -2289 0
-49 -1369 0
-50 -1370 0
-51 -1371 0
-49 -1498 0
-50 -1499 0
-51 -1500 0
-49 -1339 0
-50 -1340 0
-51 -1341 0
-49 -280 0
-50 -281 0
-51 -282 0
-49 -1438 0
-50 -1439 0
-51 -1440 0
-49 -1843 0
-50 -1844 0
-51 -1845 0
-49 -2191 0
-50 -2192 0
-51 -2193 0
-49 -1186 0
-50 -1187 0
-51 -1188 0
-52 -286 0
-53 -287 0
-54 -288 0
-52 -1195 0
-53 -1196 0
-54 -1197 0
-52 -1441 0
-53 -1442 0
-54 -1443 0
-52 -1915 0
-53 -1916 0
-54 -1917 0
-52 -1180 0
-53 -1181 0
-54 -1182 0
-52 -1189 0
-53 -1190 0
-54 -1191 0
-52 -1351 0
-53 -1352 0
-54 -1353 0
-52 -1186 0
-53 -1187 0
-54 -1188 0
-55 -2317 0
-56 -2318 0
-57 -2319 0
-55 -508 0
-56 -509 0
-57 -510 0
-55 -2311 0
-56 -2312 0
-57 -2313 0
-55 -88 0
-56 -89 0
-57 -90 0
-58 -2320 0
-59 -2321 0
-60 -2322 0
-58 -517 0
-59 -518 0
-60 -519 0
-58 -1930 0
-59 -1931 0
-60 -1932 0
-58 -85 0
-59 -86 0
-60 -87 0
-58 -2335 0
-59 -2336 0
-60 -2337 0
-61 -1882 0
-62 -1883 0
-63 -1884 0
-61 -370 0
-62 -371 0
-63 -372 0
-61 -2020 0
-62 -2021 0
-63 -2022 0
-61 -205 0
-62 -206 0
-63 -207 0
-64 -229 0
-65 -230 0
-66 -231 0
-64 -346 0
-65 -347 0
-66 -348 0
-64 -1897 0
-65 -1898 0
-66 -1899 0
-64 -1360 0
-65 -1361 0
-66 -1362 0
-67 -235 0
-68 -236 0
-69 -237 0
-67 -343 0
-68 -344 0
-69 -345 0
-67 -1993 0
-68 -1994 0
-69 -1995 0
-67 -1492 0
-68 -1493 0
-69 -1494 0
-70 -631 0
-71 -632 0
-72 -633 0
-70 -1648 0
-71 -1649 0
-72 -1650 0
-70 -1270 0
-71 -1271 0
-72 -1272 0
-70 -1609 0
-71 -1610 0
-72 -1611 0
-70 -1618 0
-71 -1619 0
-72 -1620 0
-70 -1627 0
-71 -1628 0
-72 -1629 0
-70 -1750 0
-71 -1751 0
-72 -1752 0
-70 -73 0
-71 -74 0
-72 -75 0
-70 -1429 0
-71 -1430 0
-72 -1431 0
-73 -442 0
-74 -443 0
-75 -444 0
-73 -445 0
-74 -446 0
-75 -447 0
-73 -337 0
-74 -338 0
-75 -339 0
-73 -217 0
-74 -218 0
-75 -219 0
-73 -220 0
-74 -221 0
-75 -222 0
-73 -355 0
-74 -356 0
-75 -357 0
-73 -358 0
-74 -359 0
-75 -360 0
-73 -361 0
-74 -362 0
-75 -363 0
-73 -247 0
-74 -248 0
-75 -249 0
-73 -250 0
-74 -251 0
-75 -252 0
-73 -634 0
-74 -635 0
-75 -636 0
-73 -76 0
-74 -77 0
-75 -78 0
-76 -2137 0
-77 -2138 0
-78 -2139 0
-76 -1855 0
-77 -1856 0
-78 -1857 0
-76 -637 0
-77 -638 0
-78 -639 0
-76 -2395 0
-77 -2396 0
-78 -2397 0
-76 -1168 0
-77 -1169 0
-78 -1170 0
-76 -2062 0
-77 -2063 0
-78 -2064 0
-76 -2065 0
-77 -2066 0
-78 -2067 0
-79 -370 0
-80 -371 0
-81 -372 0
-79 -235 0
-80 -236 0
-81 -237 0
-79 -1996 0
-80 -1997 0
-81 -1998 0
-79 -1408 0
-80 -1409 0
-81 -1410 0
-79 -1492 0
-80 -1493 0
-81 -1494 0
-82 -1579 0
-83 -1580 0
-84 -1581 0
-82 -370 0
-83 -371 0
-84 -372 0
-82 -265 0
-83 -266 0
-84 -267 0
-85 -91 0
-86 -92 0
-87 -93 0
-85 -298 0
-86 -299 0
-87 -300 0
-85 -448 0
-86 -449 0
-87 -450 0
-85 -721 0
-86 -722 0
-87 -723 0
-85 -634 0
-86 -635 0
-87 -636 0
-85 -388 0
-86 -389 0
-87 -390 0
-85 -400 0
-86 -401 0
-87 -402 0
-85 -403 0
-86 -404 0
-87 -405 0
-88 -301 0
-89 -302 0
-90 -303 0
-88 -724 0
-89 -725 0
-90 -726 0
-88 -385 0
-89 -386 0
-90 -387 0
-88 -634 0
-89 -635 0
-90 -636 0
-91 -2203 0
-92 -2204 0
-93 -2205 0
-91 -1810 0
-92 -1811 0
-93 -1812 0
-91 -1207 0
-92 -1208 0
-93 -1209 0
-91 -1780 0
-92 -1781 0
-93 -1782 0
-91 -709 0
-92 -710 0
-93 -711 0
-91 -2332 0
-92 -2333 0
-93 -2334 0
-91 -2335 0
-92 -2336 0
-93 -2337 0
-91 -1324 0
-92 -1325 0
-93 -1326 0
-91 -1327 0
-92 -1328 0
-93 -1329 0
-94 -139 0
-95 -140 0
-96 -141 0
-94 -2200 0
-95 -2201 0
-96 -2202 0
-94 -1654 0
-95 -1655 0
-96 -1656 0
-94 -1843 0
-95 -1844 0
-96 -1845 0
-94 -493 0
-95 -494 0
-96 -495 0
-97 -2122 0
-98 -2123 0
-99 -2124 0
-97 -499 0
-98 -500 0
-99 -501 0
-97 -136 0
-98 -137 0
-99 -138 0
-97 -1186 0
-98 -1187 0
-99 -1188 0
-100 -2371 0
-101 -2372 0
-102 -2373 0
-100 -2347 0
-101 -2348 0
-102 -2349 0
-100 -346 0
-101 -347 0
-102 -348 0
-100 -1183 0
-101 -1184 0
-102 -1185 0
-103 -1258 0
-104 -1259 0
-105 -1260 0
-103 -1300 0
-104 -1301 0
-105 -1302 0
-103 -1303 0
-104 -1304 0
-105 -1305 0
-103 -343 0
-104 -344 0
-105 -345 0
-103 -1582 0
-104 -1583 0
-105 -1584 0
-103 -370 0
-104 -371 0
-105 -372 0
-103 -1759 0
-104 -1760 0
-105 -1761 0
-103 -1345 0
-104 -1346 0
-105 -1347 0
-103 -1354 0
-104 -1355 0
-105 -1356 0
-103 -1492 0
-104 -1493 0
-105 -1494 0
-106 -1879 0
-107 -1880 0
-108 -1881 0
-106 -373 0
-107 -374 0
-108 -375 0
-106 -346 0
-107 -347 0
-108 -348 0
-106 -1897 0
-107 -1898 0
-108 -1899 0
-109 -370 0
-110 -371 0
-111 -372 0
-109 -2245 0
-110 -2246 0
-111 -2247 0
-109 -2056 0
-110 -2057 0
-111 -2058 0
-109 -2296 0
-110 -2297 0
-111 -2298 0
-112 -1192 0
-113 -1193 0
-114 -1194 0
-112 -373 0
-113 -374 0
-114 -375 0
-112 -1222 0
-113 -1223 0
-114 -1224 0
-112 -2365 0
-113 -2366 0
-114 -2367 0
-115 -2341 0
-116 -2342 0
-117 -2343 0
-115 -1861 0
-116 -1862 0
-117 -1863 0
-115 -1834 0
-116 -1835 0
-117 -1836 0
-115 -2089 0
-116 -2090 0
-117 -2091 0
-115 -136 0
-116 -137 0
-117 -138 0
-115 -562 0
-116 -563 0
-117 -564 0
-118 -139 0
-119 -140 0
-120 -141 0
-118 -1966 0
-119 -1967 0
-120 -1968 0
-118 -1621 0
-119 -1622 0
-120 -1623 0
-118 -2068 0
-119 -2069 0
-120 -2070 0
-118 -1636 0
-119 -1637 0
-120 -1638 0
-118 -2398 0
-119 -2399 0
-120 -2400 0
-118 -580 0
-119 -581 0
-120 -582 0
-118 -1651 0
-119 -1652 0
-120 -1653 0
-121 -1663 0
-122 -1664 0
-123 -1665 0
-121 -124 0
-122 -125 0
-123 -126 0
-121 -625 0
-122 -626 0
-123 -627 0
-121 -1624 0
-122 -1625 0
-123 -1626 0
-124 -160 0
-125 -161 0
-126 -162 0
-124 -163 0
-125 -164 0
-126 -165 0
-124 -424 0
-125 -425 0
-126 -426 0
-124 -178 0
-125 -179 0
-126 -180 0
-124 -439 0
-125 -440 0
-126 -441 0
-124 -805 0
-125 -806 0
-126 -807 0
-124 -142 0
-125 -143 0
-126 -144 0
-124 -634 0
-125 -635 0
-126 -636 0
-124 -394 0
-125 -395 0
-126 -396 0
-127 -166 0
-128 -167 0
-129 -168 0
-127 -421 0
-128 -422 0
-129 -423 0
-127 -427 0
-128 -428 0
-129 -429 0
-127 -808 0
-128 -809 0
-129 -810 0
-127 -634 0
-128 -635 0
-129 -636 0
-127 -397 0
-128 -398 0
-129 -399 0
-130 -592 0
-131 -593 0
-132 -594 0
-130 -1828 0
-131 -1829 0
-132 -1830 0
-130 -1834 0
-131 -1835 0
-132 -1836 0
-130 -2299 0
-131 -2300 0
-132 -2301 0
-130 -136 0
-131 -137 0
-132 -138 0
-133 -2059 0
-134 -2060 0
-135 -2061 0
-133 -631 0
-134 -632 0
-135 -633 0
-133 -1225 0
-134 -1226 0
-135 -1227 0
-133 -136 0
-134 -137 0
-135 -138 0
-136 -172 0
-137 -173 0
-138 -174 0
-136 -418 0
-137 -419 0
-138 -420 0
-136 -184 0
-137 -185 0
-138 -186 0
-136 -451 0
-137 -452 0
-138 -453 0
-136 -634 0
-137 -635 0
-138 -636 0
-139 -415 0
-140 -416 0
-141 -417 0
-139 -430 0
-140 -431 0
-141 -432 0
-139 -553 0
-140 -554 0
-141 -555 0
-139 -187 0
-140 -188 0
-141 -189 0
-139 -454 0
-140 -455 0
-141 -456 0
-139 -634 0
-140 -635 0
-141 -636 0
-142 -682 0
-143 -683 0
-144 -684 0
-142 -1621 0
-143 -1622 0
-144 -1623 0
-142 -1651 0
-143 -1652 0
-144 -1653 0
-142 -1828 0
-143 -1829 0
-144 -1830 0
-142 -1318 0
-143 -1319 0
-144 -1320 0
-145 -1639 0
-146 -1640 0
-147 -1641 0
-145 -625 0
-146 -626 0
-147 -627 0
-145 -148 0
-146 -149 0
-147 -150 0
-145 -2269 0
-146 -2270 0
-147 -2271 0
-145 -2197 0
-146 -2198 0
-147 -2199 0
-148 -634 0
-149 -635 0
-150 -636 0
-148 -157 0
-149 -158 0
-150 -159 0
-151 -433 0
-152 -434 0
-153 -435 0
-151 -436 0
-152 -437 0
-153 -438 0
-151 -190 0
-152 -191 0
-153 -192 0
-151 -634 0
-152 -635 0
-153 -636 0
-151 -154 0
-152 -155 0
-153 -156 0
-154 -643 0
-155 -644 0
-156 -645 0
-154 -2293 0
-155 -2294 0
-156 -2295 0
-157 -1522 0
-158 -1523 0
-159 -1524 0
-157 -1666 0
-158 -1667 0
-159 -1668 0
-157 -1435 0
-158 -1436 0
-159 -1437 0
-157 -697 0
-158 -698 0
-159 -699 0
-157 -1513 0
-158 -1514 0
-159 -1515 0
-160 -1654 0
-161 -1655 0
-162 -1656 0
-160 -736 0
-161 -737 0
-162 -738 0
-160 -2383 0
-161 -2384 0
-162 -2385 0
-160 -2386 0
-161 -2387 0
-162 -2388 0
-163 -2290 0
-164 -2291 0
-165 -2292 0
-163 -748 0
-164 -749 0
-165 -750 0
-163 -2386 0
-164 -2387 0
-165 -2388 0
-163 -1309 0
-164 -1310 0
-165 -1311 0
-166 -2122 0
-167 -2123 0
-168 -2124 0
-166 -2236 0
-167 -2237 0
-168 -2238 0
-166 -739 0
-167 -740 0
-168 -741 0
-169 -205 0
-170 -206 0
-171 -207 0
-169 -493 0
-170 -494 0
-171 -495 0
-169 -1858 0
-170 -1859 0
-171 -1860 0
-172 -1825 0
-173 -1826 0
-174 -1827 0
-172 -2236 0
-173 -2237 0
-174 -2238 0
-172 -739 0
-173 -740 0
-174 -741 0
-175 -2113 0
-176 -2114 0
-177 -2115 0
-175 -262 0
-176 -263 0
-177 -264 0
-175 -493 0
-176 -494 0
-177 -495 0
-175 -1612 0
-176 -1613 0
-177 -1614 0
-178 -2407 0
-179 -2408 0
-180 -2409 0
-178 -760 0
-179 -761 0
-180 -762 0
-178 -2329 0
-179 -2330 0
-180 -2331 0
-178 -2272 0
-179 -2273 0
-180 -2274 0
-181 -1372 0
-182 -1373 0
-183 -1374 0
-181 -1825 0
-182 -1826 0
-183 -1827 0
-181 -499 0
-182 -500 0
-183 -501 0
-181 -265 0
-182 -266 0
-183 -267 0
-184 -1687 0
-185 -1688 0
-186 -1689 0
-184 -1657 0
-185 -1658 0
-186 -1659 0
-184 -1660 0
-185 -1661 0
-186 -1662 0
-187 -1441 0
-188 -1442 0
-189 -1443 0
-187 -1180 0
-188 -1181 0
-189 -1182 0
-187 -763 0
-188 -764 0
-189 -765 0
-187 -1516 0
-188 -1517 0
-189 -1518 0
-190 -2293 0
-191 -2294 0
-192 -2295 0
-190 -760 0
-191 -761 0
-192 -762 0
-190 -1624 0
-191 -1625 0
-192 -1626 0
-193 -286 0
-194 -287 0
-195 -288 0
-193 -508 0
-194 -509 0
-195 -510 0
-193 -2092 0
-194 -2093 0
-195 -2094 0
-193 -1642 0
-194 -1643 0
-195 -1644 0
-196 -457 0
-197 -458 0
-198 -459 0
-196 -568 0
-197 -569 0
-198 -570 0
-196 -571 0
-197 -572 0
-198 -573 0
-196 -202 0
-197 -203 0
-198 -204 0
-196 -634 0
-197 -635 0
-198 -636 0
-199 -2146 0
-200 -2147 0
-201 -2148 0
-199 -631 0
-200 -632 0
-201 -633 0
-199 -1864 0
-200 -1865 0
-201 -1866 0
-199 -205 0
-200 -206 0
-201 -207 0
-199 -2314 0
-200 -2315 0
-201 -2316 0
-202 -2413 0
-203 -2414 0
-204 -2415 0
-202 -637 0
-203 -638 0
-204 -639 0
-202 -2149 0
-203 -2150 0
-204 -2151 0
-202 -1900 0
-203 -1901 0
-204 -1902 0
-202 -2128 0
-203 -2129 0
-204 -2130 0
-202 -1705 0
-203 -1706 0
-204 -1707 0
-205 -541 0
-206 -542 0
-207 -543 0
-205 -574 0
-206 -575 0
-207 -576 0
-205 -811 0
-206 -812 0
-207 -813 0
-205 -634 0
-206 -635 0
-207 -636 0
-208 -580 0
-209 -581 0
-210 -582 0
-208 -1621 0
-209 -1622 0
-210 -1623 0
-208 -238 0
-209 -239 0
-210 -240 0
-208 -1828 0
-209 -1829 0
-210 -1830 0
-211 -592 0
-212 -593 0
-213 -594 0
-211 -226 0
-212 -227 0
-213 -228 0
-211 -1990 0
-212 -1991 0
-213 -1992 0
-214 -226 0
-215 -227 0
-216 -228 0
-214 -1204 0
-215 -1205 0
-216 -1206 0
-214 -613 0
-215 -614 0
-216 -615 0
-214 -1282 0
-215 -1283 0
-216 -1284 0
-217 -1585 0
-218 -1586 0
-219 -1587 0
-217 -856 0
-218 -857 0
-219 -858 0
-217 -1384 0
-218 -1385 0
-219 -1386 0
-217 -1168 0
-218 -1169 0
-219 -1170 0
-220 -1750 0
-221 -1751 0
-222 -1752 0
-220 -1495 0
-221 -1496 0
-222 -1497 0
-220 -1369 0
-221 -1370 0
-222 -1371 0
-220 -859 0
-221 -860 0
-222 -861 0
-220 -2338 0
-221 -2339 0
-222 -2340 0
-220 -2227 0
-221 -2228 0
-222 -2229 0
-223 -1498 0
-224 -1499 0
-225 -1500 0
-223 -280 0
-224 -281 0
-225 -282 0
-223 -1501 0
-224 -1502 0
-225 -1503 0
-223 -1429 0
-224 -1430 0
-225 -1431 0
-223 -556 0
-224 -557 0
-225 -558 0
-226 -547 0
-227 -548 0
-228 -549 0
-226 -475 0
-227 -476 0
-228 -477 0
-226 -634 0
-227 -635 0
-228 -636 0
-229 -550 0
-230 -551 0
-231 -552 0
-229 -460 0
-230 -461 0
-231 -462 0
-229 -472 0
-230 -473 0
-231 -474 0
-229 -634 0
-230 -635 0
-231 -636 0
-229 -865 0
-230 -866 0
-231 -867 0
-232 -238 0
-233 -239 0
-234 -240 0
-232 -631 0
-233 -632 0
-234 -633 0
-232 -2314 0
-233 -2315 0
-234 -2316 0
-235 -691 0
-236 -692 0
-237 -693 0
-235 -463 0
-236 -464 0
-237 -465 0
-235 -478 0
-236 -479 0
-237 -480 0
-235 -634 0
-236 -635 0
-237 -636 0
-235 -868 0
-236 -869 0
-237 -870 0
-238 -307 0
-239 -308 0
-240 -309 0
-238 -241 0
-239 -242 0
-240 -243 0
-238 -634 0
-239 -635 0
-240 -636 0
-238 -871 0
-239 -872 0
-240 -873 0
-241 -637 0
-242 -638 0
-243 -639 0
-241 -1852 0
-242 -1853 0
-243 -1854 0
-241 -1867 0
-242 -1868 0
-243 -1869 0
-244 -286 0
-245 -287 0
-246 -288 0
-244 -1885 0
-245 -1886 0
-246 -1887 0
-244 -1498 0
-245 -1499 0
-246 -1500 0
-244 -1444 0
-245 -1445 0
-246 -1446 0
-244 -2116 0
-245 -2117 0
-246 -2118 0
-244 -556 0
-245 -557 0
-246 -558 0
-244 -1168 0
-245 -1169 0
-246 -1170 0
-247 -1846 0
-248 -1847 0
-249 -1848 0
-247 -2287 0
-248 -2288 0
-249 -2289 0
-247 -1369 0
-248 -1370 0
-249 -1371 0
-247 -883 0
-248 -884 0
-249 -885 0
-250 -886 0
-251 -887 0
-252 -888 0
-250 -1264 0
-251 -1265 0
-252 -1266 0
-250 -1429 0
-251 -1430 0
-252 -1431 0
-253 -286 0
-254 -287 0
-255 -288 0
-253 -1696 0
-254 -1697 0
-255 -1698 0
-253 -1297 0
-254 -1298 0
-255 -1299 0
-253 -562 0
-254 -563 0
-255 -564 0
-253 -2083 0
-254 -2084 0
-255 -2085 0
-256 -580 0
-257 -581 0
-258 -582 0
-256 -1297 0
-257 -1298 0
-258 -1299 0
-256 -280 0
-257 -281 0
-258 -282 0
-256 -1501 0
-257 -1502 0
-258 -1503 0
-256 -2191 0
-257 -2192 0
-258 -2193 0
-256 -1918 0
-257 -1919 0
-258 -1920 0
-259 -631 0
-260 -632 0
-261 -633 0
-259 -1765 0
-260 -1766 0
-261 -1767 0
-259 -262 0
-260 -263 0
-261 -264 0
-262 -292 0
-263 -293 0
-264 -294 0
-262 -634 0
-263 -635 0
-264 -636 0
-265 -274 0
-266 -275 0
-267 -276 0
-265 -589 0
-266 -590 0
-267 -591 0
-265 -634 0
-266 -635 0
-267 -636 0
-268 -592 0
-269 -593 0
-270 -594 0
-268 -1450 0
-269 -1451 0
-270 -1452 0
-268 -280 0
-269 -281 0
-270 -282 0
-268 -1438 0
-269 -1439 0
-270 -1440 0
-268 -1597 0
-269 -1598 0
-270 -1599 0
-268 -1234 0
-269 -1235 0
-270 -1236 0
-271 -1294 0
-272 -1295 0
-273 -1296 0
-271 -1477 0
-272 -1478 0
-273 -1479 0
-271 -280 0
-272 -281 0
-273 -282 0
-271 -625 0
-272 -626 0
-273 -627 0
-274 -1579 0
-275 -1580 0
-276 -1581 0
-274 -1561 0
-275 -1562 0
-276 -1563 0
-274 -1564 0
-275 -1565 0
-276 -1566 0
-274 -1840 0
-275 -1841 0
-276 -1842 0
-274 -670 0
-275 -671 0
-276 -672 0
-277 -1783 0
-278 -1784 0
-279 -1785 0
-277 -286 0
-278 -287 0
-279 -288 0
-277 -1813 0
-278 -1814 0
-279 -1815 0
-277 -1228 0
-278 -1229 0
-279 -1230 0
-277 -1168 0
-278 -1169 0
-279 -1170 0
-277 -613 0
-278 -614 0
-279 -615 0
-277 -1342 0
-278 -1343 0
-279 -1344 0
-277 -1771 0
-278 -1772 0
-279 -1773 0
-280 -289 0
-281 -290 0
-282 -291 0
-280 -673 0
-281 -674 0
-282 -675 0
-280 -703 0
-281 -704 0
-282 -705 0
-280 -814 0
-281 -815 0
-282 -816 0
-280 -481 0
-281 -482 0
-282 -483 0
-280 -328 0
-281 -329 0
-282 -330 0
-280 -820 0
-281 -821 0
-282 -822 0
-280 -616 0
-281 -617 0
-282 -618 0
-280 -634 0
-281 -635 0
-282 -636 0
-283 -895 0
-284 -896 0
-285 -897 0
-283 -706 0
-284 -707 0
-285 -708 0
-283 -487 0
-284 -488 0
-285 -489 0
-283 -322 0
-284 -323 0
-285 -324 0
-283 -634 0
-284 -635 0
-285 -636 0
-286 -295 0
-287 -296 0
-288 -297 0
-286 -817 0
-287 -818 0
-288 -819 0
-286 -484 0
-287 -485 0
-288 -486 0
-286 -490 0
-287 -491 0
-288 -492 0
-286 -325 0
-287 -326 0
-288 -327 0
-286 -823 0
-287 -824 0
-288 -825 0
-286 -634 0
-287 -635 0
-288 -636 0
-286 -649 0
-287 -650 0
-288 -651 0
-289 -652 0
-290 -653 0
-291 -654 0
-289 -1429 0
-290 -1430 0
-291 -1431 0
-289 -1483 0
-290 -1484 0
-291 -1485 0
-292 -682 0
-293 -683 0
-294 -684 0
-292 -1240 0
-293 -1241 0
-294 -1242 0
-292 -1174 0
-293 -1175 0
-294 -1176 0
-292 -1765 0
-293 -1766 0
-294 -1767 0
-292 -1438 0
-293 -1439 0
-294 -1440 0
-292 -1171 0
-293 -1172 0
-294 -1173 0
-292 -1234 0
-293 -1235 0
-294 -1236 0
-295 -1708 0
-296 -1709 0
-297 -1710 0
-295 -670 0
-296 -671 0
-297 -672 0
-295 -1933 0
-296 -1934 0
-297 -1935 0
-298 -2287 0
-299 -2288 0
-300 -2289 0
-298 -883 0
-299 -884 0
-300 -885 0
-298 -2080 0
-299 -2081 0
-300 -2082 0
-301 -2317 0
-302 -2318 0
-303 -2319 0
-301 -886 0
-302 -887 0
-303 -888 0
-301 -1669 0
-302 -1670 0
-303 -1671 0
-304 -373 0
-305 -374 0
-306 -375 0
-304 -2365 0
-305 -2366 0
-306 -2367 0
-304 -493 0
-305 -494 0
-306 -495 0
-307 -733 0
-308 -734 0
-309 -735 0
-307 -1852 0
-308 -1853 0
-309 -1854 0
-307 -1627 0
-308 -1628 0
-309 -1629 0
-307 -2272 0
-308 -2273 0
-309 -2274 0
-310 -370 0
-311 -371 0
-312 -372 0
-310 -1300 0
-311 -1301 0
-312 -1302 0
-310 -508 0
-311 -509 0
-312 -510 0
-313 -1774 0
-314 -1775 0
-315 -1776 0
-313 -1777 0
-314 -1778 0
-315 -1779 0
-313 -370 0
-314 -371 0
-315 -372 0
-313 -514 0
-314 -515 0
-315 -516 0
-313 -1171 0
-314 -1172 0
-315 -1173 0
-316 -517 0
-317 -518 0
-318 -519 0
-316 -1975 0
-317 -1976 0
-318 -1977 0
-316 -346 0
-317 -347 0
-318 -348 0
-316 -1399 0
-317 -1400 0
-318 -1401 0
-319 -1693 0
-320 -1694 0
-321 -1695 0
-319 -370 0
-320 -371 0
-321 -372 0
-319 -517 0
-320 -518 0
-321 -519 0
-319 -1303 0
-320 -1304 0
-321 -1305 0
-319 -1306 0
-320 -1307 0
-321 -1308 0
-319 -1348 0
-320 -1349 0
-321 -1350 0
-322 -760 0
-323 -761 0
-324 -762 0
-322 -1624 0
-323 -1625 0
-324 -1626 0
-322 -1837 0
-323 -1838 0
-324 -1839 0
-322 -2329 0
-323 -2330 0
-324 -2331 0
-322 -1663 0
-323 -1664 0
-324 -1665 0
-325 -1687 0
-326 -1688 0
-327 -1689 0
-325 -1672 0
-326 -1673 0
-327 -1674 0
-325 -1708 0
-326 -1709 0
-327 -1710 0
-325 -1714 0
-326 -1715 0
-327 -1716 0
-325 -1189 0
-326 -1190 0
-327 -1191 0
-325 -2083 0
-326 -2084 0
-327 -2085 0
-328 -1195 0
-329 -1196 0
-330 -1197 0
-328 -1180 0
-329 -1181 0
-330 -1182 0
-328 -2275 0
-329 -2276 0
-330 -2277 0
-328 -1918 0
-329 -1919 0
-330 -1920 0
-328 -763 0
-329 -764 0
-330 -765 0
-331 -1804 0
-332 -1805 0
-333 -1806 0
-331 -1675 0
-332 -1676 0
-333 -1677 0
-331 -343 0
-332 -344 0
-333 -345 0
-331 -556 0
-332 -557 0
-333 -558 0
-334 -373 0
-335 -374 0
-336 -375 0
-334 -556 0
-335 -557 0
-336 -558 0
-334 -2392 0
-335 -2393 0
-336 -2394 0
-334 -1414 0
-335 -1415 0
-336 -1416 0
-337 -943 0
-338 -944 0
-339 -945 0
-337 -2194 0
-338 -2195 0
-339 -2196 0
-340 -631 0
-341 -632 0
-342 -633 0
-340 -1711 0
-341 -1712 0
-342 -1713 0
-340 -1294 0
-341 -1295 0
-342 -1296 0
-340 -346 0
-341 -347 0
-342 -348 0
-340 -1231 0
-341 -1232 0
-342 -1233 0
-340 -1411 0
-341 -1412 0
-342 -1413 0
-340 -1336 0
-341 -1337 0
-342 -1338 0
-343 -784 0
-344 -785 0
-345 -786 0
-343 -364 0
-344 -365 0
-345 -366 0
-343 -382 0
-344 -383 0
-345 -384 0
-343 -838 0
-344 -839 0
-345 -840 0
-343 -634 0
-344 -635 0
-345 -636 0
-343 -961 0
-344 -962 0
-345 -963 0
-343 -412 0
-344 -413 0
-345 -414 0
-346 -766 0
-347 -767 0
-348 -768 0
-346 -775 0
-347 -776 0
-348 -777 0
-346 -781 0
-347 -782 0
-348 -783 0
-346 -787 0
-347 -788 0
-348 -789 0
-346 -802 0
-347 -803 0
-348 -804 0
-346 -610 0
-347 -611 0
-348 -612 0
-346 -367 0
-347 -368 0
-348 -369 0
-346 -379 0
-347 -380 0
-348 -381 0
-346 -634 0
-347 -635 0
-348 -636 0
-346 -964 0
-347 -965 0
-348 -966 0
-346 -409 0
-347 -410 0
-348 -411 0
-349 -370 0
-350 -371 0
-351 -372 0
-349 -1615 0
-350 -1616 0
-351 -1617 0
-349 -613 0
-350 -614 0
-351 -615 0
-349 -1255 0
-350 -1256 0
-351 -1257 0
-352 -2005 0
-353 -2006 0
-354 -2007 0
-352 -373 0
-353 -374 0
-354 -375 0
-352 -1204 0
-353 -1205 0
-354 -1206 0
-352 -613 0
-353 -614 0
-354 -615 0
-352 -1999 0
-353 -2000 0
-354 -2001 0
-355 -1495 0
-356 -1496 0
-357 -1497 0
-355 -1246 0
-356 -1247 0
-357 -1248 0
-355 -1270 0
-356 -1271 0
-357 -1272 0
-355 -970 0
-356 -971 0
-357 -972 0
-358 -1909 0
-359 -1910 0
-360 -1911 0
-358 -1375 0
-359 -1376 0
-360 -1377 0
-358 -1852 0
-359 -1853 0
-360 -1854 0
-358 -1945 0
-359 -1946 0
-360 -1947 0
-358 -1384 0
-359 -1385 0
-360 -1386 0
-358 -976 0
-359 -977 0
-360 -978 0
-358 -2395 0
-359 -2396 0
-360 -2397 0
-361 -1246 0
-362 -1247 0
-363 -1248 0
-361 -1264 0
-362 -1265 0
-363 -1266 0
-361 -979 0
-362 -980 0
-363 -981 0
-364 -1678 0
-365 -1679 0
-366 -1680 0
-364 -652 0
-365 -653 0
-366 -654 0
-364 -2158 0
-365 -2159 0
-366 -2160 0
-367 -1519 0
-368 -1520 0
-369 -1521 0
-367 -1525 0
-368 -1526 0
-369 -1527 0
-367 -2266 0
-368 -2267 0
-369 -2268 0
-367 -652 0
-368 -653 0
-369 -654 0
-367 -1411 0
-368 -1412 0
-369 -1413 0
-370 -772 0
-371 -773 0
-372 -774 0
-370 -778 0
-371 -779 0
-372 -780 0
-370 -796 0
-371 -797 0
-372 -798 0
-370 -799 0
-371 -800 0
-372 -801 0
-370 -376 0
-371 -377 0
-372 -378 0
-370 -841 0
-371 -842 0
-372 -843 0
-370 -634 0
-371 -635 0
-372 -636 0
-370 -391 0
-371 -392 0
-372 -393 0
-370 -655 0
-371 -656 0
-372 -657 0
-370 -988 0
-371 -989 0
-372 -990 0
-370 -406 0
-371 -407 0
-372 -408 0
-373 -769 0
-374 -770 0
-375 -771 0
-373 -835 0
-374 -836 0
-375 -837 0
-373 -634 0
-374 -635 0
-375 -636 0
-373 -991 0
-374 -992 0
-375 -993 0
-376 -637 0
-377 -638 0
-378 -639 0
-376 -1306 0
-377 -1307 0
-378 -1308 0
-376 -1432 0
-377 -1433 0
-378 -1434 0
-376 -1888 0
-377 -1889 0
-378 -1890 0
-376 -1252 0
-377 -1253 0
-378 -1254 0
-376 -1690 0
-377 -1691 0
-378 -1692 0
-376 -1615 0
-377 -1616 0
-378 -1617 0
-376 -1876 0
-377 -1877 0
-378 -1878 0
-379 -682 0
-380 -683 0
-381 -684 0
-379 -2428 0
-380 -2429 0
-381 -2430 0
-379 -1816 0
-380 -1817 0
-381 -1818 0
-382 -1345 0
-383 -1346 0
-384 -1347 0
-382 -685 0
-383 -686 0
-384 -687 0
-382 -2158 0
-383 -2159 0
-384 -2160 0
-385 -1669 0
-386 -1670 0
-387 -1671 0
-385 -919 0
-386 -920 0
-387 -921 0
-388 -1873 0
-389 -1874 0
-390 -1875 0
-388 -922 0
-389 -923 0
-390 -924 0
-388 -1312 0
-389 -1313 0
-390 -1314 0
-388 -1327 0
-389 -1328 0
-390 -1329 0
-391 -1288 0
-392 -1289 0
-393 -1290 0
-391 -1645 0
-392 -1646 0
-393 -1647 0
-391 -1690 0
-392 -1691 0
-393 -1692 0
-391 -709 0
-392 -710 0
-393 -711 0
-394 -2323 0
-395 -2324 0
-396 -2325 0
-394 -859 0
-395 -860 0
-396 -861 0
-397 -1906 0
-398 -1907 0
-399 -1908 0
-397 -2410 0
-398 -2411 0
-399 -2412 0
-397 -859 0
-398 -860 0
-399 -861 0
-400 -1003 0
-401 -1004 0
-402 -1005 0
-400 -2134 0
-401 -2135 0
-402 -2136 0
-400 -2419 0
-401 -2420 0
-402 -2421 0
-403 -1012 0
-404 -1013 0
-405 -1014 0
-403 -1552 0
-404 -1553 0
-405 -1554 0
-403 -1633 0
-404 -1634 0
-405 -1635 0
-406 -2230 0
-407 -2231 0
-408 -2232 0
-406 -2347 0
-407 -2348 0
-408 -2349 0
-406 -2245 0
-407 -2246 0
-408 -2247 0
-406 -1975 0
-407 -1976 0
-408 -1977 0
-406 -736 0
-407 -737 0
-408 -738 0
-406 -1600 0
-407 -1601 0
-408 -1602 0
-406 -2281 0
-407 -2282 0
-408 -2283 0
-406 -2002 0
-407 -2003 0
-408 -2004 0
-409 -1777 0
-410 -1778 0
-411 -1779 0
-409 -2296 0
-410 -2297 0
-411 -2298 0
-409 -1504 0
-410 -1505 0
-411 -1506 0
-409 -1984 0
-410 -1985 0
-411 -1986 0
-409 -2302 0
-410 -2303 0
-411 -2304 0
-409 -1786 0
-410 -1787 0
-411 -1788 0
-409 -1573 0
-410 -1574 0
-411 -1575 0
-409 -739 0
-410 -740 0
-411 -741 0
-412 -748 0
-413 -749 0
-414 -750 0
-412 -2344 0
-413 -2345 0
-414 -2346 0
-412 -1819 0
-413 -1820 0
-414 -1821 0
-412 -2257 0
-413 -2258 0
-414 -2259 0
-412 -2155 0
-413 -2156 0
-414 -2157 0
-415 -2239 0
-416 -2240 0
-417 -2241 0
-415 -1729 0
-416 -1730 0
-417 -1731 0
-415 -913 0
-416 -914 0
-417 -915 0
-415 -2026 0
-416 -2027 0
-417 -2028 0
-415 -2041 0
-416 -2042 0
-417 -2043 0
-418 -1807 0
-419 -1808 0
-420 -1809 0
-418 -922 0
-419 -923 0
-420 -924 0
-418 -1657 0
-419 -1658 0
-420 -1659 0
-418 -1189 0
-419 -1190 0
-420 -1191 0
-421 -2113 0
-422 -2114 0
-423 -2115 0
-421 -2350 0
-422 -2351 0
-423 -2352 0
-421 -2122 0
-422 -2123 0
-423 -2124 0
-421 -970 0
-422 -971 0
-423 -972 0
-421 -1831 0
-422 -1832 0
-423 -1833 0
-424 -1654 0
-425 -1655 0
-426 -1656 0
-424 -1825 0
-425 -1826 0
-426 -1827 0
-424 -1762 0
-425 -1763 0
-426 -1764 0
-424 -976 0
-425 -977 0
-426 -978 0
-424 -1903 0
-425 -1904 0
-426 -1905 0
-427 -1834 0
-428 -1835 0
-429 -1836 0
-427 -979 0
-428 -980 0
-429 -981 0
-427 -2299 0
-428 -2300 0
-429 -2301 0
-430 -943 0
-431 -944 0
-432 -945 0
-430 -1858 0
-431 -1859 0
-432 -1860 0
-430 -1516 0
-431 -1517 0
-432 -1518 0
-433 -2239 0
-434 -2240 0
-435 -2241 0
-433 -913 0
-434 -914 0
-435 -915 0
-436 -2167 0
-437 -2168 0
-438 -2169 0
-436 -1873 0
-437 -1874 0
-438 -1875 0
-436 -922 0
-437 -923 0
-438 -924 0
-436 -1435 0
-437 -1436 0
-438 -1437 0
-439 -1003 0
-440 -1004 0
-441 -1005 0
-439 -1609 0
-440 -1610 0
-441 -1611 0
-439 -1309 0
-440 -1310 0
-441 -1311 0
-442 -1735 0
-443 -1736 0
-444 -1737 0
-442 -2017 0
-443 -2018 0
-444 -2019 0
-442 -1705 0
-443 -1706 0
-444 -1707 0
-445 -1921 0
-446 -1922 0
-447 -1923 0
-445 -2146 0
-446 -2147 0
-447 -2148 0
-445 -1945 0
-446 -1946 0
-447 -1947 0
-445 -2137 0
-446 -2138 0
-447 -2139 0
-445 -1075 0
-446 -1076 0
-447 -1077 0
-445 -1801 0
-446 -1802 0
-447 -1803 0
-445 -2401 0
-446 -2402 0
-447 -2403 0
-448 -2170 0
-449 -2171 0
-450 -2172 0
-448 -1063 0
-449 -1064 0
-450 -1065 0
-448 -1732 0
-449 -1733 0
-450 -1734 0
-451 -1012 0
-452 -1013 0
-453 -1014 0
-451 -1825 0
-452 -1826 0
-453 -1827 0
-451 -1225 0
-452 -1226 0
-453 -1227 0
-451 -2299 0
-452 -2300 0
-453 -2301 0
-454 -1003 0
-455 -1004 0
-456 -1005 0
-454 -2113 0
-455 -2114 0
-456 -2115 0
-454 -1651 0
-455 -1652 0
-456 -1653 0
-454 -2305 0
-455 -2306 0
-456 -2307 0
-457 -1906 0
-458 -1907 0
-459 -1908 0
-457 -1912 0
-458 -1913 0
-459 -1914 0
-457 -859 0
-458 -860 0
-459 -861 0
-460 -1522 0
-461 -1523 0
-462 -1524 0
-460 -859 0
-461 -860 0
-462 -861 0
-460 -2281 0
-461 -2282 0
-462 -2283 0
-463 -1912 0
-464 -1913 0
-465 -1914 0
-463 -859 0
-464 -860 0
-465 -861 0
-463 -1183 0
-464 -1184 0
-465 -1185 0
-463 -2422 0
-464 -2423 0
-465 -2424 0
-463 -1573 0
-464 -1574 0
-465 -1575 0
-466 -517 0
-467 -518 0
-468 -519 0
-466 -508 0
-467 -509 0
-468 -510 0
-466 -2356 0
-467 -2357 0
-468 -2358 0
-466 -1459 0
-467 -1460 0
-468 -1461 0
-466 -1840 0
-467 -1841 0
-468 -1842 0
-466 -2437 0
-467 -2438 0
-468 -2439 0
-469 -1219 0
-470 -1220 0
-471 -1221 0
-469 -1174 0
-470 -1175 0
-471 -1176 0
-469 -1867 0
-470 -1868 0
-471 -1869 0
-469 -514 0
-470 -515 0
-471 -516 0
-469 -1171 0
-470 -1172 0
-471 -1173 0
-472 -883 0
-473 -884 0
-474 -885 0
-472 -2245 0
-473 -2246 0
-474 -2247 0
-472 -1726 0
-473 -1727 0
-474 -1728 0
-472 -2032 0
-473 -2033 0
-474 -2034 0
-472 -2281 0
-473 -2282 0
-474 -2283 0
-475 -1192 0
-476 -1193 0
-477 -1194 0
-475 -886 0
-476 -887 0
-477 -888 0
-475 -1243 0
-476 -1244 0
-477 -1245 0
-478 -883 0
-479 -884 0
-480 -885 0
-478 -1486 0
-479 -1487 0
-480 -1488 0
-478 -1573 0
-479 -1574 0
-480 -1575 0
-481 -1450 0
-482 -1451 0
-483 -1452 0
-481 -859 0
-482 -860 0
-483 -861 0
-481 -1483 0
-482 -1484 0
-483 -1485 0
-481 -1507 0
-482 -1508 0
-483 -1509 0
-484 -1924 0
-485 -1925 0
-486 -1926 0
-484 -1915 0
-485 -1916 0
-486 -1917 0
-484 -856 0
-485 -857 0
-486 -858 0
-487 -883 0
-488 -884 0
-489 -885 0
-487 -1633 0
-488 -1634 0
-489 -1635 0
-487 -1663 0
-488 -1664 0
-489 -1665 0
-490 -1396 0
-491 -1397 0
-492 -1398 0
-490 -1885 0
-491 -1886 0
-492 -1887 0
-490 -883 0
-491 -884 0
-492 -885 0
-490 -1228 0
-491 -1229 0
-492 -1230 0
-493 -898 0
-494 -899 0
-495 -900 0
-493 -1021 0
-494 -1022 0
-495 -1023 0
-493 -1030 0
-494 -1031 0
-495 -1032 0
-493 -505 0
-494 -506 0
-495 -507 0
-493 -634 0
-494 -635 0
-495 -636 0
-496 -499 0
-497 -500 0
-498 -501 0
-496 -2131 0
-497 -2132 0
-498 -2133 0
-496 -613 0
-497 -614 0
-498 -615 0
-499 -901 0
-500 -902 0
-501 -903 0
-499 -1033 0
-500 -1034 0
-501 -1035 0
-499 -634 0
-500 -635 0
-501 -636 0
-502 -1927 0
-503 -1928 0
-504 -1929 0
-502 -508 0
-503 -509 0
-504 -510 0
-502 -2356 0
-503 -2357 0
-504 -2358 0
-502 -580 0
-503 -581 0
-504 -582 0
-505 -682 0
-506 -683 0
-507 -684 0
-505 -1738 0
-506 -1739 0
-507 -1740 0
-505 -1465 0
-506 -1466 0
-507 -1467 0
-505 -1381 0
-506 -1382 0
-507 -1383 0
-505 -1309 0
-506 -1310 0
-507 -1311 0
-505 -1318 0
-506 -1319 0
-507 -1320 0
-508 -1090 0
-509 -1091 0
-510 -1092 0
-508 -715 0
-509 -716 0
-510 -717 0
-508 -634 0
-509 -635 0
-510 -636 0
-508 -526 0
-509 -527 0
-510 -528 0
-511 -1219 0
-512 -1220 0
-513 -1221 0
-511 -1543 0
-512 -1544 0
-513 -1545 0
-511 -2206 0
-512 -2207 0
-513 -2208 0
-511 -631 0
-512 -632 0
-513 -633 0
-511 -1627 0
-512 -1628 0
-513 -1629 0
-511 -514 0
-512 -515 0
-513 -516 0
-514 -1093 0
-515 -1094 0
-516 -1095 0
-514 -829 0
-515 -830 0
-516 -831 0
-514 -634 0
-515 -635 0
-516 -636 0
-514 -529 0
-515 -530 0
-516 -531 0
-517 -1096 0
-518 -1097 0
-519 -1098 0
-517 -1039 0
-518 -1040 0
-519 -1041 0
-517 -718 0
-518 -719 0
-519 -720 0
-517 -832 0
-518 -833 0
-519 -834 0
-517 -634 0
-518 -635 0
-519 -636 0
-517 -523 0
-518 -524 0
-519 -525 0
-517 -532 0
-518 -533 0
-519 -534 0
-520 -1219 0
-521 -1220 0
-522 -1221 0
-520 -1213 0
-521 -1214 0
-522 -1215 0
-520 -631 0
-521 -632 0
-522 -633 0
-520 -1231 0
-521 -1232 0
-522 -1233 0
-523 -1936 0
-524 -1937 0
-525 -1938 0
-523 -637 0
-524 -638 0
-525 -639 0
-523 -1306 0
-524 -1307 0
-525 -1308 0
-523 -1459 0
-524 -1460 0
-525 -1461 0
-523 -1948 0
-524 -1949 0
-525 -1950 0
-526 -1939 0
-527 -1940 0
-528 -1941 0
-526 -1927 0
-527 -1928 0
-528 -1929 0
-526 -1840 0
-527 -1841 0
-528 -1842 0
-526 -709 0
-527 -710 0
-528 -711 0
-526 -2071 0
-527 -2072 0
-528 -2073 0
-529 -1174 0
-530 -1175 0
-531 -1176 0
-529 -709 0
-530 -710 0
-531 -711 0
-529 -2332 0
-530 -2333 0
-531 -2334 0
-532 -709 0
-533 -710 0
-534 -711 0
-532 -1840 0
-533 -1841 0
-534 -1842 0
-532 -2335 0
-533 -2336 0
-534 -2337 0
-535 -1198 0
-536 -1199 0
-537 -1200 0
-535 -2212 0
-536 -2213 0
-537 -2214 0
-535 -583 0
-536 -584 0
-537 -585 0
-535 -1636 0
-536 -1637 0
-537 -1638 0
-535 -580 0
-536 -581 0
-537 -582 0
-538 -592 0
-539 -593 0
-540 -594 0
-538 -1969 0
-539 -1970 0
-540 -1971 0
-538 -2431 0
-539 -2432 0
-540 -2433 0
-538 -1834 0
-539 -1835 0
-540 -1836 0
-538 -562 0
-539 -563 0
-540 -564 0
-541 -943 0
-542 -944 0
-543 -945 0
-541 -1684 0
-542 -1685 0
-543 -1686 0
-544 -1972 0
-545 -1973 0
-546 -1974 0
-544 -1198 0
-545 -1199 0
-546 -1200 0
-544 -2212 0
-545 -2213 0
-546 -2214 0
-544 -556 0
-545 -557 0
-546 -558 0
-544 -1168 0
-545 -1169 0
-546 -1170 0
-544 -613 0
-545 -614 0
-546 -615 0
-547 -1243 0
-548 -1244 0
-549 -1245 0
-547 -2380 0
-548 -2381 0
-549 -2382 0
-547 -913 0
-548 -914 0
-549 -915 0
-550 -919 0
-551 -920 0
-552 -921 0
-550 -2032 0
-551 -2033 0
-552 -2034 0
-550 -1681 0
-551 -1682 0
-552 -1683 0
-553 -1966 0
-554 -1967 0
-555 -1968 0
-553 -1654 0
-554 -1655 0
-555 -1656 0
-553 -1825 0
-554 -1826 0
-555 -1827 0
-553 -1063 0
-554 -1064 0
-555 -1065 0
-556 -559 0
-557 -560 0
-558 -561 0
-556 -598 0
-557 -599 0
-558 -600 0
-556 -601 0
-557 -602 0
-558 -603 0
-556 -604 0
-557 -605 0
-558 -606 0
-556 -727 0
-557 -728 0
-558 -729 0
-556 -730 0
-557 -731 0
-558 -732 0
-556 -634 0
-557 -635 0
-558 -636 0
-556 -844 0
-557 -845 0
-558 -846 0
-559 -652 0
-560 -653 0
-561 -654 0
-559 -1969 0
-560 -1970 0
-561 -1971 0
-559 -1567 0
-560 -1568 0
-561 -1569 0
-559 -1429 0
-560 -1430 0
-561 -1431 0
-559 -1720 0
-560 -1721 0
-561 -1722 0
-562 -577 0
-563 -578 0
-564 -579 0
-562 -1102 0
-563 -1103 0
-564 -1104 0
-562 -1048 0
-563 -1049 0
-564 -1050 0
-562 -634 0
-563 -635 0
-564 -636 0
-565 -1489 0
-566 -1490 0
-567 -1491 0
-565 -1567 0
-566 -1568 0
-567 -1569 0
-565 -1570 0
-566 -1571 0
-567 -1572 0
-565 -613 0
-566 -614 0
-567 -615 0
-565 -580 0
-566 -581 0
-567 -582 0
-568 -970 0
-569 -971 0
-570 -972 0
-568 -1831 0
-569 -1832 0
-570 -1833 0
-568 -1660 0
-569 -1661 0
-570 -1662 0
-571 -1861 0
-572 -1862 0
-573 -1863 0
-571 -1828 0
-572 -1829 0
-573 -1830 0
-571 -1834 0
-572 -1835 0
-573 -1836 0
-571 -979 0
-572 -980 0
-573 -981 0
-574 -1762 0
-575 -1763 0
-576 -1764 0
-574 -976 0
-575 -977 0
-576 -978 0
-574 -1858 0
-575 -1859 0
-576 -1860 0
-574 -1768 0
-575 -1769 0
-576 -1770 0
-574 -1417 0
-575 -1418 0
-576 -1419 0
-574 -1516 0
-575 -1517 0
-576 -1518 0
-577 -1972 0
-578 -1973 0
-579 -1974 0
-577 -1528 0
-578 -1529 0
-579 -1530 0
-577 -1531 0
-578 -1532 0
-579 -1533 0
-577 -1534 0
-578 -1535 0
-579 -1536 0
-577 -652 0
-578 -653 0
-579 -654 0
-580 -658 0
-581 -659 0
-582 -660 0
-580 -607 0
-581 -608 0
-582 -609 0
-580 -1051 0
-581 -1052 0
-582 -1053 0
-580 -634 0
-581 -635 0
-582 -636 0
-583 -661 0
-584 -662 0
-585 -663 0
-583 -907 0
-584 -908 0
-585 -909 0
-583 -634 0
-584 -635 0
-585 -636 0
-586 -592 0
-587 -593 0
-588 -594 0
-586 -1528 0
-587 -1529 0
-588 -1530 0
-586 -613 0
-587 -614 0
-588 -615 0
-589 -1285 0
-590 -1286 0
-591 -1287 0
-589 -922 0
-590 -923 0
-591 -924 0
-589 -1561 0
-590 -1562 0
-591 -1563 0
-589 -1321 0
-590 -1322 0
-591 -1323 0
-592 -664 0
-593 -665 0
-594 -666 0
-592 -595 0
-593 -596 0
-594 -597 0
-592 -928 0
-593 -929 0
-594 -930 0
-592 -634 0
-593 -635 0
-594 -636 0
-592 -847 0
-593 -848 0
-594 -849 0
-595 -1423 0
-596 -1424 0
-597 -1425 0
-595 -1357 0
-596 -1358 0
-597 -1359 0
-595 -652 0
-596 -653 0
-597 -654 0
-598 -1969 0
-599 -1970 0
-600 -1971 0
-598 -670 0
-599 -671 0
-600 -672 0
-598 -1399 0
-599 -1400 0
-600 -1401 0
-601 -1774 0
-602 -1775 0
-603 -1776 0
-601 -682 0
-602 -683 0
-603 -684 0
-601 -2212 0
-602 -2213 0
-603 -2214 0
-601 -1171 0
-602 -1172 0
-603 -1173 0
-604 -1420 0
-605 -1421 0
-606 -1422 0
-604 -1567 0
-605 -1568 0
-606 -1569 0
-604 -2392 0
-605 -2393 0
-606 -2394 0
-604 -2038 0
-605 -2039 0
-606 -2040 0
-604 -685 0
-605 -686 0
-606 -687 0
-607 -682 0
-608 -683 0
-609 -684 0
-607 -1390 0
-608 -1391 0
-609 -1392 0
-607 -1309 0
-608 -1310 0
-609 -1311 0
-607 -1567 0
-608 -1568 0
-609 -1569 0
-610 -1777 0
-611 -1778 0
-612 -1779 0
-610 -1294 0
-611 -1295 0
-612 -1296 0
-610 -859 0
-611 -860 0
-612 -861 0
-613 -667 0
-614 -668 0
-615 -669 0
-613 -688 0
-614 -689 0
-615 -690 0
-613 -700 0
-614 -701 0
-615 -702 0
-613 -910 0
-614 -911 0
-615 -912 0
-613 -619 0
-614 -620 0
-615 -621 0
-613 -934 0
-614 -935 0
-615 -936 0
-613 -634 0
-614 -635 0
-615 -636 0
-613 -958 0
-614 -959 0
-615 -960 0
-613 -862 0
-614 -863 0
-615 -864 0
-616 -1294 0
-617 -1295 0
-618 -1296 0
-616 -2125 0
-617 -2126 0
-618 -2127 0
-616 -1657 0
-617 -1658 0
-618 -1659 0
-616 -913 0
-617 -914 0
-618 -915 0
-616 -1981 0
-617 -1982 0
-618 -1983 0
-616 -2275 0
-617 -2276 0
-618 -2277 0
-619 -643 0
-620 -644 0
-621 -645 0
-619 -1795 0
-620 -1796 0
-621 -1797 0
-619 -1426 0
-620 -1427 0
-621 -1428 0
-619 -1594 0
-620 -1595 0
-621 -1596 0
-619 -1783 0
-620 -1784 0
-621 -1785 0
-619 -1891 0
-620 -1892 0
-621 -1893 0
-619 -1789 0
-620 -1790 0
-621 -1791 0
-622 -1639 0
-623 -1640 0
-624 -1641 0
-622 -2029 0
-623 -2030 0
-624 -2031 0
-622 -631 0
-623 -632 0
-624 -633 0
-622 -625 0
-623 -626 0
-624 -627 0
-622 -1681 0
-623 -1682 0
-624 -1683 0
-625 -679 0
-626 -680 0
-627 -681 0
-625 -1054 0
-626 -1055 0
-627 -1056 0
-625 -634 0
-626 -635 0
-627 -636 0
-625 -646 0
-626 -647 0
-627 -648 0
-628 -1735 0
-629 -1736 0
-630 -1737 0
-628 -2029 0
-629 -2030 0
-630 -2031 0
-628 -631 0
-629 -632 0
-630 -633 0
-628 -1609 0
-629 -1610 0
-630 -1611 0
-628 -1711 0
-629 -1712 0
-630 -1713 0
-628 -1279 0
-629 -1280 0
-630 -1281 0
-631 -1006 0
-632 -1007 0
-633 -1008 0
-631 -916 0
-632 -917 0
-633 -918 0
-631 -1108 0
-632 -1109 0
-633 -1110 0
-631 -1057 0
-632 -1058 0
-633 -1059 0
-631 -742 0
-632 -743 0
-633 -744 0
-631 -634 0
-632 -635 0
-633 -636 0
-631 -850 0
-632 -851 0
-633 -852 0
-631 -853 0
-632 -854 0
-633 -855 0
-631 -973 0
-632 -974 0
-633 -975 0
-631 -880 0
-632 -881 0
-633 -882 0
-634 -1075 0
-635 -1076 0
-636 -1077 0
-634 -670 0
-635 -671 0
-636 -672 0
-634 -1003 0
-635 -1004 0
-636 -1005 0
-634 -1012 0
-635 -1013 0
-636 -1014 0
-634 -682 0
-635 -683 0
-636 -684 0
-634 -685 0
-635 -686 0
-636 -687 0
-634 -1072 0
-635 -1073 0
-636 -1074 0
-634 -697 0
-635 -698 0
-636 -699 0
-634 -709 0
-635 -710 0
-636 -711 0
-634 -1105 0
-635 -1106 0
-636 -1107 0
-634 -913 0
-635 -914 0
-636 -915 0
-634 -919 0
-635 -920 0
-636 -921 0
-634 -922 0
-635 -923 0
-636 -924 0
-634 -1111 0
-635 -1112 0
-636 -1113 0
-634 -733 0
-635 -734 0
-636 -735 0
-634 -1063 0
-635 -1064 0
-636 -1065 0
-634 -736 0
-635 -737 0
-636 -738 0
-634 -940 0
-635 -941 0
-636 -942 0
-634 -739 0
-635 -740 0
-636 -741 0
-634 -748 0
-635 -749 0
-636 -750 0
-634 -943 0
-635 -944 0
-636 -945 0
-634 -946 0
-635 -947 0
-636 -948 0
-634 -637 0
-635 -638 0
-636 -639 0
-634 -643 0
-635 -644 0
-636 -645 0
-634 -856 0
-635 -857 0
-636 -858 0
-634 -859 0
-635 -860 0
-636 -861 0
-634 -970 0
-635 -971 0
-636 -972 0
-634 -976 0
-635 -977 0
-636 -978 0
-634 -979 0
-635 -980 0
-636 -981 0
-634 -652 0
-635 -653 0
-636 -654 0
-634 -760 0
-635 -761 0
-636 -762 0
-634 -883 0
-635 -884 0
-636 -885 0
-634 -886 0
-635 -887 0
-636 -888 0
-634 -1069 0
-635 -1070 0
-636 -1071 0
-634 -763 0
-635 -764 0
-636 -765 0
-637 -1078 0
-638 -1079 0
-639 -1080 0
-637 -1009 0
-638 -1010 0
-639 -1011 0
-637 -1114 0
-638 -1115 0
-639 -1116 0
-637 -1060 0
-638 -1061 0
-639 -1062 0
-637 -745 0
-638 -746 0
-639 -747 0
-637 -640 0
-638 -641 0
-639 -642 0
-637 -889 0
-638 -890 0
-639 -891 0
-640 -2440 0
-641 -2441 0
-642 -2442 0
-640 -2149 0
-641 -2150 0
-642 -2151 0
-643 -931 0
-644 -932 0
-645 -933 0
-646 -652 0
-647 -653 0
-648 -654 0
-646 -1723 0
-647 -1724 0
-648 -1725 0
-646 -1357 0
-647 -1358 0
-648 -1359 0
-646 -1537 0
-647 -1538 0
-648 -1539 0
-649 -1576 0
-650 -1577 0
-651 -1578 0
-649 -1441 0
-650 -1442 0
-651 -1443 0
-649 -922 0
-650 -923 0
-651 -924 0
-649 -1666 0
-650 -1667 0
-651 -1668 0
-649 -1432 0
-650 -1433 0
-651 -1434 0
-649 -1321 0
-650 -1322 0
-651 -1323 0
-649 -1771 0
-650 -1772 0
-651 -1773 0
-649 -1672 0
-650 -1673 0
-651 -1674 0
-652 -676 0
-653 -677 0
-654 -678 0
-652 -694 0
-653 -695 0
-654 -696 0
-652 -712 0
-653 -713 0
-654 -714 0
-652 -925 0
-653 -926 0
-654 -927 0
-652 -874 0
-653 -875 0
-654 -876 0
-652 -877 0
-653 -878 0
-654 -879 0
-652 -994 0
-653 -995 0
-654 -996 0
-655 -883 0
-656 -884 0
-657 -885 0
-655 -1975 0
-656 -1976 0
-657 -1977 0
-655 -1432 0
-656 -1433 0
-657 -1434 0
-658 -2212 0
-659 -2213 0
-660 -2214 0
-658 -1927 0
-659 -1928 0
-660 -1929 0
-658 -709 0
-659 -710 0
-660 -711 0
-658 -1570 0
-659 -1571 0
-660 -1572 0
-661 -2212 0
-662 -2213 0
-663 -2214 0
-661 -1645 0
-662 -1646 0
-663 -1647 0
-661 -709 0
-662 -710 0
-663 -711 0
-664 -1969 0
-665 -1970 0
-666 -1971 0
-664 -1402 0
-665 -1403 0
-666 -1404 0
-664 -709 0
-665 -710 0
-666 -711 0
-667 -1564 0
-668 -1565 0
-669 -1566 0
-667 -670 0
-668 -671 0
-669 -672 0
-667 -1789 0
-668 -1790 0
-669 -1791 0
-670 -997 0
-671 -998 0
-672 -999 0
-670 -676 0
-671 -677 0
-672 -678 0
-670 -937 0
-671 -938 0
-672 -939 0
-670 -757 0
-671 -758 0
-672 -759 0
-673 -2221 0
-674 -2222 0
-675 -2223 0
-673 -1981 0
-674 -1982 0
-675 -1983 0
-673 -940 0
-674 -941 0
-675 -942 0
-673 -1234 0
-674 -1235 0
-675 -1236 0
-676 -1969 0
-677 -1970 0
-678 -1971 0
-676 -1972 0
-677 -1973 0
-678 -1974 0
-676 -1546 0
-677 -1547 0
-678 -1548 0
-679 -682 0
-680 -683 0
-681 -684 0
-679 -1465 0
-680 -1466 0
-681 -1467 0
-679 -1537 0
-680 -1538 0
-681 -1539 0
-682 -1000 0
-683 -1001 0
-684 -1002 0
-682 -1081 0
-683 -1082 0
-684 -1083 0
-682 -1015 0
-683 -1016 0
-684 -1017 0
-682 -949 0
-683 -950 0
-684 -951 0
-682 -751 0
-683 -752 0
-684 -753 0
-682 -754 0
-683 -755 0
-684 -756 0
-685 -694 0
-686 -695 0
-687 -696 0
-685 -952 0
-686 -953 0
-687 -954 0
-688 -1522 0
-689 -1523 0
-690 -1524 0
-688 -1972 0
-689 -1973 0
-690 -1974 0
-688 -1528 0
-689 -1529 0
-690 -1530 0
-688 -697 0
-689 -698 0
-690 -699 0
-691 -1012 0
-692 -1013 0
-693 -1014 0
-691 -1372 0
-692 -1373 0
-693 -1374 0
-691 -1993 0
-692 -1994 0
-693 -1995 0
-691 -1996 0
-692 -1997 0
-693 -1998 0
-691 -2416 0
-692 -2417 0
-693 -2418 0
-694 -1486 0
-695 -1487 0
-696 -1488 0
-694 -1525 0
-695 -1526 0
-696 -1527 0
-694 -1567 0
-695 -1568 0
-696 -1569 0
-694 -1570 0
-695 -1571 0
-696 -1572 0
-694 -2158 0
-695 -2159 0
-696 -2160 0
-697 -955 0
-698 -956 0
-699 -957 0
-697 -1066 0
-698 -1067 0
-699 -1068 0
-700 -1570 0
-701 -1571 0
-702 -1572 0
-700 -709 0
-701 -710 0
-702 -711 0
-700 -1249 0
-701 -1250 0
-702 -1251 0
-700 -1282 0
-701 -1283 0
-702 -1284 0
-703 -970 0
-704 -971 0
-705 -972 0
-703 -1276 0
-704 -1277 0
-705 -1278 0
-706 -1639 0
-707 -1640 0
-708 -1641 0
-706 -970 0
-707 -971 0
-708 -972 0
-709 -892 0
-710 -893 0
-711 -894 0
-709 -1084 0
-710 -1085 0
-711 -1086 0
-709 -712 0
-710 -713 0
-711 -714 0
-709 -1117 0
-710 -1118 0
-711 -1119 0
-709 -967 0
-710 -968 0
-711 -969 0
-709 -985 0
-710 -986 0
-711 -987 0
-712 -1528 0
-713 -1529 0
-714 -1530 0
-712 -2263 0
-713 -2264 0
-714 -2265 0
-715 -1642 0
-716 -1643 0
-717 -1644 0
-715 -2107 0
-716 -2108 0
-717 -2109 0
-715 -2071 0
-716 -2072 0
-717 -2073 0
-715 -763 0
-716 -764 0
-717 -765 0
-718 -763 0
-719 -764 0
-720 -765 0
-718 -1798 0
-719 -1799 0
-720 -1800 0
-721 -2209 0
-722 -2210 0
-723 -2211 0
-721 -1849 0
-722 -1850 0
-723 -1851 0
-721 -1558 0
-722 -1559 0
-723 -1560 0
-721 -1930 0
-722 -1931 0
-723 -1932 0
-721 -2419 0
-722 -2420 0
-723 -2421 0
-721 -1111 0
-722 -1112 0
-723 -1113 0
-721 -1837 0
-722 -1838 0
-723 -1839 0
-724 -1111 0
-725 -1112 0
-726 -1113 0
-724 -2308 0
-725 -2309 0
-726 -2310 0
-724 -1642 0
-725 -1643 0
-726 -1644 0
-727 -1774 0
-728 -1775 0
-729 -1776 0
-727 -1804 0
-728 -1805 0
-729 -1806 0
-727 -733 0
-728 -734 0
-729 -735 0
-727 -1444 0
-728 -1445 0
-729 -1446 0
-730 -1420 0
-731 -1421 0
-732 -1422 0
-730 -748 0
-731 -749 0
-732 -750 0
-730 -1261 0
-731 -1262 0
-732 -1263 0
-730 -1720 0
-731 -1721 0
-732 -1722 0
-730 -1399 0
-731 -1400 0
-732 -1401 0
-730 -1414 0
-731 -1415 0
-732 -1416 0
-733 -790 0
-734 -791 0
-735 -792 0
-733 -1027 0
-734 -1028 0
-735 -1029 0
-733 -751 0
-734 -752 0
-735 -753 0
-736 -793 0
-737 -794 0
-738 -795 0
-736 -1018 0
-737 -1019 0
-738 -1020 0
-736 -904 0
-737 -905 0
-738 -906 0
-736 -1024 0
-737 -1025 0
-738 -1026 0
-736 -1036 0
-737 -1037 0
-738 -1038 0
-736 -754 0
-737 -755 0
-738 -756 0
-739 -790 0
-740 -791 0
-741 -792 0
-739 -1042 0
-740 -1043 0
-741 -1044 0
-739 -745 0
-740 -746 0
-741 -747 0
-742 -748 0
-743 -749 0
-744 -750 0
-742 -1246 0
-743 -1247 0
-744 -1248 0
-742 -1273 0
-743 -1274 0
-744 -1275 0
-742 -1279 0
-743 -1280 0
-744 -1281 0
-742 -1405 0
-743 -1406 0
-744 -1407 0
-742 -2344 0
-743 -2345 0
-744 -2346 0
-745 -1237 0
-746 -1238 0
-747 -1239 0
-745 -1375 0
-746 -1376 0
-747 -1377 0
-745 -1870 0
-746 -1871 0
-747 -1872 0
-745 -1786 0
-746 -1787 0
-747 -1788 0
-748 -793 0
-749 -794 0
-750 -795 0
-748 -757 0
-749 -758 0
-750 -759 0
-751 -1774 0
-752 -1775 0
-753 -1776 0
-751 -2290 0
-752 -2291 0
-753 -2292 0
-751 -2284 0
-752 -2285 0
-753 -2286 0
-754 -1471 0
-755 -1472 0
-756 -1473 0
-754 -1381 0
-755 -1382 0
-756 -1383 0
-754 -1390 0
-755 -1391 0
-756 -1392 0
-757 -2290 0
-758 -2291 0
-759 -2292 0
-757 -2284 0
-758 -2285 0
-759 -2286 0
-757 -1399 0
-758 -1400 0
-759 -1401 0
-760 -1120 0
-761 -1121 0
-762 -1122 0
-763 -1045 0
-764 -1046 0
-765 -1047 0
-763 -826 0
-764 -827 0
-765 -828 0
-766 -2293 0
-767 -2294 0
-768 -2295 0
-766 -2371 0
-767 -2372 0
-768 -2373 0
-766 -1963 0
-767 -1964 0
-768 -1965 0
-769 -1177 0
-770 -1178 0
-771 -1179 0
-769 -1222 0
-770 -1223 0
-771 -1224 0
-769 -1591 0
-770 -1592 0
-771 -1593 0
-769 -913 0
-770 -914 0
-771 -915 0
-769 -1999 0
-770 -2000 0
-771 -2001 0
-772 -1684 0
-773 -1685 0
-774 -1686 0
-772 -2056 0
-773 -2057 0
-774 -2058 0
-772 -2020 0
-773 -2021 0
-774 -2022 0
-772 -919 0
-773 -920 0
-774 -921 0
-772 -2269 0
-773 -2270 0
-774 -2271 0
-775 -1261 0
-776 -1262 0
-777 -1263 0
-775 -1699 0
-776 -1700 0
-777 -1701 0
-775 -1399 0
-776 -1400 0
-777 -1401 0
-775 -1504 0
-776 -1505 0
-777 -1506 0
-775 -940 0
-776 -941 0
-777 -942 0
-775 -1510 0
-776 -1511 0
-777 -1512 0
-775 -1987 0
-776 -1988 0
-777 -1989 0
-778 -1774 0
-779 -1775 0
-780 -1776 0
-778 -1603 0
-779 -1604 0
-780 -1605 0
-778 -943 0
-779 -944 0
-780 -945 0
-778 -2002 0
-779 -2003 0
-780 -2004 0
-778 -1888 0
-779 -1889 0
-780 -1890 0
-778 -2008 0
-779 -2009 0
-780 -2010 0
-781 -1489 0
-782 -1490 0
-783 -1491 0
-781 -970 0
-782 -971 0
-783 -972 0
-781 -1183 0
-782 -1184 0
-783 -1185 0
-781 -1573 0
-782 -1574 0
-783 -1575 0
-784 -2254 0
-785 -2255 0
-786 -2256 0
-784 -979 0
-785 -980 0
-786 -981 0
-787 -1951 0
-788 -1952 0
-789 -1953 0
-787 -1909 0
-788 -1910 0
-789 -1911 0
-787 -2347 0
-788 -2348 0
-789 -2349 0
-787 -1975 0
-788 -1976 0
-789 -1977 0
-787 -976 0
-788 -977 0
-789 -978 0
-787 -2389 0
-788 -2390 0
-789 -2391 0
-790 -1375 0
-791 -1376 0
-792 -1377 0
-790 -1645 0
-791 -1646 0
-792 -1647 0
-790 -1393 0
-791 -1394 0
-792 -1395 0
-793 -1246 0
-794 -1247 0
-795 -1248 0
-793 -1261 0
-794 -1262 0
-795 -1263 0
-793 -1267 0
-794 -1268 0
-795 -1269 0
-793 -2386 0
-794 -2387 0
-795 -2388 0
-793 -1402 0
-794 -1403 0
-795 -1404 0
-796 -1777 0
-797 -1778 0
-798 -1779 0
-796 -970 0
-797 -971 0
-798 -972 0
-796 -2296 0
-797 -2297 0
-798 -2298 0
-799 -1534 0
-800 -1535 0
-801 -1536 0
-799 -976 0
-800 -977 0
-801 -978 0
-799 -2281 0
-800 -2282 0
-801 -2283 0
-802 -1879 0
-803 -1880 0
-804 -1881 0
-802 -1003 0
-803 -1004 0
-804 -1005 0
-802 -2428 0
-803 -2429 0
-804 -2430 0
-802 -1951 0
-803 -1952 0
-804 -1953 0
-805 -2407 0
-806 -2408 0
-807 -2409 0
-805 -1957 0
-806 -1958 0
-807 -1959 0
-805 -1855 0
-806 -1856 0
-807 -1857 0
-805 -2326 0
-806 -2327 0
-807 -2328 0
-805 -2176 0
-806 -2177 0
-807 -2178 0
-805 -1864 0
-806 -1865 0
-807 -1866 0
-805 -1111 0
-806 -1112 0
-807 -1113 0
-805 -2278 0
-806 -2279 0
-807 -2280 0
-808 -2164 0
-809 -2165 0
-810 -2166 0
-808 -1462 0
-809 -1463 0
-810 -1464 0
-808 -2410 0
-809 -2411 0
-810 -2412 0
-808 -1648 0
-809 -1649 0
-810 -1650 0
-808 -1111 0
-809 -1112 0
-810 -1113 0
-808 -2149 0
-809 -2150 0
-810 -2151 0
-808 -2128 0
-809 -2129 0
-810 -2130 0
-808 -2179 0
-809 -2180 0
-810 -2181 0
-808 -1468 0
-809 -1469 0
-810 -1470 0
-808 -1540 0
-809 -1541 0
-810 -1542 0
-811 -1882 0
-812 -1883 0
-813 -1884 0
-811 -1075 0
-812 -1076 0
-813 -1077 0
-811 -1864 0
-812 -1865 0
-813 -1866 0
-814 -1297 0
-815 -1298 0
-816 -1299 0
-814 -1507 0
-815 -1508 0
-816 -1509 0
-814 -1063 0
-815 -1064 0
-816 -1065 0
-814 -1747 0
-815 -1748 0
-816 -1749 0
-817 -1396 0
-818 -1397 0
-819 -1398 0
-817 -2116 0
-818 -2117 0
-819 -2118 0
-817 -1339 0
-818 -1340 0
-819 -1341 0
-817 -1297 0
-818 -1298 0
-819 -1299 0
-817 -1351 0
-818 -1352 0
-819 -1353 0
-820 -1072 0
-821 -1073 0
-822 -1074 0
-820 -1201 0
-821 -1202 0
-822 -1203 0
-820 -1588 0
-821 -1589 0
-822 -1590 0
-820 -1597 0
-821 -1598 0
-822 -1599 0
-820 -1714 0
-821 -1715 0
-822 -1716 0
-820 -1672 0
-821 -1673 0
-822 -1674 0
-823 -2200 0
-824 -2201 0
-825 -2202 0
-823 -1195 0
-824 -1196 0
-825 -1197 0
-823 -1069 0
-824 -1070 0
-825 -1071 0
-823 -2275 0
-824 -2276 0
-825 -2277 0
-826 -1195 0
-827 -1196 0
-828 -1197 0
-826 -1441 0
-827 -1442 0
-828 -1443 0
-826 -2107 0
-827 -2108 0
-828 -2109 0
-829 -859 0
-830 -860 0
-831 -861 0
-829 -1183 0
-830 -1184 0
-831 -1185 0
-829 -2338 0
-830 -2339 0
-831 -2340 0
-832 -1936 0
-833 -1937 0
-834 -1938 0
-832 -2320 0
-833 -2321 0
-834 -2322 0
-832 -2233 0
-833 -2234 0
-834 -2235 0
-832 -2353 0
-833 -2354 0
-834 -2355 0
-832 -2323 0
-833 -2324 0
-834 -2325 0
-832 -859 0
-833 -860 0
-834 -861 0
-832 -1726 0
-833 -1727 0
-834 -1728 0
-835 -2005 0
-836 -2006 0
-837 -2007 0
-835 -1177 0
-836 -1178 0
-837 -1179 0
-835 -1588 0
-836 -1589 0
-837 -1590 0
-835 -1072 0
-836 -1073 0
-837 -1074 0
-838 -1075 0
-839 -1076 0
-840 -1077 0
-838 -2362 0
-839 -2363 0
-840 -2364 0
-838 -1801 0
-839 -1802 0
-840 -1803 0
-838 -1354 0
-839 -1355 0
-840 -1356 0
-838 -1819 0
-839 -1820 0
-840 -1821 0
-841 -1882 0
-842 -1883 0
-843 -1884 0
-841 -1603 0
-842 -1604 0
-843 -1605 0
-841 -1075 0
-842 -1076 0
-843 -1077 0
-841 -1354 0
-842 -1355 0
-843 -1356 0
-841 -1600 0
-842 -1601 0
-843 -1602 0
-844 -1846 0
-845 -1847 0
-846 -1848 0
-844 -1885 0
-845 -1886 0
-846 -1887 0
-844 -883 0
-845 -884 0
-846 -885 0
-847 -1450 0
-848 -1451 0
-849 -1452 0
-847 -2431 0
-848 -2432 0
-849 -2433 0
-847 -859 0
-848 -860 0
-849 -861 0
-850 -856 0
-851 -857 0
-852 -858 0
-850 -1216 0
-851 -1217 0
-852 -1218 0
-853 -1750 0
-854 -1751 0
-855 -1752 0
-853 -1474 0
-854 -1475 0
-855 -1476 0
-853 -1294 0
-854 -1295 0
-855 -1296 0
-853 -2119 0
-854 -2120 0
-855 -2121 0
-853 -859 0
-854 -860 0
-855 -861 0
-853 -1405 0
-854 -1406 0
-855 -1407 0
-856 -892 0
-857 -893 0
-858 -894 0
-856 -874 0
-857 -875 0
-858 -876 0
-859 -1087 0
-860 -1088 0
-861 -1089 0
-859 -877 0
-860 -878 0
-861 -879 0
-862 -1210 0
-863 -1211 0
-864 -1212 0
-862 -1228 0
-863 -1229 0
-864 -1230 0
-862 -883 0
-863 -884 0
-864 -885 0
-865 -1219 0
-866 -1220 0
-867 -1221 0
-865 -1111 0
-866 -1112 0
-867 -1113 0
-865 -2434 0
-866 -2435 0
-867 -2436 0
-865 -1360 0
-866 -1361 0
-867 -1362 0
-868 -2164 0
-869 -2165 0
-870 -2166 0
-868 -1480 0
-869 -1481 0
-870 -1482 0
-868 -1111 0
-869 -1112 0
-870 -1113 0
-868 -1459 0
-869 -1460 0
-870 -1461 0
-868 -2422 0
-869 -2423 0
-870 -2424 0
-871 -1219 0
-872 -1220 0
-873 -1221 0
-871 -2326 0
-872 -2327 0
-873 -2328 0
-871 -1111 0
-872 -1112 0
-873 -1113 0
-871 -1363 0
-872 -1364 0
-873 -1365 0
-871 -1867 0
-872 -1868 0
-873 -1869 0
-874 -1549 0
-875 -1550 0
-876 -1551 0
-874 -1924 0
-875 -1925 0
-876 -1926 0
-877 -2119 0
-878 -2120 0
-879 -2121 0
-877 -1483 0
-878 -1484 0
-879 -1485 0
-877 -1531 0
-878 -1532 0
-879 -1533 0
-880 -1273 0
-881 -1274 0
-882 -1275 0
-880 -1474 0
-881 -1475 0
-882 -1476 0
-880 -886 0
-881 -887 0
-882 -888 0
-880 -1429 0
-881 -1430 0
-882 -1431 0
-883 -1087 0
-884 -1088 0
-885 -1089 0
-883 -904 0
-884 -905 0
-885 -906 0
-883 -889 0
-884 -890 0
-885 -891 0
-883 -1141 0
-884 -1142 0
-885 -1143 0
-886 -1138 0
-887 -1139 0
-888 -1140 0
-889 -1432 0
-890 -1433 0
-891 -1434 0
-889 -1210 0
-890 -1211 0
-891 -1212 0
-892 -1939 0
-893 -1940 0
-894 -1941 0
-895 -1942 0
-896 -1943 0
-897 -1944 0
-895 -1111 0
-896 -1112 0
-897 -1113 0
-895 -1669 0
-896 -1670 0
-897 -1671 0
-898 -2167 0
-899 -2168 0
-900 -2169 0
-898 -2200 0
-899 -2201 0
-900 -2202 0
-898 -922 0
-899 -923 0
-900 -924 0
-898 -1729 0
-899 -1730 0
-900 -1731 0
-898 -2035 0
-899 -2036 0
-900 -2037 0
-901 -1201 0
-902 -1202 0
-903 -1203 0
-901 -1657 0
-902 -1658 0
-903 -1659 0
-901 -1591 0
-902 -1592 0
-903 -1593 0
-901 -913 0
-902 -914 0
-903 -915 0
-904 -1975 0
-905 -1976 0
-906 -1977 0
-904 -1402 0
-905 -1403 0
-906 -1404 0
-907 -943 0
-908 -944 0
-909 -945 0
-907 -1792 0
-908 -1793 0
-909 -1794 0
-907 -1561 0
-908 -1562 0
-909 -1563 0
-910 -1285 0
-911 -1286 0
-912 -1287 0
-910 -1675 0
-911 -1676 0
-912 -1677 0
-910 -1795 0
-911 -1796 0
-912 -1797 0
-910 -922 0
-911 -923 0
-912 -924 0
-910 -1255 0
-911 -1256 0
-912 -1257 0
-910 -1249 0
-911 -1250 0
-912 -1251 0
-910 -1771 0
-911 -1772 0
-912 -1773 0
-913 -1150 0
-914 -1151 0
-915 -1152 0
-913 -925 0
-914 -926 0
-915 -927 0
-913 -1123 0
-914 -1124 0
-915 -1125 0
-913 -949 0
-914 -950 0
-915 -951 0
-913 -1126 0
-914 -1127 0
-915 -1128 0
-913 -955 0
-914 -956 0
-915 -957 0
-913 -967 0
-914 -968 0
-915 -969 0
-916 -919 0
-917 -920 0
-918 -921 0
-916 -2014 0
-917 -2015 0
-918 -2016 0
-919 -1147 0
-920 -1148 0
-921 -1149 0
-922 -931 0
-923 -932 0
-924 -933 0
-922 -937 0
-923 -938 0
-924 -939 0
-922 -952 0
-923 -953 0
-924 -954 0
-922 -985 0
-923 -986 0
-924 -987 0
-925 -1822 0
-926 -1823 0
-927 -1824 0
-925 -2047 0
-926 -2048 0
-927 -2049 0
-925 -2263 0
-926 -2264 0
-927 -2265 0
-925 -2266 0
-926 -2267 0
-927 -2268 0
-928 -1261 0
-929 -1262 0
-930 -1263 0
-928 -940 0
-929 -941 0
-930 -942 0
-928 -1423 0
-929 -1424 0
-930 -1425 0
-928 -1978 0
-929 -1979 0
-930 -1980 0
-928 -1402 0
-929 -1403 0
-930 -1404 0
-928 -1234 0
-929 -1235 0
-930 -1236 0
-931 -1795 0
-932 -1796 0
-933 -1797 0
-931 -2074 0
-932 -2075 0
-933 -2076 0
-931 -1432 0
-932 -1433 0
-933 -1434 0
-934 -943 0
-935 -944 0
-936 -945 0
-934 -1792 0
-935 -1793 0
-936 -1794 0
-934 -1813 0
-935 -1814 0
-936 -1815 0
-934 -1891 0
-935 -1892 0
-936 -1893 0
-937 -1807 0
-938 -1808 0
-939 -1809 0
-937 -2074 0
-938 -2075 0
-939 -2076 0
-937 -1561 0
-938 -1562 0
-939 -1563 0
-940 -1156 0
-941 -1157 0
-942 -1158 0
-940 -1126 0
-941 -1127 0
-942 -1128 0
-943 -1024 0
-944 -1025 0
-945 -1026 0
-943 -1159 0
-944 -1160 0
-945 -1161 0
-946 -1027 0
-947 -1028 0
-948 -1029 0
-946 -1162 0
-947 -1163 0
-948 -1164 0
-949 -1822 0
-950 -1823 0
-951 -1824 0
-949 -2125 0
-950 -2126 0
-951 -2127 0
-949 -1816 0
-950 -1817 0
-951 -1818 0
-949 -2140 0
-950 -2141 0
-951 -2142 0
-949 -1234 0
-950 -1235 0
-951 -1236 0
-952 -2404 0
-953 -2405 0
-954 -2406 0
-952 -2035 0
-953 -2036 0
-954 -2037 0
-952 -1666 0
-953 -1667 0
-954 -1668 0
-952 -1453 0
-953 -1454 0
-954 -1455 0
-952 -2038 0
-953 -2039 0
-954 -2040 0
-952 -1435 0
-953 -1436 0
-954 -1437 0
-955 -1435 0
-956 -1436 0
-957 -1437 0
-955 -1447 0
-956 -1448 0
-957 -1449 0
-958 -1378 0
-959 -1379 0
-960 -1380 0
-958 -1426 0
-959 -1427 0
-960 -1428 0
-958 -1342 0
-959 -1343 0
-960 -1344 0
-958 -976 0
-959 -977 0
-960 -978 0
-958 -1417 0
-959 -1418 0
-960 -1419 0
-961 -1675 0
-962 -1676 0
-963 -1677 0
-961 -1678 0
-962 -1679 0
-963 -1680 0
-961 -1111 0
-962 -1112 0
-963 -1113 0
-961 -1249 0
-962 -1250 0
-963 -1251 0
-961 -1258 0
-962 -1259 0
-963 -1260 0
-964 -1366 0
-965 -1367 0
-966 -1368 0
-964 -1330 0
-965 -1331 0
-966 -1332 0
-964 -1336 0
-965 -1337 0
-966 -1338 0
-964 -1111 0
-965 -1112 0
-966 -1113 0
-964 -1312 0
-965 -1313 0
-966 -1314 0
-964 -1360 0
-965 -1361 0
-966 -1362 0
-964 -1363 0
-965 -1364 0
-966 -1365 0
-967 -1315 0
-968 -1316 0
-969 -1317 0
-967 -1753 0
-968 -1754 0
-969 -1755 0
-967 -1447 0
-968 -1448 0
-969 -1449 0
-967 -2263 0
-968 -2264 0
-969 -2265 0
-967 -1387 0
-968 -1388 0
-969 -1389 0
-967 -1324 0
-968 -1325 0
-969 -1326 0
-970 -1132 0
-971 -1133 0
-972 -1134 0
-973 -1606 0
-974 -1607 0
-975 -1608 0
-973 -979 0
-974 -980 0
-975 -981 0
-973 -2182 0
-974 -2183 0
-975 -2184 0
-976 -1045 0
-977 -1046 0
-978 -1047 0
-976 -1129 0
-977 -1130 0
-978 -1131 0
-976 -1135 0
-977 -1136 0
-978 -1137 0
-979 -997 0
-980 -998 0
-981 -999 0
-979 -1132 0
-980 -1133 0
-981 -1134 0
-979 -982 0
-980 -983 0
-981 -984 0
-979 -994 0
-980 -995 0
-981 -996 0
-982 -2254 0
-983 -2255 0
-984 -2256 0
-982 -2248 0
-983 -2249 0
-984 -2250 0
-982 -2182 0
-983 -2183 0
-984 -2184 0
-985 -1678 0
-986 -1679 0
-987 -1680 0
-985 -1249 0
-986 -1250 0
-987 -1251 0
-985 -1453 0
-986 -1454 0
-987 -1455 0
-985 -1315 0
-986 -1316 0
-987 -1317 0
-985 -1327 0
-986 -1328 0
-987 -1329 0
-985 -1333 0
-986 -1334 0
-987 -1335 0
-988 -1252 0
-989 -1253 0
-990 -1254 0
-988 -1258 0
-989 -1259 0
-990 -1260 0
-988 -1288 0
-989 -1289 0
-990 -1290 0
-988 -1111 0
-989 -1112 0
-990 -1113 0
-988 -1312 0
-989 -1313 0
-990 -1314 0
-991 -1111 0
-992 -1112 0
-993 -1113 0
-991 -1669 0
-992 -1670 0
-993 -1671 0
-991 -2263 0
-992 -2264 0
-993 -2265 0
-994 -1546 0
-995 -1547 0
-996 -1548 0
-994 -1549 0
-995 -1550 0
-996 -1551 0
-994 -1291 0
-995 -1292 0
-996 -1293 0
-994 -1486 0
-995 -1487 0
-996 -1488 0
-997 -1861 0
-998 -1862 0
-999 -1863 0
-997 -1546 0
-998 -1547 0
-999 -1548 0
-997 -1933 0
-998 -1934 0
-999 -1935 0
-1000 -2305 0
-1001 -2306 0
-1002 -2307 0
-1000 -1651 0
-1001 -1652 0
-1002 -1653 0
-1003 -1009 0
-1004 -1010 0
-1005 -1011 0
-1003 -1015 0
-1004 -1016 0
-1005 -1017 0
-1003 -1153 0
-1004 -1154 0
-1005 -1155 0
-1003 -1036 0
-1004 -1037 0
-1005 -1038 0
-1003 -1135 0
-1004 -1136 0
-1005 -1137 0
-1006 -1648 0
-1007 -1649 0
-1008 -1650 0
-1006 -1606 0
-1007 -1607 0
-1008 -1608 0
-1006 -1213 0
-1007 -1214 0
-1008 -1215 0
-1006 -1216 0
-1007 -1217 0
-1008 -1218 0
-1006 -1543 0
-1007 -1544 0
-1008 -1545 0
-1006 -1735 0
-1007 -1736 0
-1008 -1737 0
-1006 -1012 0
-1007 -1013 0
-1008 -1014 0
-1006 -1462 0
-1007 -1463 0
-1008 -1464 0
-1006 -1225 0
-1007 -1226 0
-1008 -1227 0
-1009 -1954 0
-1010 -1955 0
-1011 -1956 0
-1009 -2134 0
-1010 -2135 0
-1011 -2136 0
-1009 -1855 0
-1010 -1856 0
-1011 -1857 0
-1009 -2224 0
-1010 -2225 0
-1011 -2226 0
-1009 -1948 0
-1010 -1949 0
-1011 -1950 0
-1009 -1957 0
-1010 -1958 0
-1011 -1959 0
-1012 -1042 0
-1013 -1043 0
-1014 -1044 0
-1012 -1144 0
-1013 -1145 0
-1014 -1146 0
-1015 -1471 0
-1016 -1472 0
-1017 -1473 0
-1015 -2428 0
-1016 -2429 0
-1017 -2430 0
-1015 -1717 0
-1016 -1718 0
-1017 -1719 0
-1018 -2230 0
-1019 -2231 0
-1020 -2232 0
-1018 -2194 0
-1019 -2195 0
-1020 -2196 0
-1021 -2359 0
-1022 -2360 0
-1023 -2361 0
-1021 -1654 0
-1022 -1655 0
-1023 -1656 0
-1021 -1063 0
-1022 -1064 0
-1023 -1065 0
-1024 -1858 0
-1025 -1859 0
-1026 -1860 0
-1024 -2002 0
-1025 -2003 0
-1026 -2004 0
-1027 -2077 0
-1028 -2078 0
-1029 -2079 0
-1030 -1738 0
-1031 -1739 0
-1032 -1740 0
-1030 -1069 0
-1031 -1070 0
-1032 -1071 0
-1030 -1612 0
-1031 -1613 0
-1032 -1614 0
-1030 -2275 0
-1031 -2276 0
-1032 -2277 0
-1033 -1372 0
-1034 -1373 0
-1035 -1374 0
-1033 -2131 0
-1034 -2132 0
-1035 -2133 0
-1033 -1072 0
-1034 -1073 0
-1035 -1074 0
-1033 -1576 0
-1034 -1577 0
-1035 -1578 0
-1033 -1672 0
-1034 -1673 0
-1035 -1674 0
-1036 -1471 0
-1037 -1472 0
-1038 -1473 0
-1036 -2113 0
-1037 -2114 0
-1038 -2115 0
-1036 -1612 0
-1037 -1613 0
-1038 -1614 0
-1039 -1825 0
-1040 -1826 0
-1041 -1827 0
-1039 -1063 0
-1040 -1064 0
-1041 -1065 0
-1039 -2437 0
-1040 -2438 0
-1041 -2439 0
-1042 -1372 0
-1043 -1373 0
-1044 -1374 0
-1042 -1825 0
-1043 -1826 0
-1044 -1827 0
-1045 -1798 0
-1046 -1799 0
-1047 -1800 0
-1045 -1825 0
-1046 -1826 0
-1047 -1827 0
-1048 -1297 0
-1049 -1298 0
-1050 -1299 0
-1048 -1378 0
-1049 -1379 0
-1050 -1380 0
-1048 -1534 0
-1049 -1535 0
-1050 -1536 0
-1048 -2089 0
-1049 -2090 0
-1050 -2091 0
-1051 -1966 0
-1052 -1967 0
-1053 -1968 0
-1051 -1291 0
-1052 -1292 0
-1053 -1293 0
-1051 -1297 0
-1052 -1298 0
-1053 -1299 0
-1051 -1063 0
-1052 -1064 0
-1053 -1065 0
-1051 -1489 0
-1052 -1490 0
-1053 -1491 0
-1054 -1063 0
-1055 -1064 0
-1056 -1065 0
-1054 -1681 0
-1055 -1682 0
-1056 -1683 0
-1054 -2011 0
-1055 -2012 0
-1056 -2013 0
-1054 -1663 0
-1055 -1664 0
-1056 -1665 0
-1057 -2170 0
-1058 -2171 0
-1059 -2172 0
-1057 -1063 0
-1058 -1064 0
-1059 -1065 0
-1057 -2050 0
-1058 -2051 0
-1059 -2052 0
-1057 -1681 0
-1058 -1682 0
-1059 -1683 0
-1060 -2440 0
-1061 -2441 0
-1062 -2442 0
-1060 -2380 0
-1061 -2381 0
-1062 -2382 0
-1060 -1744 0
-1061 -1745 0
-1062 -1746 0
-1063 -1066 0
-1064 -1067 0
-1065 -1068 0
-1063 -1141 0
-1064 -1142 0
-1065 -1143 0
-1066 -2359 0
-1067 -2360 0
-1068 -2361 0
-1066 -1666 0
-1067 -1667 0
-1068 -1668 0
-1069 -1081 0
-1070 -1082 0
-1071 -1083 0
-1069 -1084 0
-1070 -1085 0
-1071 -1086 0
-1075 -1078 0
-1076 -1079 0
-1077 -1080 0
-1075 -1150 0
-1076 -1151 0
-1077 -1152 0
-1075 -1153 0
-1076 -1154 0
-1077 -1155 0
-1078 -2137 0
-1079 -2138 0
-1080 -2139 0
-1078 -2053 0
-1079 -2054 0
-1080 -2055 0
-1081 -1738 0
-1082 -1739 0
-1083 -1740 0
-1081 -1828 0
-1082 -1829 0
-1083 -1830 0
-1084 -1810 0
-1085 -1811 0
-1086 -1812 0
-1087 -1369 0
-1088 -1370 0
-1089 -1371 0
-1087 -1573 0
-1088 -1574 0
-1089 -1575 0
-1087 -2281 0
-1088 -2282 0
-1089 -2283 0
-1090 -1111 0
-1091 -1112 0
-1092 -1113 0
-1090 -2092 0
-1091 -2093 0
-1092 -2094 0
-1090 -2278 0
-1091 -2279 0
-1092 -2280 0
-1093 -2209 0
-1094 -2210 0
-1095 -2211 0
-1093 -1111 0
-1094 -1112 0
-1095 -1113 0
-1093 -1540 0
-1094 -1541 0
-1095 -1542 0
-1096 -1942 0
-1097 -1943 0
-1098 -1944 0
-1096 -2176 0
-1097 -2177 0
-1098 -2178 0
-1096 -1930 0
-1097 -1931 0
-1098 -1932 0
-1096 -1111 0
-1097 -1112 0
-1098 -1113 0
-1099 -1366 0
-1100 -1367 0
-1101 -1368 0
-1099 -1111 0
-1100 -1112 0
-1101 -1113 0
-1099 -1468 0
-1100 -1469 0
-1101 -1470 0
-1102 -1696 0
-1103 -1697 0
-1104 -1698 0
-1102 -1105 0
-1103 -1106 0
-1104 -1107 0
-1105 -1156 0
-1106 -1157 0
-1107 -1158 0
-1105 -1159 0
-1106 -1160 0
-1107 -1161 0
-1108 -1336 0
-1109 -1337 0
-1110 -1338 0
-1108 -1894 0
-1109 -1895 0
-1110 -1896 0
-1108 -1111 0
-1109 -1112 0
-1110 -1113 0
-1108 -2128 0
-1109 -2129 0
-1110 -2130 0
-1108 -2263 0
-1109 -2264 0
-1110 -2265 0
-1111 -1165 0
-1112 -1166 0
-1113 -1167 0
-1111 -1114 0
-1112 -1115 0
-1113 -1116 0
-1111 -1117 0
-1112 -1118 0
-1113 -1119 0
-1111 -1120 0
-1112 -1121 0
-1113 -1122 0
-1114 -1864 0
-1115 -1865 0
-1116 -1866 0
-1114 -1249 0
-1115 -1250 0
-1116 -1251 0
-1114 -1252 0
-1115 -1253 0
-1116 -1254 0
-1114 -1870 0
-1115 -1871 0
-1116 -1872 0
-1114 -1867 0
-1115 -1868 0
-1116 -1869 0
-1114 -1702 0
-1115 -1703 0
-1116 -1704 0
-1117 -1330 0
-1118 -1331 0
-1119 -1332 0
-1117 -1288 0
-1118 -1289 0
-1119 -1290 0
-1117 -1333 0
-1118 -1334 0
-1119 -1335 0
-1117 -1387 0
-1118 -1388 0
-1119 -1389 0
-1120 -2407 0
-1121 -2408 0
-1122 -2409 0
-1120 -2434 0
-1121 -2435 0
-1122 -2436 0
-1123 -1201 0
-1124 -1202 0
-1125 -1203 0
-1123 -1729 0
-1124 -1730 0
-1125 -1731 0
-1123 -2140 0
-1124 -2141 0
-1125 -2142 0
-1126 -1981 0
-1127 -1982 0
-1128 -1983 0
-1126 -2047 0
-1127 -2048 0
-1128 -2049 0
-1129 -1375 0
-1130 -1376 0
-1131 -1377 0
-1129 -1378 0
-1130 -1379 0
-1131 -1380 0
-1129 -1531 0
-1130 -1532 0
-1131 -1533 0
-1129 -1534 0
-1130 -1535 0
-1131 -1536 0
-1129 -2215 0
-1130 -2216 0
-1131 -2217 0
-1129 -1870 0
-1130 -1871 0
-1131 -1872 0
-1132 -1246 0
-1133 -1247 0
-1134 -1248 0
-1132 -1276 0
-1133 -1277 0
-1134 -1278 0
-1132 -1291 0
-1133 -1292 0
-1134 -1293 0
-1132 -1756 0
-1133 -1757 0
-1134 -1758 0
-1132 -1489 0
-1133 -1490 0
-1134 -1491 0
-1135 -1951 0
-1136 -1952 0
-1137 -1953 0
-1135 -1954 0
-1136 -1955 0
-1137 -1956 0
-1138 -1741 0
-1139 -1742 0
-1140 -1743 0
-1138 -1744 0
-1139 -1745 0
-1140 -1746 0
-1141 -1291 0
-1142 -1292 0
-1143 -1293 0
-1141 -2011 0
-1142 -2012 0
-1143 -2013 0
-1141 -2050 0
-1142 -2051 0
-1143 -2052 0
-1141 -1486 0
-1142 -1487 0
-1143 -1488 0
-1144 -1462 0
-1145 -1463 0
-1146 -1464 0
-1144 -1552 0
-1145 -1553 0
-1146 -1554 0
-1144 -1702 0
-1145 -1703 0
-1146 -1704 0
-1147 -1684 0
-1148 -1685 0
-1149 -1686 0
-1147 -2014 0
-1148 -2015 0
-1149 -2016 0
-1147 -1681 0
-1148 -1682 0
-1149 -1683 0
-1150 -2053 0
-1151 -2054 0
-1152 -2055 0
-1150 -2041 0
-1151 -2042 0
-1152 -2043 0
-1153 -2305 0
-1154 -2306 0
-1155 -2307 0
-1153 -1894 0
-1154 -1895 0
-1155 -1896 0
-1153 -2362 0
-1154 -2363 0
-1155 -2364 0
-1156 -1963 0
-1157 -1964 0
-1158 -1965 0
-1156 -1510 0
-1157 -1511 0
-1158 -1512 0
-1159 -1684 0
-1160 -1685 0
-1161 -1686 0
-1159 -2008 0
-1160 -2009 0
-1161 -2010 0
-1159 -2194 0
-1160 -2195 0
-1161 -2196 0
-1162 -1177 0
-1163 -1178 0
-1164 -1179 0
-1162 -1456 0
-1163 -1457 0
-1164 -1458 0
-1162 -2077 0
-1163 -2078 0
-1164 -2079 0
-1165 -1462 0
-1166 -1463 0
-1167 -1464 0
-1165 -1894 0
-1166 -1895 0
-1167 -1896 0
-1165 -1558 0
-1166 -1559 0
-1167 -1560 0
-1165 -1480 0
-1166 -1481 0
-1167 -1482 0
-1165 -2308 0
-1166 -2309 0
-1167 -2310 0
-1165 -1957 0
-1166 -1958 0
-1167 -1959 0
-1165 -1702 0
-1166 -1703 0
-1167 -1704 0
-1168 -1219 0
-1169 -1220 0
-1170 -1221 0
-1168 -1360 0
-1169 -1361 0
-1170 -1362 0
-1168 -1363 0
-1169 -1364 0
-1170 -1365 0
-1168 -1231 0
-1169 -1232 0
-1170 -1233 0
-1174 -1228 0
-1175 -1229 0
-1176 -1230 0
-1174 -1210 0
-1175 -1211 0
-1176 -1212 0
-1177 -1216 0
-1178 -1217 0
-1179 -1218 0
-1177 -1213 0
-1178 -1214 0
-1179 -1215 0
-1186 -1207 0
-1187 -1208 0
-1188 -1209 0
-1189 -2242 0
-1190 -2243 0
-1191 -2244 0
-1189 -1204 0
-1190 -1205 0
-1191 -1206 0
-1192 -2059 0
-1193 -2060 0
-1194 -2061 0
-1192 -1225 0
-1193 -1226 0
-1194 -1227 0
-1195 -1420 0
-1196 -1421 0
-1197 -1422 0
-1195 -2392 0
-1196 -2393 0
-1197 -2394 0
-1195 -1414 0
-1196 -1415 0
-1197 -1416 0
-1198 -2251 0
-1199 -2252 0
-1200 -2253 0
-1201 -1546 0
-1202 -1547 0
-1203 -1548 0
-1201 -1549 0
-1202 -1550 0
-1203 -1551 0
-1204 -1807 0
-1205 -1808 0
-1206 -1809 0
-1204 -1708 0
-1205 -1709 0
-1206 -1710 0
-1207 -1339 0
-1208 -1340 0
-1209 -1341 0
-1207 -2122 0
-1208 -2123 0
-1209 -2124 0
-1207 -2236 0
-1208 -2237 0
-1209 -2238 0
-1207 -1351 0
-1208 -1352 0
-1209 -1353 0
-1210 -1450 0
-1211 -1451 0
-1212 -1452 0
-1210 -1234 0
-1211 -1235 0
-1212 -1236 0
-1213 -1222 0
-1214 -1223 0
-1215 -1224 0
-1213 -1456 0
-1214 -1457 0
-1215 -1458 0
-1216 -2077 0
-1217 -2078 0
-1218 -2079 0
-1219 -1885 0
-1220 -1886 0
-1221 -1887 0
-1219 -1228 0
-1220 -1229 0
-1221 -1230 0
-1222 -2326 0
-1223 -2327 0
-1224 -2328 0
-1222 -1225 0
-1223 -1226 0
-1224 -1227 0
-1225 -1243 0
-1226 -1244 0
-1227 -1245 0
-1228 -1555 0
-1229 -1556 0
-1230 -1557 0
-1228 -1765 0
-1229 -1766 0
-1230 -1767 0
-1231 -1237 0
-1232 -1238 0
-1233 -1239 0
-1231 -1585 0
-1232 -1586 0
-1233 -1587 0
-1234 -1795 0
-1235 -1796 0
-1236 -1797 0
-1234 -1615 0
-1235 -1616 0
-1236 -1617 0
-1234 -1432 0
-1235 -1433 0
-1236 -1434 0
-1234 -1783 0
-1235 -1784 0
-1236 -1785 0
-1234 -1771 0
-1235 -1772 0
-1236 -1773 0
-1237 -1366 0
-1238 -1367 0
-1239 -1368 0
-1237 -1336 0
-1238 -1337 0
-1239 -1338 0
-1240 -1441 0
-1241 -1442 0
-1242 -1443 0
-1240 -1432 0
-1241 -1433 0
-1242 -1434 0
-1243 -1606 0
-1244 -1607 0
-1245 -1608 0
-1246 -1249 0
-1247 -1250 0
-1248 -1251 0
-1246 -1252 0
-1247 -1253 0
-1248 -1254 0
-1246 -1255 0
-1247 -1256 0
-1248 -1257 0
-1246 -1258 0
-1247 -1259 0
-1248 -1260 0
-1249 -1495 0
-1250 -1496 0
-1251 -1497 0
-1249 -1756 0
-1250 -1757 0
-1251 -1758 0
-1249 -1405 0
-1250 -1406 0
-1251 -1407 0
-1252 -2377 0
-1253 -2378 0
-1254 -2379 0
-1252 -1264 0
-1253 -1265 0
-1254 -1266 0
-1252 -1267 0
-1253 -1268 0
-1254 -1269 0
-1252 -1273 0
-1253 -1274 0
-1254 -1275 0
-1255 -1261 0
-1256 -1262 0
-1257 -1263 0
-1258 -1270 0
-1259 -1271 0
-1260 -1272 0
-1258 -1279 0
-1259 -1280 0
-1260 -1281 0
-1261 -1615 0
-1262 -1616 0
-1263 -1617 0
-1267 -1882 0
-1268 -1883 0
-1269 -1884 0
-1270 -1759 0
-1271 -1760 0
-1272 -1761 0
-1273 -1306 0
-1274 -1307 0
-1275 -1308 0
-1276 -1288 0
-1277 -1289 0
-1278 -1290 0
-1276 -1555 0
-1277 -1556 0
-1278 -1557 0
-1279 -1303 0
-1280 -1304 0
-1281 -1305 0
-1282 -1495 0
-1283 -1496 0
-1284 -1497 0
-1285 -1294 0
-1286 -1295 0
-1287 -1296 0
-1288 -1396 0
-1289 -1397 0
-1290 -1398 0
-1288 -1291 0
-1289 -1292 0
-1290 -1293 0
-1288 -1297 0
-1289 -1298 0
-1290 -1299 0
-1291 -1333 0
-1292 -1334 0
-1293 -1335 0
-1294 -1792 0
-1295 -1793 0
-1296 -1794 0
-1294 -1813 0
-1295 -1814 0
-1296 -1815 0
-1294 -1561 0
-1295 -1562 0
-1296 -1563 0
-1294 -1564 0
-1295 -1565 0
-1296 -1566 0
-1297 -1330 0
-1298 -1331 0
-1299 -1332 0
-1297 -1312 0
-1298 -1313 0
-1299 -1314 0
-1297 -1315 0
-1298 -1316 0
-1299 -1317 0
-1297 -1327 0
-1298 -1328 0
-1299 -1329 0
-1297 -1324 0
-1298 -1325 0
-1299 -1326 0
-1300 -1609 0
-1301 -1610 0
-1302 -1611 0
-1303 -1609 0
-1304 -1610 0
-1305 -1611 0
-1303 -1309 0
-1304 -1310 0
-1305 -1311 0
-1303 -1318 0
-1304 -1319 0
-1305 -1320 0
-1306 -1429 0
-1307 -1430 0
-1308 -1431 0
-1306 -1720 0
-1307 -1721 0
-1308 -1722 0
-1309 -1354 0
-1310 -1355 0
-1311 -1356 0
-1312 -2116 0
-1313 -2117 0
-1314 -2118 0
-1312 -1501 0
-1313 -1502 0
-1314 -1503 0
-1315 -1696 0
-1316 -1697 0
-1317 -1698 0
-1318 -1345 0
-1319 -1346 0
-1320 -1347 0
-1318 -1348 0
-1319 -1349 0
-1320 -1350 0
-1321 -1357 0
-1322 -1358 0
-1323 -1359 0
-1324 -1339 0
-1325 -1340 0
-1326 -1341 0
-1324 -1747 0
-1325 -1748 0
-1326 -1749 0
-1327 -1351 0
-1328 -1352 0
-1329 -1353 0
-1327 -2191 0
-1328 -2192 0
-1329 -2193 0
-1330 -1378 0
-1331 -1379 0
-1332 -1380 0
-1330 -1342 0
-1331 -1343 0
-1332 -1344 0
-1330 -1507 0
-1331 -1508 0
-1332 -1509 0
-1333 -1756 0
-1334 -1757 0
-1335 -1758 0
-1336 -1375 0
-1337 -1376 0
-1338 -1377 0
-1336 -1384 0
-1337 -1385 0
-1338 -1386 0
-1336 -1393 0
-1337 -1394 0
-1338 -1395 0
-1339 -1447 0
-1340 -1448 0
-1341 -1449 0
-1342 -1363 0
-1343 -1364 0
-1344 -1365 0
-1345 -1381 0
-1346 -1382 0
-1347 -1383 0
-1345 -2098 0
-1346 -2099 0
-1347 -2100 0
-1348 -2425 0
-1349 -2426 0
-1350 -2427 0
-1354 -2188 0
-1355 -2189 0
-1356 -2190 0
-1354 -1381 0
-1355 -1382 0
-1356 -1383 0
-1354 -2386 0
-1355 -2387 0
-1356 -2388 0
-1354 -1390 0
-1355 -1391 0
-1356 -1392 0
-1357 -1372 0
-1358 -1373 0
-1359 -1374 0
-1357 -1576 0
-1358 -1577 0
-1359 -1578 0
-1360 -2065 0
-1361 -2066 0
-1362 -2067 0
-1363 -1384 0
-1364 -1385 0
-1365 -1386 0
-1363 -2395 0
-1364 -2396 0
-1365 -2397 0
-1369 -1453 0
-1370 -1454 0
-1371 -1455 0
-1369 -1435 0
-1370 -1436 0
-1371 -1437 0
-1369 -1447 0
-1370 -1448 0
-1371 -1449 0
-1372 -1723 0
-1373 -1724 0
-1374 -1725 0
-1375 -2374 0
-1376 -2375 0
-1377 -2376 0
-1375 -1753 0
-1376 -1754 0
-1377 -1755 0
-1375 -2023 0
-1376 -2024 0
-1377 -2025 0
-1375 -2263 0
-1376 -2264 0
-1377 -2265 0
-1375 -2266 0
-1376 -2267 0
-1377 -2268 0
-1378 -1753 0
-1379 -1754 0
-1380 -1755 0
-1378 -1387 0
-1379 -1388 0
-1380 -1389 0
-1381 -1426 0
-1382 -1427 0
-1383 -1428 0
-1381 -1768 0
-1382 -1769 0
-1383 -1770 0
-1381 -1417 0
-1382 -1418 0
-1383 -1419 0
-1387 -2215 0
-1388 -2216 0
-1389 -2217 0
-1390 -1582 0
-1391 -1583 0
-1392 -1584 0
-1393 -1711 0
-1394 -1712 0
-1395 -1713 0
-1396 -1555 0
-1397 -1556 0
-1398 -1557 0
-1399 -2044 0
-1400 -2045 0
-1401 -2046 0
-1408 -1429 0
-1409 -1430 0
-1410 -1431 0
-1408 -1618 0
-1409 -1619 0
-1410 -1620 0
-1411 -1579 0
-1412 -1580 0
-1413 -1581 0
-1411 -1444 0
-1412 -1445 0
-1413 -1446 0
-1411 -1561 0
-1412 -1562 0
-1413 -1563 0
-1414 -1918 0
-1415 -1919 0
-1416 -1920 0
-1417 -1465 0
-1418 -1466 0
-1419 -1467 0
-1420 -1915 0
-1421 -1916 0
-1422 -1917 0
-1420 -2173 0
-1421 -2174 0
-1422 -2175 0
-1423 -1432 0
-1424 -1433 0
-1425 -1434 0
-1423 -1576 0
-1424 -1577 0
-1425 -1578 0
-1426 -1471 0
-1427 -1472 0
-1428 -1473 0
-1426 -2188 0
-1427 -2189 0
-1428 -2190 0
-1429 -1459 0
-1430 -1460 0
-1431 -1461 0
-1432 -1822 0
-1433 -1823 0
-1434 -1824 0
-1435 -1846 0
-1436 -1847 0
-1437 -1848 0
-1435 -1498 0
-1436 -1499 0
-1437 -1500 0
-1441 -1537 0
-1442 -1538 0
-1443 -1539 0
-1444 -2206 0
-1445 -2207 0
-1446 -2208 0
-1447 -2227 0
-1448 -2228 0
-1449 -2229 0
-1453 -2446 0
-1454 -2447 0
-1455 -2448 0
-1456 -1462 0
-1457 -1463 0
-1458 -1464 0
-1456 -1468 0
-1457 -1469 0
-1458 -1470 0
-1459 -2095 0
-1460 -2096 0
-1461 -2097 0
-1459 -1750 0
-1460 -1751 0
-1461 -1752 0
-1459 -1474 0
-1460 -1475 0
-1461 -1476 0
-1459 -2260 0
-1460 -2261 0
-1461 -2262 0
-1459 -2086 0
-1460 -2087 0
-1461 -2088 0
-1459 -1483 0
-1460 -1484 0
-1461 -1485 0
-1462 -2077 0
-1463 -2078 0
-1464 -2079 0
-1462 -1504 0
-1463 -1505 0
-1464 -1506 0
-1462 -1510 0
-1463 -1511 0
-1464 -1512 0
-1465 -1516 0
-1466 -1517 0
-1467 -1518 0
-1471 -1594 0
-1472 -1595 0
-1473 -1596 0
-1474 -1480 0
-1475 -1481 0
-1476 -1482 0
-1477 -1564 0
-1478 -1565 0
-1479 -1566 0
-1483 -2110 0
-1484 -2111 0
-1485 -2112 0
-1483 -1840 0
-1484 -1841 0
-1485 -1842 0
-1492 -1834 0
-1493 -1835 0
-1494 -1836 0
-1492 -1618 0
-1493 -1619 0
-1494 -1620 0
-1498 -1873 0
-1499 -1874 0
-1500 -1875 0
-1501 -1873 0
-1502 -1874 0
-1503 -1875 0
-1504 -1552 0
-1505 -1553 0
-1506 -1554 0
-1504 -1558 0
-1505 -1559 0
-1506 -1560 0
-1507 -2110 0
-1508 -2111 0
-1509 -2112 0
-1510 -1543 0
-1511 -1544 0
-1512 -1545 0
-1510 -1540 0
-1511 -1541 0
-1512 -1542 0
-1513 -1846 0
-1514 -1847 0
-1515 -1848 0
-1513 -1885 0
-1514 -1886 0
-1515 -1887 0
-1516 -1537 0
-1517 -1538 0
-1518 -1539 0
-1519 -2086 0
-1520 -2087 0
-1521 -2088 0
-1522 -1960 0
-1523 -1961 0
-1524 -1962 0
-1522 -2104 0
-1523 -2105 0
-1524 -2106 0
-1525 -2095 0
-1526 -2096 0
-1527 -2097 0
-1534 -2377 0
-1535 -2378 0
-1536 -2379 0
-1537 -1798 0
-1538 -1799 0
-1539 -1800 0
-1540 -2152 0
-1541 -2153 0
-1542 -2154 0
-1540 -2302 0
-1541 -2303 0
-1542 -2304 0
-1540 -1987 0
-1541 -1988 0
-1542 -1989 0
-1543 -2371 0
-1544 -2372 0
-1545 -2373 0
-1543 -1963 0
-1544 -1964 0
-1545 -1965 0
-1543 -2152 0
-1544 -2153 0
-1545 -2154 0
-1546 -1588 0
-1547 -1589 0
-1548 -1590 0
-1546 -1591 0
-1547 -1592 0
-1548 -1593 0
-1549 -1597 0
-1550 -1598 0
-1551 -1599 0
-1552 -1786 0
-1553 -1787 0
-1554 -1788 0
-1558 -1603 0
-1559 -1604 0
-1560 -1605 0
-1558 -1699 0
-1559 -1700 0
-1560 -1701 0
-1558 -1600 0
-1559 -1601 0
-1560 -1602 0
-1558 -2002 0
-1559 -2003 0
-1560 -2004 0
-1561 -2119 0
-1562 -2120 0
-1563 -2121 0
-1567 -2173 0
-1568 -2174 0
-1569 -2175 0
-1576 -1978 0
-1577 -1979 0
-1578 -1980 0
-1582 -2383 0
-1583 -2384 0
-1584 -2385 0
-1585 -1711 0
-1586 -1712 0
-1587 -1713 0
-1591 -1933 0
-1592 -1934 0
-1593 -1935 0
-1594 -1738 0
-1595 -1739 0
-1596 -1740 0
-1594 -1717 0
-1595 -1718 0
-1596 -1719 0
-1594 -1612 0
-1595 -1613 0
-1596 -1614 0
-1600 -1942 0
-1601 -1943 0
-1602 -1944 0
-1600 -1837 0
-1601 -1838 0
-1602 -1839 0
-1603 -2044 0
-1604 -2045 0
-1605 -2046 0
-1603 -1930 0
-1604 -1931 0
-1605 -1932 0
-1606 -1741 0
-1607 -1742 0
-1608 -1743 0
-1606 -1744 0
-1607 -1745 0
-1608 -1746 0
-1606 -2380 0
-1607 -2381 0
-1608 -2382 0
-1609 -2161 0
-1610 -2162 0
-1611 -2163 0
-1615 -1816 0
-1616 -1817 0
-1617 -1818 0
-1618 -1759 0
-1619 -1760 0
-1620 -1761 0
-1627 -1960 0
-1628 -1961 0
-1629 -1962 0
-1627 -2152 0
-1628 -2153 0
-1629 -2154 0
-1630 -2344 0
-1631 -2345 0
-1632 -2346 0
-1633 -1786 0
-1634 -1787 0
-1635 -1788 0
-1636 -1879 0
-1637 -1880 0
-1638 -1881 0
-1636 -1897 0
-1637 -1898 0
-1638 -1899 0
-1639 -1912 0
-1640 -1913 0
-1641 -1914 0
-1639 -1900 0
-1640 -1901 0
-1641 -1902 0
-1642 -1801 0
-1643 -1802 0
-1644 -1803 0
-1642 -1819 0
-1643 -1820 0
-1644 -1821 0
-1645 -2023 0
-1646 -2024 0
-1647 -2025 0
-1648 -2143 0
-1649 -2144 0
-1650 -2145 0
-1648 -2152 0
-1649 -2153 0
-1650 -2154 0
-1648 -2161 0
-1649 -2162 0
-1650 -2163 0
-1654 -1810 0
-1655 -1811 0
-1656 -1812 0
-1654 -1780 0
-1655 -1781 0
-1656 -1782 0
-1657 -2242 0
-1658 -2243 0
-1659 -2244 0
-1660 -1789 0
-1661 -1790 0
-1662 -1791 0
-1663 -1909 0
-1664 -1910 0
-1665 -1911 0
-1663 -1945 0
-1664 -1946 0
-1665 -1947 0
-1666 -2101 0
-1667 -2102 0
-1668 -2103 0
-1666 -2104 0
-1667 -2105 0
-1668 -2106 0
-1678 -2446 0
-1679 -2447 0
-1680 -2448 0
-1681 -1951 0
-1682 -1952 0
-1683 -1953 0
-1681 -1954 0
-1682 -1955 0
-1683 -1956 0
-1684 -1936 0
-1685 -1937 0
-1686 -1938 0
-1684 -2233 0
-1685 -2234 0
-1686 -2235 0
-1684 -1948 0
-1685 -1949 0
-1686 -1950 0
-1690 -2023 0
-1691 -2024 0
-1692 -2025 0
-1693 -1720 0
-1694 -1721 0
-1695 -1722 0
-1693 -2425 0
-1694 -2426 0
-1695 -2427 0
-1699 -2209 0
-1700 -2210 0
-1701 -2211 0
-1699 -2044 0
-1700 -2045 0
-1701 -2046 0
-1702 -1756 0
-1703 -1757 0
-1704 -1758 0
-1705 -2143 0
-1706 -2144 0
-1707 -2145 0
-1705 -2080 0
-1706 -2081 0
-1707 -2082 0
-1705 -2218 0
-1706 -2219 0
-1707 -2220 0
-1705 -2161 0
-1706 -2162 0
-1707 -2163 0
-1708 -1999 0
-1709 -2000 0
-1710 -2001 0
-1714 -1804 0
-1715 -1805 0
-1716 -1806 0
-1714 -2242 0
-1715 -2243 0
-1716 -2244 0
-1717 -2068 0
-1718 -2069 0
-1719 -2070 0
-1720 -2173 0
-1721 -2174 0
-1722 -2175 0
-1723 -2416 0
-1724 -2417 0
-1725 -2418 0
-1726 -1921 0
-1727 -1922 0
-1728 -1923 0
-1729 -1939 0
-1730 -1940 0
-1731 -1941 0
-1729 -1927 0
-1730 -1928 0
-1731 -1929 0
-1732 -2053 0
-1733 -2054 0
-1734 -2055 0
-1732 -2041 0
-1733 -2042 0
-1734 -2043 0
-1735 -1741 0
-1736 -1742 0
-1737 -1743 0
-1735 -2161 0
-1736 -2162 0
-1737 -2163 0
-1738 -1891 0
-1739 -1892 0
-1740 -1893 0
-1744 -2182 0
-1745 -2183 0
-1746 -2184 0
-1747 -1780 0
-1748 -1781 0
-1749 -1782 0
-1750 -1960 0
-1751 -1961 0
-1752 -1962 0
-1753 -2227 0
-1754 -2228 0
-1755 -2229 0
-1759 -1831 0
-1760 -1832 0
-1761 -1833 0
-1762 -1879 0
-1763 -1880 0
-1764 -1881 0
-1762 -2185 0
-1763 -2186 0
-1764 -2187 0
-1762 -2098 0
-1763 -2099 0
-1764 -2100 0
-1768 -2098 0
-1769 -2099 0
-1770 -2100 0
-1771 -2104 0
-1772 -2105 0
-1773 -2106 0
-1771 -1978 0
-1772 -1979 0
-1773 -1980 0
-1774 -2044 0
-1775 -2045 0
-1776 -2046 0
-1780 -1843 0
-1781 -1844 0
-1782 -1845 0
-1780 -1903 0
-1781 -1904 0
-1782 -1905 0
-1783 -2221 0
-1784 -2222 0
-1785 -2223 0
-1783 -2125 0
-1784 -2126 0
-1785 -2127 0
-1786 -2374 0
-1787 -2375 0
-1788 -2376 0
-1789 -2221 0
-1790 -2222 0
-1791 -2223 0
-1789 -1981 0
-1790 -1982 0
-1791 -1983 0
-1795 -1981 0
-1796 -1982 0
-1797 -1983 0
-1795 -2140 0
-1796 -2141 0
-1797 -2142 0
-1801 -2311 0
-1802 -2312 0
-1803 -2313 0
-1804 -2083 0
-1805 -2084 0
-1806 -2085 0
-1807 -2005 0
-1808 -2006 0
-1809 -2007 0
-1810 -1966 0
-1811 -1967 0
-1812 -1968 0
-1810 -2383 0
-1811 -2384 0
-1812 -2385 0
-1813 -2125 0
-1814 -2126 0
-1815 -2127 0
-1816 -1888 0
-1817 -1889 0
-1818 -1890 0
-1819 -2308 0
-1820 -2309 0
-1821 -2310 0
-1819 -2092 0
-1820 -2093 0
-1821 -2094 0
-1822 -1888 0
-1823 -1889 0
-1824 -1890 0
-1834 -1993 0
-1835 -1994 0
-1836 -1995 0
-1834 -1996 0
-1835 -1997 0
-1836 -1998 0
-1837 -2401 0
-1838 -2402 0
-1839 -2403 0
-1840 -2119 0
-1841 -2120 0
-1842 -2121 0
-1843 -2242 0
-1844 -2243 0
-1845 -2244 0
-1849 -2017 0
-1850 -2018 0
-1851 -2019 0
-1849 -1984 0
-1850 -1985 0
-1851 -1986 0
-1855 -2185 0
-1856 -2186 0
-1857 -2187 0
-1864 -2368 0
-1865 -2369 0
-1866 -2370 0
-1867 -2368 0
-1868 -2369 0
-1869 -2370 0
-1870 -2377 0
-1871 -2378 0
-1872 -2379 0
-1873 -2191 0
-1874 -2192 0
-1875 -2193 0
-1876 -2023 0
-1877 -2024 0
-1878 -2025 0
-1876 -2266 0
-1877 -2267 0
-1878 -2268 0
-1879 -2398 0
-1880 -2399 0
-1881 -2400 0
-1882 -2386 0
-1883 -2387 0
-1884 -2388 0
-1885 -2206 0
-1886 -2207 0
-1887 -2208 0
-1888 -2266 0
-1889 -2267 0
-1890 -2268 0
-1891 -2125 0
-1892 -2126 0
-1893 -2127 0
-1891 -2140 0
-1892 -2141 0
-1893 -2142 0
-1894 -2215 0
-1895 -2216 0
-1896 -2217 0
-1897 -2062 0
-1898 -2063 0
-1899 -2064 0
-1897 -2065 0
-1898 -2066 0
-1899 -2067 0
-1900 -2197 0
-1901 -2198 0
-1902 -2199 0
-1903 -2335 0
-1904 -2336 0
-1905 -2337 0
-1906 -1993 0
-1907 -1994 0
-1908 -1995 0
-1909 -2374 0
-1910 -2375 0
-1911 -2376 0
-1909 -2329 0
-1910 -2330 0
-1911 -2331 0
-1912 -2029 0
-1913 -2030 0
-1914 -2031 0
-1915 -1990 0
-1916 -1991 0
-1917 -1992 0
-1921 -2353 0
-1922 -2354 0
-1923 -2355 0
-1924 -1990 0
-1925 -1991 0
-1926 -1992 0
-1933 -1999 0
-1934 -2000 0
-1935 -2001 0
-1936 -2260 0
-1937 -2261 0
-1938 -2262 0
-1936 -2020 0
-1937 -2021 0
-1938 -2022 0
-1939 -2026 0
-1940 -2027 0
-1941 -2028 0
-1939 -2035 0
-1940 -2036 0
-1941 -2037 0
-1945 -2011 0
-1946 -2012 0
-1947 -2013 0
-1948 -2056 0
-1949 -2057 0
-1950 -2058 0
-1948 -2008 0
-1949 -2009 0
-1950 -2010 0
-1951 -2029 0
-1952 -2030 0
-1953 -2031 0
-1951 -2014 0
-1952 -2015 0
-1953 -2016 0
-1954 -2185 0
-1955 -2186 0
-1956 -2187 0
-1954 -2032 0
-1955 -2033 0
-1956 -2034 0
-1954 -2011 0
-1955 -2012 0
-1956 -2013 0
-1954 -2050 0
-1955 -2051 0
-1956 -2052 0
-1957 -2008 0
-1958 -2009 0
-1959 -2010 0
-1957 -2257 0
-1958 -2258 0
-1959 -2259 0
-1957 -2002 0
-1958 -2003 0
-1959 -2004 0
-1960 -2338 0
-1961 -2339 0
-1962 -2340 0
-1969 -2251 0
-1970 -2252 0
-1971 -2253 0
-1972 -2251 0
-1973 -2252 0
-1974 -2253 0
-1978 -2131 0
-1979 -2132 0
-1980 -2133 0
-1981 -2074 0
-1982 -2075 0
-1983 -2076 0
-1987 -2209 0
-1988 -2210 0
-1989 -2211 0
-1990 -2173 0
-1991 -2174 0
-1992 -2175 0
-1993 -2431 0
-1994 -2432 0
-1995 -2433 0
-1996 -2341 0
-1997 -2342 0
-1998 -2343 0
-2002 -2134 0
-2003 -2135 0
-2004 -2136 0
-2008 -2176 0
-2009 -2177 0
-2010 -2178 0
-2014 -2233 0
-2015 -2234 0
-2016 -2235 0
-2017 -2209 0
-2018 -2210 0
-2019 -2211 0
-2017 -2218 0
-2018 -2219 0
-2019 -2220 0
-2026 -2101 0
-2027 -2102 0
-2028 -2103 0
-2029 -2389 0
-2030 -2390 0
-2031 -2391 0
-2032 -2224 0
-2033 -2225 0
-2034 -2226 0
-2035 -2101 0
-2036 -2102 0
-2037 -2103 0
-2035 -2071 0
-2036 -2072 0
-2037 -2073 0
-2038 -2107 0
-2039 -2108 0
-2040 -2109 0
-2041 -2170 0
-2042 -2171 0
-2043 -2172 0
-2044 -2284 0
-2045 -2285 0
-2046 -2286 0
-2047 -2074 0
-2048 -2075 0
-2049 -2076 0
-2050 -2443 0
-2051 -2444 0
-2052 -2445 0
-2056 -2164 0
-2057 -2165 0
-2058 -2166 0
-2056 -2224 0
-2057 -2225 0
-2058 -2226 0
-2056 -2179 0
-2057 -2180 0
-2058 -2181 0
-2062 -2143 0
-2063 -2144 0
-2064 -2145 0
-2068 -2428 0
-2069 -2429 0
-2070 -2430 0
-2071 -2404 0
-2072 -2405 0
-2073 -2406 0
-2086 -2356 0
-2087 -2357 0
-2088 -2358 0
-2089 -2203 0
-2090 -2204 0
-2091 -2205 0
-2092 -2155 0
-2093 -2156 0
-2094 -2157 0
-2095 -2110 0
-2096 -2111 0
-2097 -2112 0
-2095 -2437 0
-2096 -2438 0
-2097 -2439 0
-2098 -2443 0
-2099 -2444 0
-2100 -2445 0
-2098 -2158 0
-2099 -2159 0
-2100 -2160 0
-2101 -2359 0
-2102 -2360 0
-2103 -2361 0
-2107 -2404 0
-2108 -2405 0
-2109 -2406 0
-2107 -2392 0
-2108 -2393 0
-2109 -2394 0
-2122 -2203 0
-2123 -2204 0
-2124 -2205 0
-2128 -2161 0
-2129 -2162 0
-2130 -2163 0
-2143 -2149 0
-2144 -2150 0
-2145 -2151 0
-2146 -2317 0
-2147 -2318 0
-2148 -2319 0
-2146 -2320 0
-2147 -2321 0
-2148 -2322 0
-2146 -2311 0
-2147 -2312 0
-2148 -2313 0
-2149 -2254 0
-2150 -2255 0
-2151 -2256 0
-2149 -2197 0
-2150 -2198 0
-2151 -2199 0
-2149 -2248 0
-2150 -2249 0
-2151 -2250 0
-2152 -2272 0
-2153 -2273 0
-2154 -2274 0
-2155 -2278 0
-2156 -2279 0
-2157 -2280 0
-2158 -2446 0
-2159 -2447 0
-2160 -2448 0
-2164 -2269 0
-2165 -2270 0
-2166 -2271 0
-2164 -2197 0
-2165 -2198 0
-2166 -2199 0
-2167 -2419 0
-2168 -2420 0
-2169 -2421 0
-2170 -2239 0
-2171 -2240 0
-2172 -2241 0
-2173 -2425 0
-2174 -2426 0
-2175 -2427 0
-2176 -2230 0
-2177 -2231 0
-2178 -2232 0
-2176 -2194 0
-2177 -2195 0
-2178 -2196 0
-2179 -2296 0
-2180 -2297 0
-2181 -2298 0
-2179 -2302 0
-2180 -2303 0
-2181 -2304 0
-2182 -2413 0
-2183 -2414 0
-2184 -2415 0
-2185 -2443 0
-2186 -2444 0
-2187 -2445 0
-2185 -2395 0
-2186 -2396 0
-2187 -2397 0
-2188 -2362 0
-2189 -2363 0
-2190 -2364 0
-2194 -2323 0
-2195 -2324 0
-2196 -2325 0
-2203 -2350 0
-2204 -2351 0
-2205 -2352 0
-2215 -2263 0
-2216 -2264 0
-2217 -2265 0
-2224 -2245 0
-2225 -2246 0
-2226 -2247 0
-2230 -2407 0
-2231 -2408 0
-2232 -2409 0
-2248 -2413 0
-2249 -2414 0
-2250 -2415 0
-2254 -2440 0
-2255 -2441 0
-2256 -2442 0
-2257 -2308 0
-2258 -2309 0
-2259 -2310 0
-2260 -2422 0
-2261 -2423 0
-2262 -2424 0
-2269 -2410 0
-2270 -2411 0
-2271 -2412 0
-2269 -2422 0
-2270 -2423 0
-2271 -2424 0
-2314 -2368 0
-2315 -2369 0
-2316 -2370 0
-2326 -2368 0
-2327 -2369 0
-2328 -2370 0
-2326 -2365 0
-2327 -2366 0
-2328 -2367 0
-2329 -2347 0
-2330 -2348 0
-2331 -2349 0
-2332 -2350 0
-2333 -2351 0
-2334 -2352 0
-2335 -2398 0
-2336 -2399 0
-2337 -2400 0
-2341 -2416 0
-2342 -2417 0
-2343 -2418 0
-2347 -2407 0
-2348 -2408 0
-2349 -2409 0
-2353 -2401 0
-2354 -2402 0
-2355 -2403 0
-2371 -2407 0
-2372 -2408 0
-2373 -2409 0
-2371 -2434 0
-2372 -2435 0
-2373 -2436 0
-2398 -2428 0
-2399 -2429 0
-2400 -2430 0
-2443 -2446 0
-2444 -2447 0
-2445 -2448 0
1 0
2063 0
