p cnf 2505 6906
1 2 3 0
4 5 6 0
7 8 9 0
10 11 12 0
13 14 15 0
16 17 18 0
19 20 21 0
22 23 24 0
25 26 27 0
28 29 30 0
31 32 33 0
34 35 36 0
37 38 39 0
40 41 42 0
43 44 45 0
46 47 48 0
49 50 51 0
52 53 54 0
55 56 57 0
58 59 60 0
61 62 63 0
64 65 66 0
67 68 69 0
70 71 72 0
73 74 75 0
76 77 78 0
79 80 81 0
82 83 84 0
85 86 87 0
88 89 90 0
91 92 93 0
94 95 96 0
97 98 99 0
100 101 102 0
103 104 105 0
106 107 108 0
109 110 111 0
112 113 114 0
115 116 117 0
118 119 120 0
121 122 123 0
124 125 126 0
127 128 129 0
130 131 132 0
133 134 135 0
136 137 138 0
139 140 141 0
142 143 144 0
145 146 147 0
148 149 150 0
151 152 153 0
154 155 156 0
157 158 159 0
160 161 162 0
163 164 165 0
166 167 168 0
169 170 171 0
172 173 174 0
175 176 177 0
178 179 180 0
181 182 183 0
184 185 186 0
187 188 189 0
190 191 192 0
193 194 195 0
196 197 198 0
199 200 201 0
202 203 204 0
205 206 207 0
208 209 210 0
211 212 213 0
214 215 216 0
217 218 219 0
220 221 222 0
223 224 225 0
226 227 228 0
229 230 231 0
232 233 234 0
235 236 237 0
238 239 240 0
241 242 243 0
244 245 246 0
247 248 249 0
250 251 252 0
253 254 255 0
256 257 258 0
259 260 261 0
262 263 264 0
265 266 267 0
268 269 270 0
271 272 273 0
274 275 276 0
277 278 279 0
280 281 282 0
283 284 285 0
286 287 288 0
289 290 291 0
292 293 294 0
295 296 297 0
298 299 300 0
301 302 303 0
304 305 306 0
307 308 309 0
310 311 312 0
313 314 315 0
316 317 318 0
319 320 321 0
322 323 324 0
325 326 327 0
328 329 330 0
331 332 333 0
334 335 336 0
337 338 339 0
340 341 342 0
343 344 345 0
346 347 348 0
349 350 351 0
352 353 354 0
355 356 357 0
358 359 360 0
361 362 363 0
364 365 366 0
367 368 369 0
370 371 372 0
373 374 375 0
376 377 378 0
379 380 381 0
382 383 384 0
385 386 387 0
388 389 390 0
391 392 393 0
394 395 396 0
397 398 399 0
400 401 402 0
403 404 405 0
406 407 408 0
409 410 411 0
412 413 414 0
415 416 417 0
418 419 420 0
421 422 423 0
424 425 426 0
427 428 429 0
430 431 432 0
433 434 435 0
436 437 438 0
439 440 441 0
442 443 444 0
445 446 447 0
448 449 450 0
451 452 453 0
454 455 456 0
457 458 459 0
460 461 462 0
463 464 465 0
466 467 468 0
469 470 471 0
472 473 474 0
475 476 477 0
478 479 480 0
481 482 483 0
484 485 486 0
487 488 489 0
490 491 492 0
493 494 495 0
496 497 498 0
499 500 501 0
502 503 504 0
505 506 507 0
508 509 510 0
511 512 513 0
514 515 516 0
517 518 519 0
520 521 522 0
523 524 525 0
526 527 528 0
529 530 531 0
532 533 534 0
535 536 537 0
538 539 540 0
541 542 543 0
544 545 546 0
547 548 549 0
550 551 552 0
553 554 555 0
556 557 558 0
559 560 561 0
562 563 564 0
565 566 567 0
568 569 570 0
571 572 573 0
574 575 576 0
577 578 579 0
580 581 582 0
583 584 585 0
586 587 588 0
589 590 591 0
592 593 594 0
595 596 597 0
598 599 600 0
601 602 603 0
604 605 606 0
607 608 609 0
610 611 612 0
613 614 615 0
616 617 618 0
619 620 621 0
622 623 624 0
625 626 627 0
628 629 630 0
631 632 633 0
634 635 636 0
637 638 639 0
640 641 642 0
643 644 645 0
646 647 648 0
649 650 651 0
652 653 654 0
655 656 657 0
658 659 660 0
661 662 663 0
664 665 666 0
667 668 669 0
670 671 672 0
673 674 675 0
676 677 678 0
679 680 681 0
682 683 684 0
685 686 687 0
688 689 690 0
691 692 693 0
694 695 696 0
697 698 699 0
700 701 702 0
703 704 705 0
706 707 708 0
709 710 711 0
712 713 714 0
715 716 717 0
718 719 720 0
721 722 723 0
724 725 726 0
727 728 729 0
730 731 732 0
733 734 735 0
736 737 738 0
739 740 741 0
742 743 744 0
745 746 747 0
748 749 750 0
751 752 753 0
754 755 756 0
757 758 759 0
760 761 762 0
763 764 765 0
766 767 768 0
769 770 771 0
772 773 774 0
775 776 777 0
778 779 780 0
781 782 783 0
784 785 786 0
787 788 789 0
790 791 792 0
793 794 795 0
796 797 798 0
799 800 801 0
802 803 804 0
805 806 807 0
808 809 810 0
811 812 813 0
814 815 816 0
817 818 819 0
820 821 822 0
823 824 825 0
826 827 828 0
829 830 831 0
832 833 834 0
835 836 837 0
838 839 840 0
841 842 843 0
844 845 846 0
847 848 849 0
850 851 852 0
853 854 855 0
856 857 858 0
859 860 861 0
862 863 864 0
865 866 867 0
868 869 870 0
871 872 873 0
874 875 876 0
877 878 879 0
880 881 882 0
883 884 885 0
886 887 888 0
889 890 891 0
892 893 894 0
895 896 897 0
898 899 900 0
901 902 903 0
904 905 906 0
907 908 909 0
910 911 912 0
913 914 915 0
916 917 918 0
919 920 921 0
922 923 924 0
925 926 927 0
928 929 930 0
931 932 933 0
934 935 936 0
937 938 939 0
940 941 942 0
943 944 945 0
946 947 948 0
949 950 951 0
952 953 954 0
955 956 957 0
958 959 960 0
961 962 963 0
964 965 966 0
967 968 969 0
970 971 972 0
973 974 975 0
976 977 978 0
979 980 981 0
982 983 984 0
985 986 987 0
988 989 990 0
991 992 993 0
994 995 996 0
997 998 999 0
1000 1001 1002 0
1003 1004 1005 0
1006 1007 1008 0
1009 1010 1011 0
1012 1013 1014 0
1015 1016 1017 0
1018 1019 1020 0
1021 1022 1023 0
1024 1025 1026 0
1027 1028 1029 0
1030 1031 1032 0
1033 1034 1035 0
1036 1037 1038 0
1039 1040 1041 0
1042 1043 1044 0
1045 1046 1047 0
1048 1049 1050 0
1051 1052 1053 0
1054 1055 1056 0
1057 1058 1059 0
1060 1061 1062 0
1063 1064 1065 0
1066 1067 1068 0
1069 1070 1071 0
1072 1073 1074 0
1075 1076 1077 0
1078 1079 1080 0
1081 1082 1083 0
1084 1085 1086 0
1087 1088 1089 0
1090 1091 1092 0
1093 1094 1095 0
1096 1097 1098 0
1099 1100 1101 0
1102 1103 1104 0
1105 1106 1107 0
1108 1109 1110 0
1111 1112 1113 0
1114 1115 1116 0
1117 1118 1119 0
1120 1121 1122 0
1123 1124 1125 0
1126 1127 1128 0
1129 1130 1131 0
1132 1133 1134 0
1135 1136 1137 0
1138 1139 1140 0
1141 1142 1143 0
1144 1145 1146 0
1147 1148 1149 0
1150 1151 1152 0
1153 1154 1155 0
1156 1157 1158 0
1159 1160 1161 0
1162 1163 1164 0
1165 1166 1167 0
1168 1169 1170 0
1171 1172 1173 0
1174 1175 1176 0
1177 1178 1179 0
1180 1181 1182 0
1183 1184 1185 0
1186 1187 1188 0
1189 1190 1191 0
1192 1193 1194 0
1195 1196 1197 0
1198 1199 1200 0
1201 1202 1203 0
1204 1205 1206 0
1207 1208 1209 0
1210 1211 1212 0
1213 1214 1215 0
1216 1217 1218 0
1219 1220 1221 0
1222 1223 1224 0
1225 1226 1227 0
1228 1229 1230 0
1231 1232 1233 0
1234 1235 1236 0
1237 1238 1239 0
1240 1241 1242 0
1243 1244 1245 0
1246 1247 1248 0
1249 1250 1251 0
1252 1253 1254 0
1255 1256 1257 0
1258 1259 1260 0
1261 1262 1263 0
1264 1265 1266 0
1267 1268 1269 0
1270 1271 1272 0
1273 1274 1275 0
1276 1277 1278 0
1279 1280 1281 0
1282 1283 1284 0
1285 1286 1287 0
1288 1289 1290 0
1291 1292 1293 0
1294 1295 1296 0
1297 1298 1299 0
1300 1301 1302 0
1303 1304 1305 0
1306 1307 1308 0
1309 1310 1311 0
1312 1313 1314 0
1315 1316 1317 0
1318 1319 1320 0
1321 1322 1323 0
1324 1325 1326 0
1327 1328 1329 0
1330 1331 1332 0
1333 1334 1335 0
1336 1337 1338 0
1339 1340 1341 0
1342 1343 1344 0
1345 1346 1347 0
1348 1349 1350 0
1351 1352 1353 0
1354 1355 1356 0
1357 1358 1359 0
1360 1361 1362 0
1363 1364 1365 0
1366 1367 1368 0
1369 1370 1371 0
1372 1373 1374 0
1375 1376 1377 0
1378 1379 1380 0
1381 1382 1383 0
1384 1385 1386 0
1387 1388 1389 0
1390 1391 1392 0
1393 1394 1395 0
1396 1397 1398 0
1399 1400 1401 0
1402 1403 1404 0
1405 1406 1407 0
1408 1409 1410 0
1411 1412 1413 0
1414 1415 1416 0
1417 1418 1419 0
1420 1421 1422 0
1423 1424 1425 0
1426 1427 1428 0
1429 1430 1431 0
1432 1433 1434 0
1435 1436 1437 0
1438 1439 1440 0
1441 1442 1443 0
1444 1445 1446 0
1447 1448 1449 0
1450 1451 1452 0
1453 1454 1455 0
1456 1457 1458 0
1459 1460 1461 0
1462 1463 1464 0
1465 1466 1467 0
1468 1469 1470 0
1471 1472 1473 0
1474 1475 1476 0
1477 1478 1479 0
1480 1481 1482 0
1483 1484 1485 0
1486 1487 1488 0
1489 1490 1491 0
1492 1493 1494 0
1495 1496 1497 0
1498 1499 1500 0
1501 1502 1503 0
1504 1505 1506 0
1507 1508 1509 0
1510 1511 1512 0
1513 1514 1515 0
1516 1517 1518 0
1519 1520 1521 0
1522 1523 1524 0
1525 1526 1527 0
1528 1529 1530 0
1531 1532 1533 0
1534 1535 1536 0
1537 1538 1539 0
1540 1541 1542 0
1543 1544 1545 0
1546 1547 1548 0
1549 1550 1551 0
1552 1553 1554 0
1555 1556 1557 0
1558 1559 1560 0
1561 1562 1563 0
1564 1565 1566 0
1567 1568 1569 0
1570 1571 1572 0
1573 1574 1575 0
1576 1577 1578 0
1579 1580 1581 0
1582 1583 1584 0
1585 1586 1587 0
1588 1589 1590 0
1591 1592 1593 0
1594 1595 1596 0
1597 1598 1599 0
1600 1601 1602 0
1603 1604 1605 0
1606 1607 1608 0
1609 1610 1611 0
1612 1613 1614 0
1615 1616 1617 0
1618 1619 1620 0
1621 1622 1623 0
1624 1625 1626 0
1627 1628 1629 0
1630 1631 1632 0
1633 1634 1635 0
1636 1637 1638 0
1639 1640 1641 0
1642 1643 1644 0
1645 1646 1647 0
1648 1649 1650 0
1651 1652 1653 0
1654 1655 1656 0
1657 1658 1659 0
1660 1661 1662 0
1663 1664 1665 0
1666 1667 1668 0
1669 1670 1671 0
1672 1673 1674 0
1675 1676 1677 0
1678 1679 1680 0
1681 1682 1683 0
1684 1685 1686 0
1687 1688 1689 0
1690 1691 1692 0
1693 1694 1695 0
1696 1697 1698 0
1699 1700 1701 0
1702 1703 1704 0
1705 1706 1707 0
1708 1709 1710 0
1711 1712 1713 0
1714 1715 1716 0
1717 1718 1719 0
1720 1721 1722 0
1723 1724 1725 0
1726 1727 1728 0
1729 1730 1731 0
1732 1733 1734 0
1735 1736 1737 0
1738 1739 1740 0
1741 1742 1743 0
1744 1745 1746 0
1747 1748 1749 0
1750 1751 1752 0
1753 1754 1755 0
1756 1757 1758 0
1759 1760 1761 0
1762 1763 1764 0
1765 1766 1767 0
1768 1769 1770 0
1771 1772 1773 0
1774 1775 1776 0
1777 1778 1779 0
1780 1781 1782 0
1783 1784 1785 0
1786 1787 1788 0
1789 1790 1791 0
1792 1793 1794 0
1795 1796 1797 0
1798 1799 1800 0
1801 1802 1803 0
1804 1805 1806 0
1807 1808 1809 0
1810 1811 1812 0
1813 1814 1815 0
1816 1817 1818 0
1819 1820 1821 0
1822 1823 1824 0
1825 1826 1827 0
1828 1829 1830 0
1831 1832 1833 0
1834 1835 1836 0
1837 1838 1839 0
1840 1841 1842 0
1843 1844 1845 0
1846 1847 1848 0
1849 1850 1851 0
1852 1853 1854 0
1855 1856 1857 0
1858 1859 1860 0
1861 1862 1863 0
1864 1865 1866 0
1867 1868 1869 0
1870 1871 1872 0
1873 1874 1875 0
1876 1877 1878 0
1879 1880 1881 0
1882 1883 1884 0
1885 1886 1887 0
1888 1889 1890 0
1891 1892 1893 0
1894 1895 1896 0
1897 1898 1899 0
1900 1901 1902 0
1903 1904 1905 0
1906 1907 1908 0
1909 1910 1911 0
1912 1913 1914 0
1915 1916 1917 0
1918 1919 1920 0
1921 1922 1923 0
1924 1925 1926 0
1927 1928 1929 0
1930 1931 1932 0
1933 1934 1935 0
1936 1937 1938 0
1939 1940 1941 0
1942 1943 1944 0
1945 1946 1947 0
1948 1949 1950 0
1951 1952 1953 0
1954 1955 1956 0
1957 1958 1959 0
1960 1961 1962 0
1963 1964 1965 0
1966 1967 1968 0
1969 1970 1971 0
1972 1973 1974 0
1975 1976 1977 0
1978 1979 1980 0
1981 1982 1983 0
1984 1985 1986 0
1987 1988 1989 0
1990 1991 1992 0
1993 1994 1995 0
1996 1997 1998 0
1999 2000 2001 0
2002 2003 2004 0
2005 2006 2007 0
2008 2009 2010 0
2011 2012 2013 0
2014 2015 2016 0
2017 2018 2019 0
2020 2021 2022 0
2023 2024 2025 0
2026 2027 2028 0
2029 2030 2031 0
2032 2033 2034 0
2035 2036 2037 0
2038 2039 2040 0
2041 2042 2043 0
2044 2045 2046 0
2047 2048 2049 0
2050 2051 2052 0
2053 2054 2055 0
2056 2057 2058 0
2059 2060 2061 0
2062 2063 2064 0
2065 2066 2067 0
2068 2069 2070 0
2071 2072 2073 0
2074 2075 2076 0
2077 2078 2079 0
2080 2081 2082 0
2083 2084 2085 0
2086 2087 2088 0
2089 2090 2091 0
2092 2093 2094 0
2095 2096 2097 0
2098 2099 2100 0
2101 2102 2103 0
2104 2105 2106 0
2107 2108 2109 0
2110 2111 2112 0
2113 2114 2115 0
2116 2117 2118 0
2119 2120 2121 0
2122 2123 2124 0
2125 2126 2127 0
2128 2129 2130 0
2131 2132 2133 0
2134 2135 2136 0
2137 2138 2139 0
2140 2141 2142 0
2143 2144 2145 0
2146 2147 2148 0
2149 2150 2151 0
2152 2153 2154 0
2155 2156 2157 0
2158 2159 2160 0
2161 2162 2163 0
2164 2165 2166 0
2167 2168 2169 0
2170 2171 2172 0
2173 2174 2175 0
2176 2177 2178 0
2179 2180 2181 0
2182 2183 2184 0
2185 2186 2187 0
2188 2189 2190 0
2191 2192 2193 0
2194 2195 2196 0
2197 2198 2199 0
2200 2201 2202 0
2203 2204 2205 0
2206 2207 2208 0
2209 2210 2211 0
2212 2213 2214 0
2215 2216 2217 0
2218 2219 2220 0
2221 2222 2223 0
2224 2225 2226 0
2227 2228 2229 0
2230 2231 2232 0
2233 2234 2235 0
2236 2237 2238 0
2239 2240 2241 0
2242 2243 2244 0
2245 2246 2247 0
2248 2249 2250 0
2251 2252 2253 0
2254 2255 2256 0
2257 2258 2259 0
2260 2261 2262 0
2263 2264 2265 0
2266 2267 2268 0
2269 2270 2271 0
2272 2273 2274 0
2275 2276 2277 0
2278 2279 2280 0
2281 2282 2283 0
2284 2285 2286 0
2287 2288 2289 0
2290 2291 2292 0
2293 2294 2295 0
2296 2297 2298 0
2299 2300 2301 0
2302 2303 2304 0
2305 2306 2307 0
2308 2309 2310 0
2311 2312 2313 0
2314 2315 2316 0
2317 2318 2319 0
2320 2321 2322 0
2323 2324 2325 0
2326 2327 2328 0
2329 2330 2331 0
2332 2333 2334 0
2335 2336 2337 0
2338 2339 2340 0
2341 2342 2343 0
2344 2345 2346 0
2347 2348 2349 0
2350 2351 2352 0
2353 2354 2355 0
2356 2357 2358 0
2359 2360 2361 0
2362 2363 2364 0
2365 2366 2367 0
2368 2369 2370 0
2371 2372 2373 0
2374 2375 2376 0
2377 2378 2379 0
2380 2381 2382 0
2383 2384 2385 0
2386 2387 2388 0
2389 2390 2391 0
2392 2393 2394 0
2395 2396 2397 0
2398 2399 2400 0
2401 2402 2403 0
2404 2405 2406 0
2407 2408 2409 0
2410 2411 2412 0
2413 2414 2415 0
2416 2417 2418 0
2419 2420 2421 0
2422 2423 2424 0
2425 2426 2427 0
2428 2429 2430 0
2431 2432 2433 0
2434 2435 2436 0
2437 2438 2439 0
2440 2441 2442 0
2443 2444 2445 0
2446 2447 2448 0
2449 2450 2451 0
2452 2453 2454 0
2455 2456 2457 0
2458 2459 2460 0
2461 2462 2463 0
2464 2465 2466 0
2467 2468 2469 0
2470 2471 2472 0
2473 2474 2475 0
2476 2477 2478 0
2479 2480 2481 0
2482 2483 2484 0
2485 2486 2487 0
2488 2489 2490 0
2491 2492 2493 0
2494 2495 2496 0
2497 2498 2499 0
2500 2501 2502 0
2503 2504 2505 0
-1 -121 0
-2 -122 0
-3 -123 0
-1 -1891 0
-2 -1892 0
-3 -1893 0
-1 -223 0
-2 -224 0
-3 -225 0
-1 -1789 0
-2 -1790 0
-3 -1791 0
-1 -1894 0
-2 -1895 0
-3 -1896 0
-4 -121 0
-5 -122 0
-6 -123 0
-4 -1855 0
-5 -1856 0
-6 -1857 0
-4 -235 0
-5 -236 0
-6 -237 0
-7 -2047 0
-8 -2048 0
-9 -2049 0
-7 -169 0
-8 -170 0
-9 -171 0
-7 -2188 0
-8 -2189 0
-9 -2190 0
-10 -2449 0
-11 -2450 0
-12 -2451 0
-10 -2230 0
-11 -2231 0
-12 -2232 0
-10 -175 0
-11 -176 0
-12 -177 0
-13 -121 0
-14 -122 0
-15 -123 0
-13 -2458 0
-14 -2459 0
-15 -2460 0
-13 -2476 0
-14 -2477 0
-15 -2478 0
-13 -262 0
-14 -263 0
-15 -264 0
-13 -1912 0
-14 -1913 0
-15 -1914 0
-16 -2455 0
-17 -2456 0
-18 -2457 0
-16 -1627 0
-17 -1628 0
-18 -1629 0
-16 -148 0
-17 -149 0
-18 -150 0
-16 -217 0
-17 -218 0
-18 -219 0
-19 -1513 0
-20 -1514 0
-21 -1515 0
-19 -223 0
-20 -224 0
-21 -225 0
-19 -172 0
-20 -173 0
-21 -174 0
-19 -1459 0
-20 -1460 0
-21 -1461 0
-19 -1663 0
-20 -1664 0
-21 -1665 0
-19 -2425 0
-20 -2426 0
-21 -2427 0
-19 -1849 0
-20 -1850 0
-21 -1851 0
-22 -1945 0
-23 -1946 0
-24 -1947 0
-22 -232 0
-23 -233 0
-24 -234 0
-22 -1456 0
-23 -1457 0
-24 -1458 0
-25 -1942 0
-26 -1943 0
-27 -1944 0
-25 -211 0
-26 -212 0
-27 -213 0
-25 -2131 0
-26 -2132 0
-27 -2133 0
-25 -1204 0
-26 -1205 0
-27 -1206 0
-28 -121 0
-29 -122 0
-30 -123 0
-28 -1213 0
-29 -1214 0
-30 -1215 0
-28 -1594 0
-29 -1595 0
-30 -1596 0
-28 -319 0
-29 -320 0
-30 -321 0
-28 -1243 0
-29 -1244 0
-30 -1245 0
-31 -1963 0
-32 -1964 0
-33 -1965 0
-31 -265 0
-32 -266 0
-33 -267 0
-31 -217 0
-32 -218 0
-33 -219 0
-34 -1498 0
-35 -1499 0
-36 -1500 0
-34 -226 0
-35 -227 0
-36 -228 0
-34 -2149 0
-35 -2150 0
-36 -2151 0
-37 -121 0
-38 -122 0
-39 -123 0
-37 -373 0
-38 -374 0
-39 -375 0
-37 -1468 0
-38 -1469 0
-39 -1470 0
-40 -319 0
-41 -320 0
-42 -321 0
-40 -1420 0
-41 -1421 0
-42 -1422 0
-40 -2230 0
-41 -2231 0
-42 -2232 0
-40 -175 0
-41 -176 0
-42 -177 0
-43 -319 0
-44 -320 0
-45 -321 0
-43 -2350 0
-44 -2351 0
-45 -2352 0
-43 -1837 0
-44 -1838 0
-45 -1839 0
-43 -211 0
-44 -212 0
-45 -213 0
-46 -319 0
-47 -320 0
-48 -321 0
-46 -1750 0
-47 -1751 0
-48 -1752 0
-46 -2353 0
-47 -2354 0
-48 -2355 0
-46 -1306 0
-47 -1307 0
-48 -1308 0
-46 -1837 0
-47 -1838 0
-48 -1839 0
-46 -217 0
-47 -218 0
-48 -219 0
-49 -319 0
-50 -320 0
-51 -321 0
-49 -2326 0
-50 -2327 0
-51 -2328 0
-49 -1960 0
-50 -1961 0
-51 -1962 0
-49 -226 0
-50 -227 0
-51 -228 0
-49 -1570 0
-50 -1571 0
-51 -1572 0
-49 -2143 0
-50 -2144 0
-51 -2145 0
-52 -2137 0
-53 -2138 0
-54 -2139 0
-52 -223 0
-53 -224 0
-54 -225 0
-52 -1966 0
-53 -1967 0
-54 -1968 0
-52 -1777 0
-53 -1778 0
-54 -1779 0
-55 -319 0
-56 -320 0
-57 -321 0
-55 -2203 0
-56 -2204 0
-57 -2205 0
-55 -2290 0
-56 -2291 0
-57 -2292 0
-55 -235 0
-56 -236 0
-57 -237 0
-55 -1252 0
-56 -1253 0
-57 -1254 0
-58 -184 0
-59 -185 0
-60 -186 0
-58 -2404 0
-59 -2405 0
-60 -2406 0
-58 -391 0
-59 -392 0
-60 -393 0
-61 -2404 0
-62 -2405 0
-63 -2406 0
-61 -190 0
-62 -191 0
-63 -192 0
-61 -1648 0
-62 -1649 0
-63 -1650 0
-61 -430 0
-62 -431 0
-63 -432 0
-64 -454 0
-65 -455 0
-66 -456 0
-64 -1213 0
-65 -1214 0
-66 -1215 0
-64 -1669 0
-65 -1670 0
-66 -1671 0
-64 -1597 0
-65 -1598 0
-66 -1599 0
-67 -1210 0
-68 -1211 0
-69 -1212 0
-67 -1261 0
-68 -1262 0
-69 -1263 0
-67 -370 0
-68 -371 0
-69 -372 0
-67 -1249 0
-68 -1250 0
-69 -1251 0
-67 -232 0
-68 -233 0
-69 -234 0
-70 -1207 0
-71 -1208 0
-72 -1209 0
-70 -223 0
-71 -224 0
-72 -225 0
-70 -376 0
-71 -377 0
-72 -378 0
-70 -1969 0
-71 -1970 0
-72 -1971 0
-73 -121 0
-74 -122 0
-75 -123 0
-73 -523 0
-74 -524 0
-75 -525 0
-73 -1426 0
-74 -1427 0
-75 -1428 0
-73 -1663 0
-74 -1664 0
-75 -1665 0
-76 -319 0
-77 -320 0
-78 -321 0
-76 -1219 0
-77 -1220 0
-78 -1221 0
-76 -1414 0
-77 -1415 0
-78 -1416 0
-76 -1876 0
-77 -1877 0
-78 -1878 0
-76 -1426 0
-77 -1427 0
-78 -1428 0
-79 -217 0
-80 -218 0
-81 -219 0
-79 -454 0
-80 -455 0
-81 -456 0
-79 -2311 0
-80 -2312 0
-81 -2313 0
-79 -1561 0
-80 -1562 0
-81 -1563 0
-79 -2128 0
-80 -2129 0
-81 -2130 0
-82 -2155 0
-83 -2156 0
-84 -2157 0
-82 -2029 0
-83 -2030 0
-84 -2031 0
-82 -1864 0
-83 -1865 0
-84 -1866 0
-82 -2320 0
-83 -2321 0
-84 -2322 0
-82 -211 0
-83 -212 0
-84 -213 0
-82 -490 0
-83 -491 0
-84 -492 0
-85 -121 0
-86 -122 0
-87 -123 0
-85 -2473 0
-86 -2474 0
-87 -2475 0
-85 -1663 0
-86 -1664 0
-87 -1665 0
-85 -559 0
-86 -560 0
-87 -561 0
-88 -2293 0
-89 -2294 0
-90 -2295 0
-88 -1474 0
-89 -1475 0
-90 -1476 0
-88 -2443 0
-89 -2444 0
-90 -2445 0
-88 -235 0
-89 -236 0
-90 -237 0
-88 -490 0
-89 -491 0
-90 -492 0
-91 -1891 0
-92 -1892 0
-93 -1893 0
-91 -502 0
-92 -503 0
-93 -504 0
-91 -223 0
-92 -224 0
-93 -225 0
-91 -1282 0
-92 -1283 0
-93 -1284 0
-91 -1270 0
-92 -1271 0
-93 -1272 0
-94 -2098 0
-95 -2099 0
-96 -2100 0
-94 -1231 0
-95 -1232 0
-96 -1233 0
-94 -262 0
-95 -263 0
-96 -264 0
-94 -487 0
-95 -488 0
-96 -489 0
-97 -253 0
-98 -254 0
-99 -255 0
-97 -2410 0
-98 -2411 0
-99 -2412 0
-97 -2482 0
-98 -2483 0
-99 -2484 0
-100 -217 0
-101 -218 0
-102 -219 0
-100 -2251 0
-101 -2252 0
-102 -2253 0
-100 -2383 0
-101 -2384 0
-102 -2385 0
-100 -520 0
-101 -521 0
-102 -522 0
-103 -121 0
-104 -122 0
-105 -123 0
-103 -1564 0
-104 -1565 0
-105 -1566 0
-103 -589 0
-104 -590 0
-105 -591 0
-106 -1207 0
-107 -1208 0
-108 -1209 0
-106 -367 0
-107 -368 0
-108 -369 0
-106 -2011 0
-107 -2012 0
-108 -2013 0
-109 -370 0
-110 -371 0
-111 -372 0
-109 -373 0
-110 -374 0
-111 -375 0
-109 -1345 0
-110 -1346 0
-111 -1347 0
-109 -2020 0
-110 -2021 0
-111 -2022 0
-112 -367 0
-113 -368 0
-114 -369 0
-112 -376 0
-113 -377 0
-114 -378 0
-112 -1354 0
-113 -1355 0
-114 -1356 0
-112 -1276 0
-113 -1277 0
-114 -1278 0
-112 -2443 0
-113 -2444 0
-114 -2445 0
-112 -1282 0
-113 -1283 0
-114 -1284 0
-112 -1285 0
-113 -1286 0
-114 -1287 0
-115 -1210 0
-116 -1211 0
-117 -1212 0
-115 -1330 0
-116 -1331 0
-117 -1332 0
-115 -373 0
-116 -374 0
-117 -375 0
-118 -1219 0
-119 -1220 0
-120 -1221 0
-118 -121 0
-119 -122 0
-120 -123 0
-118 -1306 0
-119 -1307 0
-120 -1308 0
-118 -619 0
-119 -620 0
-120 -621 0
-118 -1756 0
-119 -1757 0
-120 -1758 0
-118 -1204 0
-119 -1205 0
-120 -1206 0
-121 -529 0
-122 -530 0
-123 -531 0
-121 -532 0
-122 -533 0
-123 -534 0
-121 -622 0
-122 -623 0
-123 -624 0
-121 -166 0
-122 -167 0
-123 -168 0
-121 -337 0
-122 -338 0
-123 -339 0
-121 -343 0
-122 -344 0
-123 -345 0
-121 -346 0
-122 -347 0
-123 -348 0
-121 -583 0
-122 -584 0
-123 -585 0
-121 -451 0
-122 -452 0
-123 -453 0
-121 -547 0
-122 -548 0
-123 -549 0
-121 -550 0
-122 -551 0
-123 -552 0
-121 -553 0
-122 -554 0
-123 -555 0
-124 -169 0
-125 -170 0
-126 -171 0
-124 -1981 0
-125 -1982 0
-126 -1983 0
-124 -2446 0
-125 -2447 0
-126 -2448 0
-124 -562 0
-125 -563 0
-126 -564 0
-127 -1258 0
-128 -1259 0
-129 -1260 0
-127 -2092 0
-128 -2093 0
-129 -2094 0
-127 -1630 0
-128 -1631 0
-129 -1632 0
-127 -2377 0
-128 -2378 0
-129 -2379 0
-127 -2182 0
-128 -2183 0
-129 -2184 0
-127 -619 0
-128 -620 0
-129 -621 0
-130 -580 0
-131 -581 0
-132 -582 0
-130 -304 0
-131 -305 0
-132 -306 0
-130 -133 0
-131 -134 0
-132 -135 0
-130 -622 0
-131 -623 0
-132 -624 0
-133 -1933 0
-134 -1934 0
-135 -1935 0
-133 -625 0
-134 -626 0
-135 -627 0
-133 -2134 0
-134 -2135 0
-135 -2136 0
-133 -1753 0
-134 -1754 0
-135 -1755 0
-136 -1915 0
-137 -1916 0
-138 -1917 0
-136 -418 0
-137 -419 0
-138 -420 0
-136 -2101 0
-137 -2102 0
-138 -2103 0
-136 -376 0
-137 -377 0
-138 -378 0
-139 -433 0
-140 -434 0
-141 -435 0
-139 -1792 0
-140 -1793 0
-141 -1794 0
-139 -379 0
-140 -380 0
-141 -381 0
-142 -313 0
-143 -314 0
-144 -315 0
-142 -145 0
-143 -146 0
-144 -147 0
-142 -538 0
-143 -539 0
-144 -540 0
-142 -622 0
-143 -623 0
-144 -624 0
-142 -445 0
-143 -446 0
-144 -447 0
-145 -1738 0
-146 -1739 0
-147 -1740 0
-145 -1639 0
-146 -1640 0
-147 -1641 0
-145 -1570 0
-146 -1571 0
-147 -1572 0
-145 -625 0
-146 -626 0
-147 -627 0
-148 -310 0
-149 -311 0
-150 -312 0
-148 -151 0
-149 -152 0
-150 -153 0
-148 -382 0
-149 -383 0
-150 -384 0
-148 -442 0
-149 -443 0
-150 -444 0
-148 -622 0
-149 -623 0
-150 -624 0
-151 -2023 0
-152 -2024 0
-153 -2025 0
-151 -1387 0
-152 -1388 0
-153 -1389 0
-151 -1252 0
-152 -1253 0
-153 -1254 0
-151 -625 0
-152 -626 0
-153 -627 0
-154 -2128 0
-155 -2129 0
-156 -2130 0
-154 -1585 0
-155 -1586 0
-156 -1587 0
-154 -1978 0
-155 -1979 0
-156 -1980 0
-154 -1750 0
-155 -1751 0
-156 -1752 0
-154 -619 0
-155 -620 0
-156 -621 0
-157 -316 0
-158 -317 0
-159 -318 0
-157 -160 0
-158 -161 0
-159 -162 0
-157 -292 0
-158 -293 0
-159 -294 0
-157 -358 0
-158 -359 0
-159 -360 0
-157 -640 0
-158 -641 0
-159 -642 0
-157 -622 0
-158 -623 0
-159 -624 0
-160 -625 0
-161 -626 0
-162 -627 0
-160 -2284 0
-161 -2285 0
-162 -2286 0
-160 -2335 0
-161 -2336 0
-162 -2337 0
-163 -499 0
-164 -500 0
-165 -501 0
-163 -319 0
-164 -320 0
-165 -321 0
-163 -2143 0
-164 -2144 0
-165 -2145 0
-166 -673 0
-167 -674 0
-168 -675 0
-166 -2080 0
-167 -2081 0
-168 -2082 0
-166 -2362 0
-167 -2363 0
-168 -2364 0
-166 -1381 0
-167 -1382 0
-168 -1383 0
-169 -694 0
-170 -695 0
-171 -696 0
-169 -409 0
-170 -410 0
-171 -411 0
-169 -424 0
-170 -425 0
-171 -426 0
-169 -622 0
-170 -623 0
-171 -624 0
-169 -643 0
-170 -644 0
-171 -645 0
-172 -697 0
-173 -698 0
-174 -699 0
-172 -574 0
-173 -575 0
-174 -576 0
-172 -421 0
-173 -422 0
-174 -423 0
-172 -427 0
-173 -428 0
-174 -429 0
-172 -196 0
-173 -197 0
-174 -198 0
-172 -601 0
-173 -602 0
-174 -603 0
-172 -448 0
-173 -449 0
-174 -450 0
-172 -238 0
-173 -239 0
-174 -240 0
-172 -646 0
-173 -647 0
-174 -648 0
-172 -622 0
-173 -623 0
-174 -624 0
-175 -577 0
-176 -578 0
-177 -579 0
-175 -457 0
-176 -458 0
-177 -459 0
-175 -208 0
-176 -209 0
-177 -210 0
-175 -463 0
-176 -464 0
-177 -465 0
-175 -622 0
-176 -623 0
-177 -624 0
-178 -199 0
-179 -200 0
-180 -201 0
-178 -460 0
-179 -461 0
-180 -462 0
-178 -466 0
-179 -467 0
-180 -468 0
-178 -334 0
-179 -335 0
-180 -336 0
-178 -622 0
-179 -623 0
-180 -624 0
-181 -2473 0
-182 -2474 0
-183 -2475 0
-181 -1651 0
-182 -1652 0
-183 -1653 0
-181 -250 0
-182 -251 0
-183 -252 0
-181 -1231 0
-182 -1232 0
-183 -1233 0
-181 -559 0
-182 -560 0
-183 -561 0
-181 -2107 0
-182 -2108 0
-183 -2109 0
-184 -187 0
-185 -188 0
-186 -189 0
-184 -241 0
-185 -242 0
-186 -243 0
-184 -622 0
-185 -623 0
-186 -624 0
-187 -625 0
-188 -626 0
-189 -627 0
-187 -1636 0
-188 -1637 0
-189 -1638 0
-190 -565 0
-191 -566 0
-192 -567 0
-190 -439 0
-191 -440 0
-192 -441 0
-190 -622 0
-191 -623 0
-192 -624 0
-190 -247 0
-191 -248 0
-192 -249 0
-193 -2488 0
-194 -2489 0
-195 -2490 0
-193 -2476 0
-194 -2477 0
-195 -2478 0
-193 -1867 0
-194 -1868 0
-195 -1869 0
-193 -1858 0
-194 -1859 0
-195 -1860 0
-193 -1231 0
-194 -1232 0
-195 -1233 0
-193 -262 0
-194 -263 0
-195 -264 0
-193 -571 0
-194 -572 0
-195 -573 0
-193 -2110 0
-194 -2111 0
-195 -2112 0
-196 -1495 0
-197 -1496 0
-198 -1497 0
-196 -655 0
-197 -656 0
-198 -657 0
-196 -1297 0
-197 -1298 0
-198 -1299 0
-199 -652 0
-200 -653 0
-201 -654 0
-199 -1249 0
-200 -1250 0
-201 -1251 0
-199 -1453 0
-200 -1454 0
-201 -1455 0
-202 -1210 0
-203 -1211 0
-204 -1212 0
-202 -499 0
-203 -500 0
-204 -501 0
-202 -373 0
-203 -374 0
-204 -375 0
-205 -1207 0
-206 -1208 0
-207 -1209 0
-205 -502 0
-206 -503 0
-207 -504 0
-205 -367 0
-206 -368 0
-207 -369 0
-205 -1267 0
-206 -1268 0
-207 -1269 0
-208 -1495 0
-209 -1496 0
-210 -1497 0
-208 -1480 0
-209 -1481 0
-210 -1482 0
-208 -655 0
-209 -656 0
-210 -657 0
-208 -1270 0
-209 -1271 0
-210 -1272 0
-211 -388 0
-212 -389 0
-213 -390 0
-211 -283 0
-212 -284 0
-213 -285 0
-211 -616 0
-212 -617 0
-213 -618 0
-211 -727 0
-212 -728 0
-213 -729 0
-211 -622 0
-212 -623 0
-213 -624 0
-214 -1213 0
-215 -1214 0
-216 -1215 0
-214 -619 0
-215 -620 0
-216 -621 0
-214 -1294 0
-215 -1295 0
-216 -1296 0
-214 -1600 0
-215 -1601 0
-216 -1602 0
-214 -217 0
-215 -218 0
-216 -219 0
-217 -628 0
-218 -629 0
-219 -630 0
-217 -664 0
-218 -665 0
-219 -666 0
-217 -508 0
-218 -509 0
-219 -510 0
-217 -511 0
-218 -512 0
-219 -513 0
-217 -700 0
-218 -701 0
-219 -702 0
-217 -469 0
-218 -470 0
-219 -471 0
-217 -598 0
-218 -599 0
-219 -600 0
-217 -472 0
-218 -473 0
-219 -474 0
-217 -385 0
-218 -386 0
-219 -387 0
-217 -286 0
-218 -287 0
-219 -288 0
-217 -349 0
-218 -350 0
-219 -351 0
-217 -730 0
-218 -731 0
-219 -732 0
-217 -622 0
-218 -623 0
-219 -624 0
-220 -490 0
-221 -491 0
-222 -492 0
-220 -391 0
-221 -392 0
-222 -393 0
-220 -2356 0
-221 -2357 0
-222 -2358 0
-220 -1924 0
-221 -1925 0
-222 -1926 0
-223 -736 0
-224 -737 0
-225 -738 0
-223 -622 0
-224 -623 0
-225 -624 0
-223 -703 0
-224 -704 0
-225 -705 0
-223 -709 0
-224 -710 0
-225 -711 0
-223 -514 0
-224 -515 0
-225 -516 0
-223 -406 0
-224 -407 0
-225 -408 0
-223 -607 0
-224 -608 0
-225 -609 0
-223 -667 0
-224 -668 0
-225 -669 0
-226 -706 0
-227 -707 0
-228 -708 0
-226 -403 0
-227 -404 0
-228 -405 0
-226 -622 0
-227 -623 0
-228 -624 0
-229 -1879 0
-230 -1880 0
-231 -1881 0
-229 -1441 0
-230 -1442 0
-231 -1443 0
-229 -619 0
-230 -620 0
-231 -621 0
-229 -232 0
-230 -233 0
-231 -234 0
-229 -1693 0
-230 -1694 0
-231 -1695 0
-232 -634 0
-233 -635 0
-234 -636 0
-232 -535 0
-233 -536 0
-234 -537 0
-232 -280 0
-233 -281 0
-234 -282 0
-232 -478 0
-233 -479 0
-234 -480 0
-232 -712 0
-233 -713 0
-234 -714 0
-232 -517 0
-233 -518 0
-234 -519 0
-232 -715 0
-233 -716 0
-234 -717 0
-232 -622 0
-233 -623 0
-234 -624 0
-235 -637 0
-236 -638 0
-237 -639 0
-235 -622 0
-236 -623 0
-237 -624 0
-235 -394 0
-236 -395 0
-237 -396 0
-238 -685 0
-239 -686 0
-240 -687 0
-238 -2209 0
-239 -2210 0
-240 -2211 0
-241 -670 0
-242 -671 0
-243 -672 0
-241 -1651 0
-242 -1652 0
-243 -1653 0
-244 -673 0
-245 -674 0
-246 -675 0
-244 -1246 0
-245 -1247 0
-246 -1248 0
-244 -2143 0
-245 -2144 0
-246 -2145 0
-247 -1672 0
-248 -1673 0
-249 -1674 0
-247 -673 0
-248 -674 0
-249 -675 0
-247 -1984 0
-248 -1985 0
-249 -1986 0
-247 -1288 0
-248 -1289 0
-249 -1290 0
-250 -622 0
-251 -623 0
-252 -624 0
-250 -256 0
-251 -257 0
-252 -258 0
-253 -505 0
-254 -506 0
-255 -507 0
-253 -721 0
-254 -722 0
-255 -723 0
-253 -298 0
-254 -299 0
-255 -300 0
-253 -484 0
-254 -485 0
-255 -486 0
-253 -604 0
-254 -605 0
-255 -606 0
-253 -676 0
-254 -677 0
-255 -678 0
-253 -622 0
-254 -623 0
-255 -624 0
-256 -625 0
-257 -626 0
-258 -627 0
-256 -1840 0
-257 -1841 0
-258 -1842 0
-259 -2413 0
-260 -2414 0
-261 -2415 0
-259 -1978 0
-260 -1979 0
-261 -1980 0
-259 -2344 0
-260 -2345 0
-261 -2346 0
-259 -619 0
-260 -620 0
-261 -621 0
-259 -265 0
-260 -266 0
-261 -267 0
-262 -295 0
-263 -296 0
-264 -297 0
-262 -679 0
-263 -680 0
-264 -681 0
-262 -268 0
-263 -269 0
-264 -270 0
-262 -622 0
-263 -623 0
-264 -624 0
-265 -301 0
-266 -302 0
-267 -303 0
-265 -622 0
-266 -623 0
-267 -624 0
-268 -1351 0
-269 -1352 0
-270 -1353 0
-268 -625 0
-269 -626 0
-270 -627 0
-268 -1264 0
-269 -1265 0
-270 -1266 0
-268 -1912 0
-269 -1913 0
-270 -1914 0
-271 -685 0
-272 -686 0
-273 -687 0
-271 -1672 0
-272 -1673 0
-273 -1674 0
-271 -1246 0
-272 -1247 0
-273 -1248 0
-271 -1867 0
-272 -1868 0
-273 -1869 0
-271 -1291 0
-272 -1292 0
-273 -1293 0
-271 -1690 0
-272 -1691 0
-273 -1692 0
-274 -418 0
-275 -419 0
-276 -420 0
-274 -2359 0
-275 -2360 0
-276 -2361 0
-274 -490 0
-275 -491 0
-276 -492 0
-277 -391 0
-278 -392 0
-279 -393 0
-277 -2356 0
-278 -2357 0
-279 -2358 0
-277 -2383 0
-278 -2384 0
-279 -2385 0
-277 -520 0
-278 -521 0
-279 -522 0
-280 -1726 0
-281 -1727 0
-282 -1728 0
-280 -1678 0
-281 -1679 0
-282 -1680 0
-280 -1684 0
-281 -1685 0
-282 -1686 0
-280 -652 0
-281 -653 0
-282 -654 0
-283 -673 0
-284 -674 0
-285 -675 0
-283 -2350 0
-284 -2351 0
-285 -2352 0
-283 -2428 0
-284 -2429 0
-285 -2430 0
-286 -688 0
-287 -689 0
-288 -690 0
-286 -1915 0
-287 -1916 0
-288 -1917 0
-286 -2353 0
-287 -2354 0
-288 -2355 0
-289 -739 0
-290 -740 0
-291 -741 0
-289 -2500 0
-290 -2501 0
-291 -2502 0
-289 -1204 0
-290 -1205 0
-291 -1206 0
-292 -1243 0
-293 -1244 0
-294 -1245 0
-292 -1294 0
-293 -1295 0
-294 -1296 0
-292 -742 0
-293 -743 0
-294 -744 0
-292 -1603 0
-293 -1604 0
-294 -1605 0
-292 -1273 0
-293 -1274 0
-294 -1275 0
-295 -673 0
-296 -674 0
-297 -675 0
-295 -1648 0
-296 -1649 0
-297 -1650 0
-298 -685 0
-299 -686 0
-300 -687 0
-298 -1675 0
-299 -1676 0
-300 -1677 0
-298 -1648 0
-299 -1649 0
-300 -1650 0
-301 -685 0
-302 -686 0
-303 -687 0
-301 -2407 0
-302 -2408 0
-303 -2409 0
-304 -1897 0
-305 -1898 0
-306 -1899 0
-304 -775 0
-305 -776 0
-306 -777 0
-307 -1576 0
-308 -1577 0
-309 -1578 0
-307 -1594 0
-308 -1595 0
-309 -1596 0
-307 -1603 0
-308 -1604 0
-309 -1605 0
-307 -523 0
-308 -524 0
-309 -525 0
-307 -2185 0
-308 -2186 0
-309 -2187 0
-310 -1285 0
-311 -1286 0
-312 -1287 0
-310 -1483 0
-311 -1484 0
-312 -1485 0
-310 -766 0
-311 -767 0
-312 -768 0
-310 -2248 0
-311 -2249 0
-312 -2250 0
-313 -769 0
-314 -770 0
-315 -771 0
-313 -1696 0
-314 -1697 0
-315 -1698 0
-313 -1657 0
-314 -1658 0
-315 -1659 0
-316 -2335 0
-317 -2336 0
-318 -2337 0
-316 -2326 0
-317 -2327 0
-318 -2328 0
-316 -769 0
-317 -770 0
-318 -771 0
-319 -778 0
-320 -779 0
-321 -780 0
-319 -325 0
-320 -326 0
-321 -327 0
-319 -760 0
-320 -761 0
-321 -762 0
-319 -763 0
-320 -764 0
-321 -765 0
-319 -541 0
-320 -542 0
-321 -543 0
-319 -724 0
-320 -725 0
-321 -726 0
-319 -622 0
-320 -623 0
-321 -624 0
-322 -1777 0
-323 -1778 0
-324 -1779 0
-322 -1300 0
-323 -1301 0
-324 -1302 0
-322 -1552 0
-323 -1553 0
-324 -1554 0
-322 -2131 0
-323 -2132 0
-324 -2133 0
-322 -1741 0
-323 -1742 0
-324 -1743 0
-322 -2104 0
-323 -2105 0
-324 -2106 0
-322 -1606 0
-323 -1607 0
-324 -1608 0
-322 -619 0
-323 -620 0
-324 -621 0
-322 -1204 0
-323 -1205 0
-324 -1206 0
-325 -1327 0
-326 -1328 0
-327 -1329 0
-325 -1414 0
-326 -1415 0
-327 -1416 0
-325 -1420 0
-326 -1421 0
-327 -1422 0
-325 -625 0
-326 -626 0
-327 -627 0
-325 -1423 0
-326 -1424 0
-327 -1425 0
-325 -1348 0
-326 -1349 0
-327 -1350 0
-325 -1429 0
-326 -1430 0
-327 -1431 0
-325 -1447 0
-326 -1448 0
-327 -1449 0
-325 -1450 0
-326 -1451 0
-327 -1452 0
-325 -1573 0
-326 -1574 0
-327 -1575 0
-325 -1576 0
-326 -1577 0
-327 -1578 0
-325 -1582 0
-326 -1583 0
-327 -1584 0
-325 -2215 0
-326 -2216 0
-327 -2217 0
-325 -1591 0
-326 -1592 0
-327 -1593 0
-325 -1600 0
-326 -1601 0
-327 -1602 0
-325 -1387 0
-326 -1388 0
-327 -1389 0
-325 -1390 0
-326 -1391 0
-327 -1392 0
-325 -1321 0
-326 -1322 0
-327 -1323 0
-325 -1762 0
-326 -1763 0
-327 -1764 0
-328 -373 0
-329 -374 0
-330 -375 0
-328 -2149 0
-329 -2150 0
-330 -2151 0
-328 -1699 0
-329 -1700 0
-330 -1701 0
-331 -1210 0
-332 -1211 0
-333 -1212 0
-331 -592 0
-332 -593 0
-333 -594 0
-331 -2329 0
-332 -2330 0
-333 -2331 0
-331 -370 0
-332 -371 0
-333 -372 0
-331 -1726 0
-332 -1727 0
-333 -1728 0
-331 -2146 0
-332 -2147 0
-333 -2148 0
-334 -1210 0
-335 -1211 0
-336 -1212 0
-334 -769 0
-335 -770 0
-336 -771 0
-334 -2146 0
-335 -2147 0
-336 -2148 0
-334 -1249 0
-335 -1250 0
-336 -1251 0
-337 -2026 0
-338 -2027 0
-339 -2028 0
-337 -2458 0
-338 -2459 0
-339 -2460 0
-337 -2254 0
-338 -2255 0
-339 -2256 0
-337 -2053 0
-338 -2054 0
-339 -2055 0
-337 -2347 0
-338 -2348 0
-339 -2349 0
-337 -841 0
-338 -842 0
-339 -843 0
-337 -1519 0
-338 -1520 0
-339 -1521 0
-340 -2155 0
-341 -2156 0
-342 -2157 0
-340 -490 0
-341 -491 0
-342 -492 0
-340 -1924 0
-341 -1925 0
-342 -1926 0
-343 -847 0
-344 -848 0
-345 -849 0
-343 -1312 0
-344 -1313 0
-345 -1314 0
-343 -1927 0
-344 -1928 0
-345 -1929 0
-346 -865 0
-347 -866 0
-348 -867 0
-346 -1315 0
-347 -1316 0
-348 -1317 0
-346 -1921 0
-347 -1922 0
-348 -1923 0
-349 -2455 0
-350 -2456 0
-351 -2457 0
-349 -739 0
-350 -740 0
-351 -741 0
-352 -1702 0
-353 -1703 0
-354 -1704 0
-352 -1648 0
-353 -1649 0
-354 -1650 0
-352 -562 0
-353 -563 0
-354 -564 0
-352 -430 0
-353 -431 0
-354 -432 0
-355 -1702 0
-356 -1703 0
-357 -1704 0
-355 -571 0
-356 -572 0
-357 -573 0
-355 -1648 0
-356 -1649 0
-357 -1650 0
-355 -2152 0
-356 -2153 0
-357 -2154 0
-358 -1552 0
-359 -1553 0
-360 -1554 0
-358 -1273 0
-359 -1274 0
-360 -1275 0
-361 -1750 0
-362 -1751 0
-363 -1752 0
-361 -1762 0
-362 -1763 0
-363 -1764 0
-361 -811 0
-362 -812 0
-363 -813 0
-364 -1354 0
-365 -1355 0
-366 -1356 0
-364 -619 0
-365 -620 0
-366 -621 0
-364 -367 0
-365 -368 0
-366 -369 0
-367 -622 0
-368 -623 0
-369 -624 0
-367 -745 0
-368 -746 0
-369 -747 0
-367 -793 0
-368 -794 0
-369 -795 0
-367 -796 0
-368 -797 0
-369 -798 0
-370 -622 0
-371 -623 0
-372 -624 0
-373 -748 0
-374 -749 0
-375 -750 0
-373 -799 0
-374 -800 0
-375 -801 0
-373 -802 0
-374 -803 0
-375 -804 0
-373 -400 0
-374 -401 0
-375 -402 0
-373 -622 0
-374 -623 0
-375 -624 0
-376 -823 0
-377 -824 0
-378 -825 0
-376 -751 0
-377 -752 0
-378 -753 0
-376 -754 0
-377 -755 0
-378 -756 0
-376 -805 0
-377 -806 0
-378 -807 0
-376 -397 0
-377 -398 0
-378 -399 0
-376 -622 0
-377 -623 0
-378 -624 0
-379 -820 0
-380 -821 0
-381 -822 0
-379 -622 0
-380 -623 0
-381 -624 0
-382 -1627 0
-383 -1628 0
-384 -1629 0
-382 -1252 0
-383 -1253 0
-384 -1254 0
-382 -877 0
-383 -878 0
-384 -879 0
-382 -2248 0
-383 -2249 0
-384 -2250 0
-385 -2401 0
-386 -2402 0
-387 -2403 0
-385 -2251 0
-386 -2252 0
-387 -2253 0
-385 -766 0
-386 -767 0
-387 -768 0
-385 -2266 0
-386 -2267 0
-387 -2268 0
-388 -1942 0
-389 -1943 0
-390 -1944 0
-388 -772 0
-389 -773 0
-390 -774 0
-391 -622 0
-392 -623 0
-393 -624 0
-394 -1207 0
-395 -1208 0
-396 -1209 0
-394 -1411 0
-395 -1412 0
-396 -1413 0
-394 -2290 0
-395 -2291 0
-396 -2292 0
-394 -1855 0
-395 -1856 0
-396 -1857 0
-394 -2449 0
-395 -2450 0
-396 -2451 0
-394 -2005 0
-395 -2006 0
-396 -2007 0
-394 -2011 0
-395 -2012 0
-396 -2013 0
-394 -2299 0
-395 -2300 0
-396 -2301 0
-394 -766 0
-395 -767 0
-396 -768 0
-397 -1315 0
-398 -1316 0
-399 -1317 0
-397 -649 0
-398 -650 0
-399 -651 0
-400 -1240 0
-401 -1241 0
-402 -1242 0
-400 -652 0
-401 -653 0
-402 -654 0
-403 -1210 0
-404 -1211 0
-405 -1212 0
-403 -1498 0
-404 -1499 0
-405 -1500 0
-403 -1330 0
-404 -1331 0
-405 -1332 0
-403 -1960 0
-404 -1961 0
-405 -1962 0
-403 -1525 0
-404 -1526 0
-405 -1527 0
-403 -769 0
-404 -770 0
-405 -771 0
-406 -1786 0
-407 -1787 0
-408 -1788 0
-406 -1372 0
-407 -1373 0
-408 -1374 0
-406 -1789 0
-407 -1790 0
-408 -1791 0
-406 -772 0
-407 -773 0
-408 -774 0
-409 -865 0
-410 -866 0
-411 -867 0
-409 -1966 0
-410 -1967 0
-411 -1968 0
-409 -1972 0
-410 -1973 0
-411 -1974 0
-412 -928 0
-413 -929 0
-414 -930 0
-412 -781 0
-413 -782 0
-414 -783 0
-412 -868 0
-413 -869 0
-414 -870 0
-412 -622 0
-413 -623 0
-414 -624 0
-415 -1333 0
-416 -1334 0
-417 -1335 0
-415 -2044 0
-416 -2045 0
-417 -2046 0
-415 -2026 0
-416 -2027 0
-417 -2028 0
-415 -2464 0
-416 -2465 0
-417 -2466 0
-415 -1852 0
-416 -1853 0
-417 -1854 0
-415 -418 0
-416 -419 0
-417 -420 0
-415 -2008 0
-416 -2009 0
-417 -2010 0
-415 -2458 0
-416 -2459 0
-417 -2460 0
-415 -619 0
-416 -620 0
-417 -621 0
-418 -904 0
-419 -905 0
-420 -906 0
-418 -784 0
-419 -785 0
-420 -786 0
-418 -856 0
-419 -857 0
-420 -858 0
-418 -871 0
-419 -872 0
-420 -873 0
-418 -622 0
-419 -623 0
-420 -624 0
-421 -1357 0
-422 -1358 0
-423 -1359 0
-421 -1681 0
-422 -1682 0
-423 -1683 0
-421 -865 0
-422 -866 0
-423 -867 0
-421 -2206 0
-422 -2207 0
-423 -2208 0
-421 -2032 0
-422 -2033 0
-423 -2034 0
-421 -1363 0
-422 -1364 0
-423 -1365 0
-421 -2209 0
-422 -2210 0
-423 -2211 0
-421 -1705 0
-422 -1706 0
-423 -1707 0
-421 -2188 0
-422 -2189 0
-423 -2190 0
-421 -1834 0
-422 -1835 0
-423 -1836 0
-421 -1324 0
-422 -1325 0
-423 -1326 0
-424 -2287 0
-425 -2288 0
-426 -2289 0
-424 -2188 0
-425 -2189 0
-426 -2190 0
-424 -1705 0
-425 -1706 0
-426 -1707 0
-424 -2194 0
-425 -2195 0
-426 -2196 0
-424 -2446 0
-425 -2447 0
-426 -2448 0
-424 -877 0
-425 -878 0
-426 -879 0
-424 -1765 0
-425 -1766 0
-426 -1767 0
-424 -1972 0
-425 -1973 0
-426 -1974 0
-427 -2203 0
-428 -2204 0
-429 -2205 0
-427 -1681 0
-428 -1682 0
-429 -1683 0
-427 -1975 0
-428 -1976 0
-429 -1977 0
-427 -877 0
-428 -878 0
-429 -879 0
-430 -937 0
-431 -938 0
-432 -939 0
-430 -853 0
-431 -854 0
-432 -855 0
-430 -481 0
-431 -482 0
-432 -483 0
-430 -622 0
-431 -623 0
-432 -624 0
-433 -436 0
-434 -437 0
-435 -438 0
-433 -940 0
-434 -941 0
-435 -942 0
-433 -622 0
-434 -623 0
-435 -624 0
-436 -2416 0
-437 -2417 0
-438 -2418 0
-436 -625 0
-437 -626 0
-438 -627 0
-439 -1672 0
-440 -1673 0
-441 -1674 0
-439 -847 0
-440 -848 0
-441 -849 0
-439 -1927 0
-440 -1928 0
-441 -1929 0
-442 -1207 0
-443 -1208 0
-444 -1209 0
-442 -910 0
-443 -911 0
-444 -912 0
-442 -1969 0
-443 -1970 0
-444 -1971 0
-445 -1210 0
-446 -1211 0
-447 -1212 0
-445 -1261 0
-446 -1262 0
-447 -1263 0
-445 -916 0
-446 -917 0
-447 -918 0
-448 -1939 0
-449 -1940 0
-450 -1941 0
-448 -892 0
-449 -893 0
-450 -894 0
-451 -1303 0
-452 -1304 0
-453 -1305 0
-451 -1306 0
-452 -1307 0
-453 -1308 0
-451 -1309 0
-452 -1310 0
-453 -1311 0
-454 -895 0
-455 -896 0
-456 -897 0
-454 -958 0
-455 -959 0
-456 -960 0
-454 -622 0
-455 -623 0
-456 -624 0
-457 -1666 0
-458 -1667 0
-459 -1668 0
-457 -1522 0
-458 -1523 0
-459 -1524 0
-457 -1270 0
-458 -1271 0
-459 -1272 0
-457 -910 0
-458 -911 0
-459 -912 0
-457 -1483 0
-458 -1484 0
-459 -1485 0
-457 -1531 0
-458 -1532 0
-459 -1533 0
-460 -1498 0
-461 -1499 0
-462 -1500 0
-460 -913 0
-461 -914 0
-462 -915 0
-460 -2083 0
-461 -2084 0
-462 -2085 0
-460 -1657 0
-461 -1658 0
-462 -1659 0
-463 -1483 0
-464 -1484 0
-465 -1485 0
-463 -2449 0
-464 -2450 0
-465 -2451 0
-463 -919 0
-464 -920 0
-465 -921 0
-466 -1588 0
-467 -1589 0
-468 -1590 0
-466 -916 0
-467 -917 0
-468 -918 0
-466 -1453 0
-467 -1454 0
-468 -1455 0
-466 -1657 0
-467 -1658 0
-468 -1659 0
-469 -1408 0
-470 -1409 0
-471 -1410 0
-469 -1567 0
-470 -1568 0
-471 -1569 0
-469 -1417 0
-470 -1418 0
-471 -1419 0
-472 -1339 0
-473 -1340 0
-474 -1341 0
-472 -1297 0
-473 -1298 0
-474 -1299 0
-472 -1627 0
-473 -1628 0
-474 -1629 0
-472 -877 0
-473 -878 0
-474 -879 0
-475 -523 0
-476 -524 0
-477 -525 0
-475 -1567 0
-476 -1568 0
-477 -1569 0
-475 -1945 0
-476 -1946 0
-477 -1947 0
-475 -571 0
-476 -572 0
-477 -573 0
-475 -1366 0
-476 -1367 0
-477 -1368 0
-478 -1405 0
-479 -1406 0
-480 -1407 0
-478 -841 0
-479 -842 0
-480 -843 0
-481 -673 0
-482 -674 0
-483 -675 0
-481 -1240 0
-482 -1241 0
-483 -1242 0
-481 -1690 0
-482 -1691 0
-483 -1692 0
-484 -1918 0
-485 -1919 0
-486 -1920 0
-484 -865 0
-485 -866 0
-486 -867 0
-484 -2206 0
-485 -2207 0
-486 -2208 0
-487 -898 0
-488 -899 0
-489 -900 0
-487 -622 0
-488 -623 0
-489 -624 0
-490 -496 0
-491 -497 0
-492 -498 0
-490 -622 0
-491 -623 0
-492 -624 0
-490 -901 0
-491 -902 0
-492 -903 0
-490 -718 0
-491 -719 0
-492 -720 0
-490 -586 0
-491 -587 0
-492 -588 0
-490 -964 0
-491 -965 0
-492 -966 0
-493 -499 0
-494 -500 0
-495 -501 0
-493 -1441 0
-494 -1442 0
-495 -1443 0
-493 -619 0
-494 -620 0
-495 -621 0
-493 -2191 0
-494 -2192 0
-495 -2193 0
-493 -2374 0
-494 -2375 0
-495 -2376 0
-493 -1237 0
-494 -1238 0
-495 -1239 0
-496 -1642 0
-497 -1643 0
-498 -1644 0
-496 -1708 0
-497 -1709 0
-498 -1710 0
-496 -2038 0
-497 -2039 0
-498 -2040 0
-496 -625 0
-497 -626 0
-498 -627 0
-496 -2293 0
-497 -2294 0
-498 -2295 0
-499 -883 0
-500 -884 0
-501 -885 0
-499 -757 0
-500 -758 0
-501 -759 0
-499 -622 0
-500 -623 0
-501 -624 0
-502 -733 0
-503 -734 0
-504 -735 0
-502 -886 0
-503 -887 0
-504 -888 0
-502 -970 0
-503 -971 0
-504 -972 0
-502 -622 0
-503 -623 0
-504 -624 0
-505 -2482 0
-506 -2483 0
-507 -2484 0
-505 -889 0
-506 -890 0
-507 -891 0
-508 -1408 0
-509 -1409 0
-510 -1410 0
-508 -913 0
-509 -914 0
-510 -915 0
-508 -1399 0
-509 -1400 0
-510 -1401 0
-508 -1579 0
-509 -1580 0
-510 -1581 0
-511 -1588 0
-512 -1589 0
-513 -1590 0
-511 -1567 0
-512 -1568 0
-513 -1569 0
-511 -916 0
-512 -917 0
-513 -918 0
-511 -1432 0
-512 -1433 0
-513 -1434 0
-511 -1846 0
-512 -1847 0
-513 -1848 0
-514 -1474 0
-515 -1475 0
-516 -1476 0
-514 -919 0
-515 -920 0
-516 -921 0
-514 -1486 0
-515 -1487 0
-516 -1488 0
-514 -1267 0
-515 -1268 0
-516 -1269 0
-517 -1696 0
-518 -1697 0
-519 -1698 0
-517 -916 0
-518 -917 0
-519 -918 0
-517 -1678 0
-518 -1679 0
-519 -1680 0
-517 -1654 0
-518 -1655 0
-519 -1656 0
-520 -658 0
-521 -659 0
-522 -660 0
-520 -661 0
-521 -662 0
-522 -663 0
-520 -622 0
-521 -623 0
-522 -624 0
-523 -985 0
-524 -986 0
-525 -987 0
-523 -991 0
-524 -992 0
-525 -993 0
-523 -622 0
-524 -623 0
-525 -624 0
-526 -685 0
-527 -686 0
-528 -687 0
-526 -2410 0
-527 -2411 0
-528 -2412 0
-526 -1687 0
-527 -1688 0
-528 -1689 0
-529 -1771 0
-530 -1772 0
-531 -1773 0
-529 -1213 0
-530 -1214 0
-531 -1215 0
-529 -1219 0
-530 -1220 0
-531 -1221 0
-529 -1618 0
-530 -1619 0
-531 -1620 0
-529 -2080 0
-530 -2081 0
-531 -2082 0
-529 -1501 0
-530 -1502 0
-531 -1503 0
-529 -1414 0
-530 -1415 0
-531 -1416 0
-529 -2284 0
-530 -2285 0
-531 -2286 0
-529 -1507 0
-530 -1508 0
-531 -1509 0
-529 -1744 0
-530 -1745 0
-531 -1746 0
-529 -1894 0
-530 -1895 0
-531 -1896 0
-529 -1027 0
-530 -1028 0
-531 -1029 0
-529 -1612 0
-530 -1613 0
-531 -1614 0
-529 -1615 0
-530 -1616 0
-531 -1617 0
-532 -1216 0
-533 -1217 0
-534 -1218 0
-532 -2071 0
-533 -2072 0
-534 -2073 0
-532 -1585 0
-533 -1586 0
-534 -1587 0
-532 -1606 0
-533 -1607 0
-534 -1608 0
-532 -1030 0
-533 -1031 0
-534 -1032 0
-532 -1756 0
-533 -1757 0
-534 -1758 0
-535 -1879 0
-536 -1880 0
-537 -1881 0
-535 -1456 0
-536 -1457 0
-537 -1458 0
-535 -1489 0
-536 -1490 0
-537 -1491 0
-538 -1678 0
-539 -1679 0
-540 -1680 0
-538 -1657 0
-539 -1658 0
-540 -1659 0
-538 -1444 0
-539 -1445 0
-540 -1446 0
-538 -1660 0
-539 -1661 0
-540 -1662 0
-538 -1639 0
-539 -1640 0
-540 -1641 0
-538 -2329 0
-539 -2330 0
-540 -2331 0
-541 -2218 0
-542 -2219 0
-543 -2220 0
-541 -892 0
-542 -893 0
-543 -894 0
-544 -1027 0
-545 -1028 0
-546 -1029 0
-544 -2332 0
-545 -2333 0
-546 -2334 0
-544 -1762 0
-545 -1763 0
-546 -1764 0
-547 -1771 0
-548 -1772 0
-549 -1773 0
-547 -2347 0
-548 -2348 0
-549 -2349 0
-547 -2017 0
-548 -2018 0
-549 -2019 0
-547 -1798 0
-548 -1799 0
-549 -1800 0
-547 -1783 0
-548 -1784 0
-549 -1785 0
-547 -1564 0
-548 -1565 0
-549 -1566 0
-547 -1312 0
-548 -1313 0
-549 -1314 0
-547 -1072 0
-548 -1073 0
-549 -1074 0
-547 -1381 0
-548 -1382 0
-549 -1383 0
-547 -1870 0
-548 -1871 0
-549 -1872 0
-547 -1921 0
-548 -1922 0
-549 -1923 0
-550 -2362 0
-551 -2363 0
-552 -2364 0
-550 -2026 0
-551 -2027 0
-552 -2028 0
-550 -1315 0
-551 -1316 0
-552 -1317 0
-550 -1825 0
-551 -1826 0
-552 -1827 0
-553 -1462 0
-554 -1463 0
-555 -1464 0
-553 -2416 0
-554 -2417 0
-555 -2418 0
-553 -1744 0
-554 -1745 0
-555 -1746 0
-553 -1465 0
-554 -1466 0
-555 -1467 0
-553 -1075 0
-554 -1076 0
-555 -1077 0
-556 -2344 0
-557 -2345 0
-558 -2346 0
-556 -619 0
-557 -620 0
-558 -621 0
-556 -2092 0
-557 -2093 0
-558 -2094 0
-556 -559 0
-557 -560 0
-558 -561 0
-559 -1081 0
-560 -1082 0
-561 -1083 0
-559 -973 0
-560 -974 0
-561 -975 0
-559 -622 0
-560 -623 0
-561 -624 0
-562 -994 0
-563 -995 0
-564 -996 0
-562 -622 0
-563 -623 0
-564 -624 0
-565 -1003 0
-566 -1004 0
-567 -1005 0
-565 -1675 0
-566 -1676 0
-567 -1677 0
-565 -1360 0
-566 -1361 0
-567 -1362 0
-565 -1858 0
-566 -1859 0
-567 -1860 0
-565 -1288 0
-566 -1289 0
-567 -1290 0
-568 -2269 0
-569 -2270 0
-570 -2271 0
-568 -619 0
-569 -620 0
-570 -621 0
-568 -1630 0
-569 -1631 0
-570 -1632 0
-568 -571 0
-569 -572 0
-570 -573 0
-571 -1009 0
-572 -1010 0
-573 -1011 0
-571 -817 0
-572 -818 0
-573 -819 0
-571 -976 0
-572 -977 0
-573 -978 0
-571 -622 0
-572 -623 0
-573 -624 0
-574 -1852 0
-575 -1853 0
-576 -1854 0
-574 -1513 0
-575 -1514 0
-576 -1515 0
-574 -1012 0
-575 -1013 0
-576 -1014 0
-574 -1975 0
-575 -1976 0
-576 -1977 0
-574 -1516 0
-575 -1517 0
-576 -1518 0
-574 -1729 0
-575 -1730 0
-576 -1731 0
-577 -1480 0
-578 -1481 0
-579 -1482 0
-577 -1222 0
-578 -1223 0
-579 -1224 0
-577 -1012 0
-578 -1013 0
-579 -1014 0
-577 -1471 0
-578 -1472 0
-579 -1473 0
-580 -1897 0
-581 -1898 0
-582 -1899 0
-580 -1933 0
-581 -1934 0
-582 -1935 0
-583 -1087 0
-584 -1088 0
-585 -1089 0
-583 -1243 0
-584 -1244 0
-585 -1245 0
-583 -1747 0
-584 -1748 0
-585 -1749 0
-586 -2434 0
-587 -2435 0
-588 -2436 0
-586 -2320 0
-587 -2321 0
-588 -2322 0
-589 -622 0
-590 -623 0
-591 -624 0
-589 -1036 0
-590 -1037 0
-591 -1038 0
-592 -814 0
-593 -815 0
-594 -816 0
-592 -1039 0
-593 -1040 0
-594 -1041 0
-592 -1042 0
-593 -1043 0
-594 -1044 0
-592 -622 0
-593 -623 0
-594 -624 0
-595 -1087 0
-596 -1088 0
-597 -1089 0
-595 -1303 0
-596 -1304 0
-597 -1305 0
-595 -1273 0
-596 -1274 0
-597 -1275 0
-595 -1747 0
-596 -1748 0
-597 -1749 0
-595 -2182 0
-596 -2183 0
-597 -2184 0
-595 -2185 0
-596 -2186 0
-597 -2187 0
-598 -1729 0
-599 -1730 0
-600 -1731 0
-598 -1012 0
-599 -1013 0
-600 -1014 0
-598 -1999 0
-599 -2000 0
-600 -2001 0
-601 -1363 0
-602 -1364 0
-603 -1365 0
-601 -1051 0
-602 -1052 0
-603 -1053 0
-604 -997 0
-605 -998 0
-606 -999 0
-604 -2410 0
-605 -2411 0
-606 -2412 0
-604 -1687 0
-605 -1688 0
-606 -1689 0
-607 -1996 0
-608 -1997 0
-609 -1998 0
-607 -1270 0
-608 -1271 0
-609 -1272 0
-607 -1372 0
-608 -1373 0
-609 -1374 0
-607 -1513 0
-608 -1514 0
-609 -1515 0
-607 -1012 0
-608 -1013 0
-609 -1014 0
-607 -1534 0
-608 -1535 0
-609 -1536 0
-610 -1690 0
-611 -1691 0
-612 -1692 0
-610 -1051 0
-611 -1052 0
-612 -1053 0
-610 -2488 0
-611 -2489 0
-612 -2490 0
-613 -1213 0
-614 -1214 0
-615 -1215 0
-613 -1618 0
-614 -1619 0
-615 -1620 0
-613 -2131 0
-614 -2132 0
-615 -2133 0
-613 -1735 0
-614 -1736 0
-615 -1737 0
-613 -619 0
-614 -620 0
-615 -621 0
-616 -1027 0
-617 -1028 0
-618 -1029 0
-616 -2428 0
-617 -2429 0
-618 -2430 0
-619 -1111 0
-620 -1112 0
-621 -1113 0
-619 -1120 0
-620 -1121 0
-621 -1122 0
-619 -1024 0
-620 -1025 0
-621 -1026 0
-619 -622 0
-620 -623 0
-621 -624 0
-619 -952 0
-620 -953 0
-621 -954 0
-619 -1084 0
-620 -1085 0
-621 -1086 0
-619 -859 0
-620 -860 0
-621 -861 0
-619 -1096 0
-620 -1097 0
-621 -1098 0
-619 -808 0
-620 -809 0
-621 -810 0
-619 -907 0
-620 -908 0
-621 -909 0
-619 -682 0
-620 -683 0
-621 -684 0
-622 -685 0
-623 -686 0
-624 -687 0
-622 -688 0
-623 -689 0
-624 -690 0
-622 -997 0
-623 -998 0
-624 -999 0
-622 -1003 0
-623 -1004 0
-624 -1005 0
-622 -655 0
-623 -656 0
-624 -657 0
-622 -625 0
-623 -626 0
-624 -627 0
-622 -775 0
-623 -776 0
-624 -777 0
-622 -1051 0
-623 -1052 0
-624 -1053 0
-622 -1054 0
-623 -1055 0
-624 -1056 0
-622 -1114 0
-623 -1115 0
-624 -1116 0
-622 -1012 0
-623 -1013 0
-624 -1014 0
-622 -1018 0
-623 -1019 0
-624 -1020 0
-622 -739 0
-623 -740 0
-624 -741 0
-622 -742 0
-623 -743 0
-624 -744 0
-622 -1063 0
-623 -1064 0
-624 -1065 0
-622 -1066 0
-623 -1067 0
-624 -1068 0
-622 -1069 0
-623 -1070 0
-624 -1071 0
-622 -889 0
-623 -890 0
-624 -891 0
-622 -892 0
-623 -893 0
-624 -894 0
-622 -1072 0
-623 -1073 0
-624 -1074 0
-622 -1075 0
-623 -1076 0
-624 -1077 0
-622 -1123 0
-623 -1124 0
-624 -1125 0
-622 -1027 0
-623 -1028 0
-624 -1029 0
-622 -1030 0
-623 -1031 0
-624 -1032 0
-622 -652 0
-623 -653 0
-624 -654 0
-622 -841 0
-623 -842 0
-624 -843 0
-622 -847 0
-623 -848 0
-624 -849 0
-622 -850 0
-623 -851 0
-624 -852 0
-622 -1087 0
-623 -1088 0
-624 -1089 0
-622 -865 0
-623 -866 0
-624 -867 0
-622 -877 0
-623 -878 0
-624 -879 0
-622 -1099 0
-623 -1100 0
-624 -1101 0
-622 -1102 0
-623 -1103 0
-624 -1104 0
-622 -1105 0
-623 -1106 0
-624 -1107 0
-622 -1108 0
-623 -1109 0
-624 -1110 0
-622 -811 0
-623 -812 0
-624 -813 0
-622 -670 0
-623 -671 0
-624 -672 0
-622 -673 0
-623 -674 0
-624 -675 0
-622 -910 0
-623 -911 0
-624 -912 0
-622 -913 0
-623 -914 0
-624 -915 0
-622 -916 0
-623 -917 0
-624 -918 0
-622 -919 0
-623 -920 0
-624 -921 0
-622 -766 0
-623 -767 0
-624 -768 0
-622 -649 0
-623 -650 0
-624 -651 0
-622 -769 0
-623 -770 0
-624 -771 0
-622 -772 0
-623 -773 0
-624 -774 0
-625 -1000 0
-626 -1001 0
-627 -1002 0
-625 -1006 0
-626 -1007 0
-627 -1008 0
-625 -631 0
-626 -632 0
-627 -633 0
-625 -1057 0
-626 -1058 0
-627 -1059 0
-625 -1015 0
-626 -1016 0
-627 -1017 0
-625 -1021 0
-626 -1022 0
-627 -1023 0
-625 -1126 0
-626 -1127 0
-627 -1128 0
-625 -955 0
-626 -956 0
-627 -957 0
-625 -1090 0
-626 -1091 0
-627 -1092 0
-625 -1093 0
-626 -1094 0
-627 -1095 0
-625 -862 0
-626 -863 0
-627 -864 0
-625 -880 0
-626 -881 0
-627 -882 0
-628 -1030 0
-629 -1031 0
-630 -1032 0
-628 -2485 0
-629 -2486 0
-630 -2487 0
-631 -1216 0
-632 -1217 0
-633 -1218 0
-631 -1321 0
-632 -1322 0
-633 -1323 0
-634 -1249 0
-635 -1250 0
-636 -1251 0
-634 -1684 0
-635 -1685 0
-636 -1686 0
-634 -1699 0
-635 -1700 0
-636 -1701 0
-634 -1453 0
-635 -1454 0
-636 -1455 0
-634 -1018 0
-635 -1019 0
-636 -1020 0
-637 -1411 0
-638 -1412 0
-639 -1413 0
-637 -2086 0
-638 -2087 0
-639 -2088 0
-637 -1480 0
-638 -1481 0
-639 -1482 0
-640 -1219 0
-641 -1220 0
-642 -1221 0
-640 -1774 0
-641 -1775 0
-642 -1776 0
-640 -2284 0
-641 -2285 0
-642 -2286 0
-640 -1114 0
-641 -1115 0
-642 -1116 0
-640 -1603 0
-641 -1604 0
-642 -1605 0
-643 -2047 0
-644 -2048 0
-645 -2049 0
-643 -1099 0
-644 -1100 0
-645 -1101 0
-646 -1939 0
-647 -1940 0
-648 -1941 0
-646 -1108 0
-647 -1109 0
-648 -1110 0
-646 -2425 0
-647 -2426 0
-648 -2427 0
-649 -943 0
-650 -944 0
-651 -945 0
-652 -946 0
-653 -947 0
-654 -948 0
-652 -1138 0
-653 -1139 0
-654 -1140 0
-655 -949 0
-656 -950 0
-657 -951 0
-655 -1045 0
-656 -1046 0
-657 -1047 0
-658 -766 0
-659 -767 0
-660 -768 0
-658 -2251 0
-659 -2252 0
-660 -2253 0
-658 -2437 0
-659 -2438 0
-660 -2439 0
-658 -2431 0
-659 -2432 0
-660 -2433 0
-661 -772 0
-662 -773 0
-663 -774 0
-661 -2431 0
-662 -2432 0
-663 -2433 0
-664 -1963 0
-665 -1964 0
-666 -1965 0
-664 -2128 0
-665 -2129 0
-666 -2130 0
-664 -1750 0
-665 -1751 0
-666 -1752 0
-667 -2137 0
-668 -2138 0
-669 -2139 0
-667 -1996 0
-668 -1997 0
-669 -1998 0
-670 -1048 0
-671 -1049 0
-672 -1050 0
-670 -835 0
-671 -836 0
-672 -837 0
-673 -922 0
-674 -923 0
-675 -924 0
-673 -826 0
-674 -827 0
-675 -828 0
-676 -1051 0
-677 -1052 0
-678 -1053 0
-676 -1246 0
-677 -1247 0
-678 -1248 0
-676 -1291 0
-677 -1292 0
-678 -1293 0
-679 -1051 0
-680 -1052 0
-681 -1053 0
-679 -1246 0
-680 -1247 0
-681 -1248 0
-679 -1867 0
-680 -1868 0
-681 -1869 0
-679 -1234 0
-680 -1235 0
-681 -1236 0
-682 -685 0
-683 -686 0
-684 -687 0
-682 -2008 0
-683 -2009 0
-684 -2010 0
-685 -1060 0
-686 -1061 0
-687 -1062 0
-685 -1117 0
-686 -1118 0
-687 -1119 0
-685 -925 0
-686 -926 0
-687 -927 0
-685 -832 0
-686 -833 0
-687 -834 0
-688 -829 0
-689 -830 0
-690 -831 0
-688 -790 0
-689 -791 0
-690 -792 0
-691 -1408 0
-692 -1409 0
-693 -1410 0
-691 -1945 0
-692 -1946 0
-693 -1947 0
-691 -1123 0
-692 -1124 0
-693 -1125 0
-694 -1264 0
-695 -1265 0
-696 -1266 0
-694 -1861 0
-695 -1862 0
-696 -1863 0
-694 -1123 0
-695 -1124 0
-696 -1125 0
-694 -1765 0
-695 -1766 0
-696 -1767 0
-697 -1297 0
-698 -1298 0
-699 -1299 0
-697 -1780 0
-698 -1781 0
-699 -1782 0
-697 -1459 0
-698 -1460 0
-699 -1461 0
-697 -1123 0
-698 -1124 0
-699 -1125 0
-697 -1918 0
-698 -1919 0
-699 -1920 0
-697 -1834 0
-698 -1835 0
-699 -1836 0
-697 -1402 0
-698 -1403 0
-699 -1404 0
-700 -2311 0
-701 -2312 0
-702 -2313 0
-700 -1099 0
-701 -1100 0
-702 -1101 0
-703 -1222 0
-704 -1223 0
-705 -1224 0
-703 -1969 0
-704 -1970 0
-705 -1971 0
-703 -1504 0
-704 -1505 0
-705 -1506 0
-703 -1732 0
-704 -1733 0
-705 -1734 0
-703 -1099 0
-704 -1100 0
-705 -1101 0
-703 -1282 0
-704 -1283 0
-705 -1284 0
-703 -2305 0
-704 -2306 0
-705 -2307 0
-703 -1948 0
-704 -1949 0
-705 -1950 0
-703 -1486 0
-704 -1487 0
-705 -1488 0
-706 -2020 0
-707 -2021 0
-708 -2022 0
-706 -1882 0
-707 -1883 0
-708 -1884 0
-706 -1102 0
-707 -1103 0
-708 -1104 0
-709 -2386 0
-710 -2387 0
-711 -2388 0
-709 -1966 0
-710 -1967 0
-711 -1968 0
-709 -1108 0
-710 -1109 0
-711 -1110 0
-709 -2425 0
-710 -2426 0
-711 -2427 0
-712 -1102 0
-713 -1103 0
-714 -1104 0
-712 -1234 0
-713 -1235 0
-714 -1236 0
-715 -1342 0
-716 -1343 0
-717 -1344 0
-715 -1345 0
-716 -1346 0
-717 -1347 0
-715 -1654 0
-716 -1655 0
-717 -1656 0
-715 -1261 0
-716 -1262 0
-717 -1263 0
-715 -1693 0
-716 -1694 0
-717 -1695 0
-715 -1105 0
-716 -1106 0
-717 -1107 0
-715 -1489 0
-716 -1490 0
-717 -1491 0
-718 -2389 0
-719 -2390 0
-720 -2391 0
-718 -2434 0
-719 -2435 0
-720 -2436 0
-721 -1105 0
-722 -1106 0
-723 -1107 0
-721 -1237 0
-722 -1238 0
-723 -1239 0
-724 -1213 0
-725 -1214 0
-726 -1215 0
-724 -1027 0
-725 -1028 0
-726 -1029 0
-724 -1597 0
-725 -1598 0
-726 -1599 0
-724 -1600 0
-725 -1601 0
-726 -1602 0
-727 -1300 0
-728 -1301 0
-729 -1302 0
-727 -2131 0
-728 -2132 0
-729 -2133 0
-727 -2134 0
-728 -2135 0
-729 -2136 0
-727 -1735 0
-728 -1736 0
-729 -1737 0
-727 -1279 0
-728 -1280 0
-729 -1281 0
-727 -1909 0
-728 -1910 0
-729 -1911 0
-727 -1861 0
-728 -1862 0
-729 -1863 0
-727 -1123 0
-728 -1124 0
-729 -1125 0
-727 -1864 0
-728 -1865 0
-729 -1866 0
-730 -1999 0
-731 -2000 0
-732 -2001 0
-730 -1339 0
-731 -1340 0
-732 -1341 0
-730 -1417 0
-731 -1418 0
-732 -1419 0
-730 -1432 0
-731 -1433 0
-732 -1434 0
-730 -1435 0
-731 -1436 0
-732 -1437 0
-730 -2281 0
-731 -2282 0
-732 -2283 0
-730 -1780 0
-731 -1781 0
-732 -1782 0
-730 -1306 0
-731 -1307 0
-732 -1308 0
-730 -1561 0
-731 -1562 0
-732 -1563 0
-730 -1303 0
-731 -1304 0
-732 -1305 0
-730 -1600 0
-731 -1601 0
-732 -1602 0
-730 -1123 0
-731 -1124 0
-732 -1125 0
-730 -2035 0
-731 -2036 0
-732 -2037 0
-730 -2182 0
-731 -2183 0
-732 -2184 0
-730 -1321 0
-731 -1322 0
-732 -1323 0
-730 -1399 0
-731 -1400 0
-732 -1401 0
-733 -910 0
-734 -911 0
-735 -912 0
-733 -1267 0
-734 -1268 0
-735 -1269 0
-736 -1930 0
-737 -1931 0
-738 -1932 0
-736 -1459 0
-737 -1460 0
-738 -1461 0
-736 -1123 0
-737 -1124 0
-738 -1125 0
-739 -967 0
-740 -968 0
-741 -969 0
-739 -931 0
-740 -932 0
-741 -933 0
-739 -979 0
-740 -980 0
-741 -981 0
-742 -934 0
-743 -935 0
-744 -936 0
-742 -790 0
-743 -791 0
-744 -792 0
-742 -1135 0
-743 -1136 0
-744 -1137 0
-742 -982 0
-743 -983 0
-744 -984 0
-745 -1027 0
-746 -1028 0
-747 -1029 0
-745 -1564 0
-746 -1565 0
-747 -1566 0
-745 -1870 0
-746 -1871 0
-747 -1872 0
-748 -1027 0
-749 -1028 0
-750 -1029 0
-748 -1462 0
-749 -1463 0
-750 -1464 0
-748 -1492 0
-749 -1493 0
-750 -1494 0
-751 -1027 0
-752 -1028 0
-753 -1029 0
-751 -1378 0
-752 -1379 0
-753 -1380 0
-754 -1030 0
-755 -1031 0
-756 -1032 0
-754 -2101 0
-755 -2102 0
-756 -2103 0
-754 -1315 0
-755 -1316 0
-756 -1317 0
-757 -1510 0
-758 -1511 0
-759 -1512 0
-757 -2191 0
-758 -2192 0
-759 -2193 0
-760 -1072 0
-761 -1073 0
-762 -1074 0
-760 -1252 0
-761 -1253 0
-762 -1254 0
-760 -1429 0
-761 -1430 0
-762 -1431 0
-763 -1570 0
-764 -1571 0
-765 -1572 0
-763 -1876 0
-764 -1877 0
-765 -1878 0
-763 -1450 0
-764 -1451 0
-765 -1452 0
-763 -1075 0
-764 -1076 0
-765 -1077 0
-766 -1144 0
-767 -1145 0
-768 -1146 0
-766 -829 0
-767 -830 0
-768 -831 0
-766 -1141 0
-767 -1142 0
-768 -1143 0
-769 -1147 0
-770 -1148 0
-771 -1149 0
-769 -934 0
-770 -935 0
-771 -936 0
-769 -826 0
-770 -827 0
-771 -828 0
-772 -931 0
-773 -932 0
-774 -933 0
-775 -835 0
-776 -836 0
-777 -837 0
-778 -1621 0
-779 -1622 0
-780 -1623 0
-778 -1348 0
-779 -1349 0
-780 -1350 0
-778 -1561 0
-779 -1562 0
-780 -1563 0
-781 -1030 0
-782 -1031 0
-783 -1032 0
-781 -2059 0
-782 -2060 0
-783 -2061 0
-784 -1027 0
-785 -1028 0
-786 -1029 0
-784 -2380 0
-785 -2381 0
-786 -2382 0
-784 -1564 0
-785 -1565 0
-786 -1566 0
-784 -2173 0
-785 -2174 0
-786 -2175 0
-784 -1612 0
-785 -1613 0
-786 -1614 0
-787 -1027 0
-788 -1028 0
-789 -1029 0
-787 -1501 0
-788 -1502 0
-789 -1503 0
-787 -1462 0
-788 -1463 0
-789 -1464 0
-787 -1405 0
-788 -1406 0
-789 -1407 0
-790 -1915 0
-791 -1916 0
-792 -1917 0
-790 -2017 0
-791 -2018 0
-792 -2019 0
-793 -1372 0
-794 -1373 0
-795 -1374 0
-793 -2443 0
-794 -2444 0
-795 -2445 0
-796 -1540 0
-797 -1541 0
-798 -1542 0
-796 -1222 0
-797 -1223 0
-798 -1224 0
-796 -1069 0
-797 -1070 0
-798 -1071 0
-796 -1282 0
-797 -1283 0
-798 -1284 0
-796 -2011 0
-797 -2012 0
-798 -2013 0
-796 -1471 0
-797 -1472 0
-798 -1473 0
-796 -2245 0
-797 -2246 0
-798 -2247 0
-796 -1993 0
-797 -1994 0
-798 -1995 0
-799 -1492 0
-800 -1493 0
-801 -1494 0
-799 -1330 0
-800 -1331 0
-801 -1332 0
-799 -1345 0
-800 -1346 0
-801 -1347 0
-799 -1063 0
-800 -1064 0
-801 -1065 0
-799 -1717 0
-800 -1718 0
-801 -1719 0
-799 -1654 0
-800 -1655 0
-801 -1656 0
-799 -1468 0
-800 -1469 0
-801 -1470 0
-799 -1711 0
-800 -1712 0
-801 -1713 0
-802 -1699 0
-803 -1700 0
-804 -1701 0
-802 -1066 0
-803 -1067 0
-804 -1068 0
-802 -2020 0
-803 -2021 0
-804 -2022 0
-805 -1378 0
-806 -1379 0
-807 -1380 0
-805 -1411 0
-806 -1412 0
-807 -1413 0
-805 -1282 0
-806 -1283 0
-807 -1284 0
-805 -1486 0
-806 -1487 0
-807 -1488 0
-805 -1069 0
-806 -1070 0
-807 -1071 0
-808 -1750 0
-809 -1751 0
-810 -1752 0
-808 -2071 0
-809 -2072 0
-810 -2073 0
-808 -2332 0
-809 -2333 0
-810 -2334 0
-808 -811 0
-809 -812 0
-810 -813 0
-808 -1768 0
-809 -1769 0
-810 -1770 0
-811 -967 0
-812 -968 0
-813 -969 0
-811 -1150 0
-812 -1151 0
-813 -1152 0
-811 -1033 0
-812 -1034 0
-813 -1035 0
-814 -1465 0
-815 -1466 0
-816 -1467 0
-814 -841 0
-815 -842 0
-816 -843 0
-817 -913 0
-818 -914 0
-819 -915 0
-817 -1567 0
-818 -1568 0
-819 -1569 0
-817 -1579 0
-818 -1580 0
-819 -1581 0
-820 -1792 0
-821 -1793 0
-822 -1794 0
-820 -1087 0
-821 -1088 0
-822 -1089 0
-820 -1735 0
-821 -1736 0
-822 -1737 0
-820 -1279 0
-821 -1280 0
-822 -1281 0
-823 -1099 0
-824 -1100 0
-825 -1101 0
-823 -1225 0
-824 -1226 0
-825 -1227 0
-823 -1969 0
-824 -1970 0
-825 -1971 0
-823 -1285 0
-824 -1286 0
-825 -1287 0
-826 -2326 0
-827 -2327 0
-828 -2328 0
-826 -2089 0
-827 -2090 0
-828 -2091 0
-829 -2005 0
-830 -2006 0
-831 -2007 0
-829 -2017 0
-830 -2018 0
-831 -2019 0
-829 -2056 0
-830 -2057 0
-831 -2058 0
-832 -2407 0
-833 -2408 0
-834 -2409 0
-832 -1714 0
-833 -1715 0
-834 -1716 0
-832 -1687 0
-833 -1688 0
-834 -1689 0
-835 -2407 0
-836 -2408 0
-837 -2409 0
-835 -1714 0
-836 -1715 0
-837 -1716 0
-838 -1051 0
-839 -1052 0
-840 -1053 0
-838 -2323 0
-839 -2324 0
-840 -2325 0
-838 -1702 0
-839 -1703 0
-840 -1704 0
-841 -925 0
-842 -926 0
-843 -927 0
-841 -1162 0
-842 -1163 0
-843 -1164 0
-841 -1033 0
-842 -1034 0
-843 -1035 0
-844 -1054 0
-845 -1055 0
-846 -1056 0
-844 -2419 0
-845 -2420 0
-846 -2421 0
-844 -1651 0
-845 -1652 0
-846 -1653 0
-847 -922 0
-848 -923 0
-849 -924 0
-850 -1165 0
-851 -1166 0
-852 -1167 0
-850 -1153 0
-851 -1154 0
-852 -1155 0
-853 -1384 0
-854 -1385 0
-855 -1386 0
-853 -1702 0
-854 -1703 0
-855 -1704 0
-856 -1072 0
-857 -1073 0
-858 -1074 0
-856 -2074 0
-857 -2075 0
-858 -2076 0
-856 -1972 0
-857 -1973 0
-858 -1974 0
-859 -1966 0
-860 -1967 0
-861 -1968 0
-859 -865 0
-860 -866 0
-861 -867 0
-859 -2032 0
-860 -2033 0
-861 -2034 0
-859 -2137 0
-860 -2138 0
-861 -2139 0
-859 -2104 0
-860 -2105 0
-861 -2106 0
-859 -1918 0
-860 -1919 0
-861 -1920 0
-859 -2338 0
-860 -2339 0
-861 -2340 0
-862 -1447 0
-863 -1448 0
-864 -1449 0
-862 -1570 0
-863 -1571 0
-864 -1572 0
-865 -1174 0
-866 -1175 0
-867 -1176 0
-865 -1183 0
-866 -1184 0
-867 -1185 0
-868 -2257 0
-869 -2258 0
-870 -2259 0
-868 -1075 0
-869 -1076 0
-870 -1077 0
-871 -2095 0
-872 -2096 0
-873 -2097 0
-871 -1681 0
-872 -1682 0
-873 -1683 0
-871 -1333 0
-872 -1334 0
-873 -1335 0
-871 -1336 0
-872 -1337 0
-873 -1338 0
-871 -1324 0
-872 -1325 0
-873 -1326 0
-871 -1987 0
-872 -1988 0
-873 -1989 0
-871 -1825 0
-872 -1826 0
-873 -1827 0
-871 -1255 0
-872 -1256 0
-873 -1257 0
-871 -1828 0
-872 -1829 0
-873 -1830 0
-874 -1783 0
-875 -1784 0
-876 -1785 0
-874 -2287 0
-875 -2288 0
-876 -2289 0
-874 -1072 0
-875 -1073 0
-876 -1074 0
-874 -1828 0
-875 -1829 0
-876 -1830 0
-874 -1255 0
-875 -1256 0
-876 -1257 0
-874 -1972 0
-875 -1973 0
-876 -1974 0
-877 -1078 0
-878 -1079 0
-879 -1080 0
-877 -880 0
-878 -881 0
-879 -882 0
-880 -2203 0
-881 -2204 0
-882 -2205 0
-880 -1327 0
-881 -1328 0
-882 -1329 0
-880 -1252 0
-881 -1253 0
-882 -1254 0
-880 -1264 0
-881 -1265 0
-882 -1266 0
-883 -2374 0
-884 -2375 0
-885 -2376 0
-883 -1543 0
-884 -1544 0
-885 -1545 0
-883 -2083 0
-884 -2084 0
-885 -2085 0
-883 -1717 0
-884 -1718 0
-885 -1719 0
-883 -1510 0
-884 -1511 0
-885 -1512 0
-883 -1453 0
-884 -1454 0
-885 -1455 0
-883 -1018 0
-884 -1019 0
-885 -1020 0
-883 -1990 0
-884 -1991 0
-885 -1992 0
-886 -1540 0
-887 -1541 0
-888 -1542 0
-886 -1225 0
-887 -1226 0
-888 -1227 0
-886 -2002 0
-887 -2003 0
-888 -2004 0
-886 -1270 0
-887 -1271 0
-888 -1272 0
-886 -1516 0
-887 -1517 0
-888 -1518 0
-886 -1471 0
-887 -1472 0
-888 -1473 0
-886 -1012 0
-887 -1013 0
-888 -1014 0
-889 -1156 0
-890 -1157 0
-891 -1158 0
-889 -982 0
-890 -983 0
-891 -984 0
-889 -988 0
-890 -989 0
-891 -990 0
-892 -979 0
-893 -980 0
-894 -981 0
-892 -1168 0
-893 -1169 0
-894 -1170 0
-895 -1228 0
-896 -1229 0
-897 -1230 0
-895 -2128 0
-896 -2129 0
-897 -2130 0
-898 -1030 0
-899 -1031 0
-900 -1032 0
-898 -2098 0
-899 -2099 0
-900 -2100 0
-901 -2467 0
-902 -2468 0
-903 -2469 0
-901 -1030 0
-902 -1031 0
-903 -1032 0
-901 -2389 0
-902 -2390 0
-903 -2391 0
-904 -1852 0
-905 -1853 0
-906 -1854 0
-904 -1099 0
-905 -1100 0
-906 -1101 0
-904 -2173 0
-905 -2174 0
-906 -2175 0
-904 -2074 0
-905 -2075 0
-906 -2076 0
-907 -910 0
-908 -911 0
-909 -912 0
-907 -1528 0
-908 -1529 0
-909 -1530 0
-910 -949 0
-911 -950 0
-912 -951 0
-910 -1129 0
-911 -1130 0
-912 -1131 0
-913 -1132 0
-914 -1133 0
-915 -1134 0
-916 -1180 0
-917 -1181 0
-918 -1182 0
-916 -946 0
-917 -947 0
-918 -948 0
-919 -1159 0
-920 -1160 0
-921 -1161 0
-919 -943 0
-920 -944 0
-921 -945 0
-922 -1672 0
-923 -1673 0
-924 -1674 0
-922 -1690 0
-923 -1691 0
-924 -1692 0
-925 -2254 0
-926 -2255 0
-927 -2256 0
-925 -1672 0
-926 -1673 0
-927 -1674 0
-925 -2263 0
-926 -2264 0
-927 -2265 0
-925 -1675 0
-926 -1676 0
-927 -1677 0
-928 -2413 0
-929 -2414 0
-930 -2415 0
-928 -1123 0
-929 -1124 0
-930 -1125 0
-931 -2272 0
-932 -2273 0
-933 -2274 0
-931 -2500 0
-932 -2501 0
-933 -2502 0
-934 -2116 0
-935 -2117 0
-936 -2118 0
-934 -1903 0
-935 -1904 0
-936 -1905 0
-937 -1384 0
-938 -1385 0
-939 -1386 0
-937 -1264 0
-938 -1265 0
-939 -1266 0
-937 -1123 0
-938 -1124 0
-939 -1125 0
-940 -2413 0
-941 -2414 0
-942 -2415 0
-940 -1831 0
-941 -1832 0
-942 -1833 0
-940 -2113 0
-941 -2114 0
-942 -2115 0
-940 -1123 0
-941 -1124 0
-942 -1125 0
-943 -1474 0
-944 -1475 0
-945 -1476 0
-943 -1393 0
-944 -1394 0
-945 -1395 0
-946 -1342 0
-947 -1343 0
-948 -1344 0
-946 -1678 0
-947 -1679 0
-948 -1680 0
-946 -1720 0
-947 -1721 0
-948 -1722 0
-946 -1660 0
-947 -1661 0
-948 -1662 0
-946 -1261 0
-947 -1262 0
-948 -1263 0
-946 -1846 0
-947 -1847 0
-948 -1848 0
-946 -1369 0
-947 -1370 0
-948 -1371 0
-946 -1453 0
-947 -1454 0
-948 -1455 0
-949 -1537 0
-950 -1538 0
-951 -1539 0
-949 -1225 0
-950 -1226 0
-951 -1227 0
-949 -1969 0
-950 -1970 0
-951 -1971 0
-949 -1270 0
-950 -1271 0
-951 -1272 0
-949 -1477 0
-950 -1478 0
-951 -1479 0
-949 -1528 0
-950 -1529 0
-951 -1530 0
-949 -1948 0
-950 -1949 0
-951 -1950 0
-952 -1618 0
-953 -1619 0
-954 -1620 0
-952 -1228 0
-953 -1229 0
-954 -1230 0
-952 -1546 0
-953 -1547 0
-954 -1548 0
-952 -2281 0
-953 -2282 0
-954 -2283 0
-952 -1879 0
-953 -1880 0
-954 -1881 0
-952 -1258 0
-953 -1259 0
-954 -1260 0
-952 -1558 0
-953 -1559 0
-954 -1560 0
-952 -1306 0
-953 -1307 0
-954 -1308 0
-952 -1885 0
-953 -1886 0
-954 -1887 0
-952 -2128 0
-953 -2129 0
-954 -2130 0
-952 -2464 0
-953 -2465 0
-954 -2466 0
-952 -1888 0
-953 -1889 0
-954 -1890 0
-952 -1396 0
-953 -1397 0
-954 -1398 0
-952 -2191 0
-953 -2192 0
-954 -2193 0
-952 -1759 0
-953 -1760 0
-954 -1761 0
-955 -1555 0
-956 -1556 0
-957 -1557 0
-955 -1636 0
-956 -1637 0
-957 -1638 0
-955 -1909 0
-956 -1910 0
-957 -1911 0
-955 -1753 0
-956 -1754 0
-957 -1755 0
-955 -1756 0
-956 -1757 0
-957 -1758 0
-955 -2038 0
-956 -2039 0
-957 -2040 0
-958 -1930 0
-959 -1931 0
-960 -1932 0
-958 -1561 0
-959 -1562 0
-960 -1563 0
-958 -1309 0
-959 -1310 0
-960 -1311 0
-958 -1597 0
-959 -1598 0
-960 -1599 0
-958 -1741 0
-959 -1742 0
-960 -1743 0
-958 -1123 0
-959 -1124 0
-960 -1125 0
-961 -1576 0
-962 -1577 0
-963 -1578 0
-961 -1279 0
-962 -1280 0
-963 -1281 0
-961 -1123 0
-962 -1124 0
-963 -1125 0
-961 -1831 0
-962 -1832 0
-963 -1833 0
-961 -2341 0
-962 -2342 0
-963 -2343 0
-964 -2179 0
-965 -2180 0
-966 -2181 0
-964 -2443 0
-965 -2444 0
-966 -2445 0
-964 -1108 0
-965 -1109 0
-966 -1110 0
-964 -1276 0
-965 -1277 0
-966 -1278 0
-967 -1669 0
-968 -1670 0
-969 -1671 0
-967 -1753 0
-968 -1754 0
-969 -1755 0
-967 -1768 0
-968 -1769 0
-969 -1770 0
-970 -2035 0
-971 -2036 0
-972 -2037 0
-970 -2002 0
-971 -2003 0
-972 -2004 0
-970 -1123 0
-971 -1124 0
-972 -1125 0
-973 -2467 0
-974 -2468 0
-975 -2469 0
-973 -1030 0
-974 -1031 0
-975 -1032 0
-973 -2485 0
-974 -2486 0
-975 -2487 0
-973 -2107 0
-974 -2108 0
-975 -2109 0
-976 -1030 0
-977 -1031 0
-978 -1032 0
-976 -2110 0
-977 -2111 0
-978 -2112 0
-976 -2392 0
-977 -2393 0
-978 -2394 0
-979 -2272 0
-980 -2273 0
-981 -2274 0
-979 -2461 0
-980 -2462 0
-981 -2463 0
-982 -2116 0
-983 -2117 0
-984 -2118 0
-982 -2365 0
-983 -2366 0
-984 -2367 0
-985 -1219 0
-986 -1220 0
-987 -1221 0
-985 -2185 0
-986 -2186 0
-987 -2187 0
-985 -1114 0
-986 -1115 0
-987 -1116 0
-985 -1426 0
-986 -1427 0
-987 -1428 0
-988 -2227 0
-989 -2228 0
-990 -2229 0
-988 -2365 0
-989 -2366 0
-990 -2367 0
-988 -2224 0
-989 -2225 0
-990 -2226 0
-991 -1576 0
-992 -1577 0
-993 -1578 0
-991 -1366 0
-992 -1367 0
-993 -1368 0
-991 -1123 0
-992 -1124 0
-993 -1125 0
-991 -2182 0
-992 -2183 0
-993 -2184 0
-991 -2041 0
-992 -2042 0
-993 -2043 0
-994 -2164 0
-995 -2165 0
-996 -2166 0
-994 -1981 0
-995 -1982 0
-996 -1983 0
-994 -1702 0
-995 -1703 0
-996 -1704 0
-994 -1288 0
-995 -1289 0
-996 -1290 0
-997 -1000 0
-998 -1001 0
-999 -1002 0
-997 -1048 0
-998 -1049 0
-999 -1050 0
-997 -1153 0
-998 -1154 0
-999 -1155 0
-1000 -2416 0
-1001 -2417 0
-1002 -2418 0
-1000 -1624 0
-1001 -1625 0
-1002 -1626 0
-1000 -2440 0
-1001 -2441 0
-1002 -2442 0
-1003 -1006 0
-1004 -1007 0
-1005 -1008 0
-1003 -1060 0
-1004 -1061 0
-1005 -1062 0
-1006 -1438 0
-1007 -1439 0
-1008 -1440 0
-1006 -1738 0
-1007 -1739 0
-1008 -1740 0
-1006 -1360 0
-1007 -1361 0
-1008 -1362 0
-1006 -1312 0
-1007 -1313 0
-1008 -1314 0
-1006 -2470 0
-1007 -2471 0
-1008 -2472 0
-1006 -1921 0
-1007 -1922 0
-1008 -1923 0
-1009 -2269 0
-1010 -2270 0
-1011 -2271 0
-1009 -1051 0
-1010 -1052 0
-1011 -1053 0
-1009 -1702 0
-1010 -1703 0
-1011 -1704 0
-1009 -1867 0
-1010 -1868 0
-1011 -1869 0
-1009 -1291 0
-1010 -1292 0
-1011 -1293 0
-1012 -1159 0
-1013 -1160 0
-1014 -1161 0
-1012 -1186 0
-1013 -1187 0
-1014 -1188 0
-1012 -1171 0
-1013 -1172 0
-1014 -1173 0
-1015 -1390 0
-1016 -1391 0
-1017 -1392 0
-1015 -1639 0
-1016 -1640 0
-1017 -1641 0
-1018 -1189 0
-1019 -1190 0
-1020 -1191 0
-1021 -2023 0
-1022 -2024 0
-1023 -2025 0
-1021 -1573 0
-1022 -1574 0
-1023 -1575 0
-1024 -1027 0
-1025 -1028 0
-1026 -1029 0
-1024 -1219 0
-1025 -1220 0
-1026 -1221 0
-1024 -1774 0
-1025 -1775 0
-1026 -1776 0
-1024 -1228 0
-1025 -1229 0
-1026 -1230 0
-1027 -1144 0
-1028 -1145 0
-1029 -1146 0
-1027 -1147 0
-1028 -1148 0
-1029 -1149 0
-1027 -1150 0
-1028 -1151 0
-1029 -1152 0
-1027 -1135 0
-1028 -1136 0
-1029 -1137 0
-1027 -1192 0
-1028 -1193 0
-1029 -1194 0
-1027 -1045 0
-1028 -1046 0
-1029 -1047 0
-1030 -1156 0
-1031 -1157 0
-1032 -1158 0
-1030 -1177 0
-1031 -1178 0
-1032 -1179 0
-1033 -1465 0
-1034 -1466 0
-1035 -1467 0
-1033 -1405 0
-1034 -1406 0
-1035 -1407 0
-1033 -1519 0
-1034 -1520 0
-1035 -1521 0
-1036 -1411 0
-1037 -1412 0
-1038 -1413 0
-1036 -1534 0
-1037 -1535 0
-1038 -1536 0
-1036 -1069 0
-1037 -1070 0
-1038 -1071 0
-1039 -1684 0
-1040 -1685 0
-1041 -1686 0
-1039 -1063 0
-1040 -1064 0
-1041 -1065 0
-1042 -1462 0
-1043 -1463 0
-1044 -1464 0
-1042 -1075 0
-1043 -1076 0
-1044 -1077 0
-1045 -1870 0
-1046 -1871 0
-1047 -1872 0
-1048 -2440 0
-1049 -2441 0
-1050 -2442 0
-1048 -2419 0
-1049 -2420 0
-1050 -2421 0
-1048 -1714 0
-1049 -1715 0
-1050 -1716 0
-1048 -1687 0
-1049 -1688 0
-1050 -1689 0
-1048 -1651 0
-1049 -1652 0
-1050 -1653 0
-1051 -1117 0
-1052 -1118 0
-1053 -1119 0
-1051 -1162 0
-1052 -1163 0
-1053 -1164 0
-1054 -1165 0
-1055 -1166 0
-1056 -1167 0
-1054 -1168 0
-1055 -1169 0
-1056 -1170 0
-1057 -1351 0
-1058 -1352 0
-1059 -1353 0
-1057 -2215 0
-1058 -2216 0
-1059 -2217 0
-1060 -2470 0
-1061 -2471 0
-1062 -2472 0
-1060 -1867 0
-1061 -1868 0
-1062 -1869 0
-1060 -1714 0
-1061 -1715 0
-1062 -1716 0
-1066 -1180 0
-1067 -1181 0
-1068 -1182 0
-1078 -2287 0
-1079 -2288 0
-1080 -2289 0
-1078 -2239 0
-1079 -2240 0
-1080 -2241 0
-1081 -1123 0
-1082 -1124 0
-1083 -1125 0
-1081 -2113 0
-1082 -2114 0
-1083 -2115 0
-1081 -2041 0
-1082 -2042 0
-1083 -2043 0
-1084 -1294 0
-1085 -1295 0
-1086 -1296 0
-1084 -1087 0
-1085 -1088 0
-1086 -1089 0
-1084 -1609 0
-1085 -1610 0
-1086 -1611 0
-1084 -2182 0
-1085 -2183 0
-1086 -2184 0
-1087 -1093 0
-1088 -1094 0
-1089 -1095 0
-1090 -1348 0
-1091 -1349 0
-1092 -1350 0
-1090 -1624 0
-1091 -1625 0
-1092 -1626 0
-1090 -1438 0
-1091 -1439 0
-1092 -1440 0
-1090 -2134 0
-1091 -2135 0
-1092 -2136 0
-1090 -1642 0
-1091 -1643 0
-1092 -1644 0
-1093 -1708 0
-1094 -1709 0
-1095 -1710 0
-1096 -1852 0
-1097 -1853 0
-1098 -1854 0
-1096 -1975 0
-1097 -1976 0
-1098 -1977 0
-1096 -1099 0
-1097 -1100 0
-1098 -1101 0
-1096 -1546 0
-1097 -1547 0
-1098 -1548 0
-1096 -1504 0
-1097 -1505 0
-1098 -1506 0
-1108 -1174 0
-1109 -1175 0
-1110 -1176 0
-1111 -1585 0
-1112 -1586 0
-1113 -1587 0
-1111 -1741 0
-1112 -1742 0
-1113 -1743 0
-1117 -1690 0
-1118 -1691 0
-1119 -1692 0
-1117 -1318 0
-1118 -1319 0
-1119 -1320 0
-1120 -1558 0
-1121 -1559 0
-1122 -1560 0
-1120 -1600 0
-1121 -1601 0
-1122 -1602 0
-1120 -1123 0
-1121 -1124 0
-1122 -1125 0
-1120 -1606 0
-1121 -1607 0
-1122 -1608 0
-1123 -1183 0
-1124 -1184 0
-1125 -1185 0
-1123 -1126 0
-1124 -1127 0
-1125 -1128 0
-1123 -1138 0
-1124 -1139 0
-1125 -1140 0
-1123 -1195 0
-1124 -1196 0
-1125 -1197 0
-1123 -1198 0
-1124 -1199 0
-1125 -1200 0
-1123 -1201 0
-1124 -1202 0
-1125 -1203 0
-1126 -1303 0
-1127 -1304 0
-1128 -1305 0
-1126 -1300 0
-1127 -1301 0
-1128 -1302 0
-1129 -2452 0
-1130 -2453 0
-1131 -2454 0
-1129 -1948 0
-1130 -1949 0
-1131 -1950 0
-1132 -1882 0
-1133 -1883 0
-1134 -1884 0
-1132 -2083 0
-1133 -2084 0
-1134 -2085 0
-1135 -1774 0
-1136 -1775 0
-1137 -1776 0
-1135 -1294 0
-1136 -1295 0
-1137 -1296 0
-1135 -2284 0
-1136 -2285 0
-1137 -2286 0
-1135 -1903 0
-1136 -1904 0
-1137 -1905 0
-1138 -1720 0
-1139 -1721 0
-1140 -1722 0
-1138 -1408 0
-1139 -1409 0
-1140 -1410 0
-1141 -1795 0
-1142 -1796 0
-1143 -1797 0
-1141 -1411 0
-1142 -1412 0
-1143 -1413 0
-1141 -2401 0
-1142 -2402 0
-1143 -2403 0
-1141 -1483 0
-1142 -1484 0
-1143 -1485 0
-1144 -1615 0
-1145 -1616 0
-1146 -1617 0
-1144 -2437 0
-1145 -2438 0
-1146 -2439 0
-1144 -2056 0
-1145 -2057 0
-1146 -2058 0
-1147 -1525 0
-1148 -1526 0
-1149 -1527 0
-1147 -2422 0
-1148 -2423 0
-1149 -2424 0
-1147 -1903 0
-1148 -1904 0
-1149 -1905 0
-1147 -2089 0
-1148 -2090 0
-1149 -2091 0
-1150 -1348 0
-1151 -1349 0
-1152 -1350 0
-1150 -1762 0
-1151 -1763 0
-1152 -1764 0
-1153 -2419 0
-1154 -2420 0
-1155 -2421 0
-1156 -2227 0
-1157 -2228 0
-1158 -2229 0
-1156 -2392 0
-1157 -2393 0
-1158 -2394 0
-1159 -2452 0
-1160 -2453 0
-1161 -2454 0
-1162 -1723 0
-1163 -1724 0
-1164 -1725 0
-1162 -2053 0
-1163 -2054 0
-1164 -2055 0
-1165 -1723 0
-1166 -1724 0
-1167 -1725 0
-1168 -1723 0
-1169 -1724 0
-1170 -1725 0
-1171 -1852 0
-1172 -1853 0
-1173 -1854 0
-1171 -2074 0
-1172 -2075 0
-1173 -2076 0
-1171 -1888 0
-1172 -1889 0
-1173 -1890 0
-1174 -2386 0
-1175 -2387 0
-1176 -2388 0
-1174 -1708 0
-1175 -1709 0
-1176 -1710 0
-1177 -1609 0
-1178 -1610 0
-1179 -1611 0
-1177 -1555 0
-1178 -1556 0
-1179 -1557 0
-1177 -1606 0
-1178 -1607 0
-1179 -1608 0
-1180 -1318 0
-1181 -1319 0
-1182 -1320 0
-1183 -1834 0
-1184 -1835 0
-1185 -1836 0
-1183 -2176 0
-1184 -2177 0
-1185 -2178 0
-1186 -1393 0
-1187 -1394 0
-1188 -1395 0
-1186 -1540 0
-1187 -1541 0
-1188 -1542 0
-1186 -1222 0
-1187 -1223 0
-1188 -1224 0
-1186 -2305 0
-1187 -2306 0
-1188 -2307 0
-1186 -1534 0
-1187 -1535 0
-1188 -1536 0
-1189 -1717 0
-1190 -1718 0
-1191 -1719 0
-1189 -1654 0
-1190 -1655 0
-1191 -1656 0
-1192 -1618 0
-1193 -1619 0
-1194 -1620 0
-1192 -1558 0
-1193 -1559 0
-1194 -1560 0
-1195 -1735 0
-1196 -1736 0
-1197 -1737 0
-1195 -1768 0
-1196 -1769 0
-1197 -1770 0
-1198 -1384 0
-1199 -1385 0
-1200 -1386 0
-1198 -2176 0
-1199 -2177 0
-1200 -2178 0
-1198 -2341 0
-1199 -2342 0
-1200 -2343 0
-1201 -1228 0
-1202 -1229 0
-1203 -1230 0
-1201 -2281 0
-1202 -2282 0
-1203 -2283 0
-1201 -1555 0
-1202 -1556 0
-1203 -1557 0
-1201 -1909 0
-1202 -1910 0
-1203 -1911 0
-1201 -1402 0
-1202 -1403 0
-1203 -1404 0
-1204 -2368 0
-1205 -2369 0
-1206 -2370 0
-1213 -1813 0
-1214 -1814 0
-1215 -1815 0
-1216 -1816 0
-1217 -1817 0
-1218 -1818 0
-1231 -1804 0
-1232 -1805 0
-1233 -1806 0
-1231 -1645 0
-1232 -1646 0
-1233 -1647 0
-1231 -2491 0
-1232 -2492 0
-1233 -2493 0
-1231 -1801 0
-1232 -1802 0
-1233 -1803 0
-1234 -2395 0
-1235 -2396 0
-1236 -2397 0
-1237 -1390 0
-1238 -1391 0
-1239 -1392 0
-1237 -1639 0
-1238 -1640 0
-1239 -1641 0
-1240 -2278 0
-1241 -2279 0
-1242 -2280 0
-1243 -1813 0
-1244 -1814 0
-1245 -1815 0
-1243 -1819 0
-1244 -1820 0
-1245 -1821 0
-1246 -2395 0
-1247 -2396 0
-1248 -2397 0
-1249 -2314 0
-1250 -2315 0
-1251 -2316 0
-1252 -1396 0
-1253 -1397 0
-1254 -1398 0
-1252 -1885 0
-1253 -1886 0
-1254 -1887 0
-1255 -2062 0
-1256 -2063 0
-1257 -2064 0
-1258 -1498 0
-1259 -1499 0
-1260 -1500 0
-1258 -2449 0
-1259 -2450 0
-1260 -2451 0
-1258 -2494 0
-1259 -2495 0
-1260 -2496 0
-1258 -2299 0
-1259 -2300 0
-1260 -2301 0
-1261 -2050 0
-1262 -2051 0
-1263 -2052 0
-1264 -1336 0
-1265 -1337 0
-1266 -1338 0
-1267 -1954 0
-1268 -1955 0
-1269 -1956 0
-1267 -1549 0
-1268 -1550 0
-1269 -1551 0
-1270 -1771 0
-1271 -1772 0
-1272 -1773 0
-1270 -1429 0
-1271 -1430 0
-1272 -1431 0
-1270 -2200 0
-1271 -2201 0
-1272 -2202 0
-1270 -1414 0
-1271 -1415 0
-1272 -1416 0
-1273 -2494 0
-1274 -2495 0
-1275 -2496 0
-1273 -2497 0
-1274 -2498 0
-1275 -2499 0
-1276 -2200 0
-1277 -2201 0
-1278 -2202 0
-1279 -1375 0
-1280 -1376 0
-1281 -1377 0
-1282 -1327 0
-1283 -1328 0
-1284 -1329 0
-1282 -1339 0
-1283 -1340 0
-1284 -1341 0
-1282 -1321 0
-1283 -1322 0
-1284 -1323 0
-1288 -1906 0
-1289 -1907 0
-1290 -1908 0
-1288 -1333 0
-1289 -1334 0
-1290 -1335 0
-1288 -2044 0
-1289 -2045 0
-1290 -2046 0
-1288 -1873 0
-1289 -1874 0
-1290 -1875 0
-1288 -2032 0
-1289 -2033 0
-1290 -2034 0
-1288 -1324 0
-1289 -1325 0
-1290 -1326 0
-1288 -2338 0
-1289 -2339 0
-1290 -2340 0
-1291 -2287 0
-1292 -2288 0
-1293 -2289 0
-1294 -1813 0
-1295 -1814 0
-1296 -1815 0
-1297 -1378 0
-1298 -1379 0
-1299 -1380 0
-1300 -1807 0
-1301 -1808 0
-1302 -1809 0
-1300 -1843 0
-1301 -1844 0
-1302 -1845 0
-1306 -1645 0
-1307 -1646 0
-1308 -1647 0
-1306 -1801 0
-1307 -1802 0
-1308 -1803 0
-1309 -1951 0
-1310 -1952 0
-1311 -1953 0
-1312 -1357 0
-1313 -1358 0
-1314 -1359 0
-1312 -1363 0
-1313 -1364 0
-1314 -1365 0
-1315 -2068 0
-1316 -2069 0
-1317 -2070 0
-1315 -2065 0
-1316 -2066 0
-1317 -2067 0
-1318 -2278 0
-1319 -2279 0
-1320 -2280 0
-1321 -1345 0
-1322 -1346 0
-1323 -1347 0
-1321 -2212 0
-1322 -2213 0
-1323 -2214 0
-1324 -1360 0
-1325 -1361 0
-1326 -1362 0
-1324 -2062 0
-1325 -2063 0
-1326 -2064 0
-1324 -1351 0
-1325 -1352 0
-1326 -1353 0
-1327 -1354 0
-1328 -1355 0
-1329 -1356 0
-1327 -1504 0
-1328 -1505 0
-1329 -1506 0
-1330 -2182 0
-1331 -2183 0
-1332 -2184 0
-1330 -1366 0
-1331 -1367 0
-1332 -1368 0
-1330 -1630 0
-1331 -1631 0
-1332 -1632 0
-1336 -1384 0
-1337 -1385 0
-1338 -1386 0
-1336 -1351 0
-1337 -1352 0
-1338 -1353 0
-1339 -1378 0
-1340 -1379 0
-1341 -1380 0
-1342 -1438 0
-1343 -1439 0
-1344 -1440 0
-1342 -1348 0
-1343 -1349 0
-1344 -1350 0
-1345 -1447 0
-1346 -1448 0
-1347 -1449 0
-1345 -1417 0
-1346 -1418 0
-1347 -1419 0
-1348 -1732 0
-1349 -1733 0
-1350 -1734 0
-1348 -1477 0
-1349 -1478 0
-1350 -1479 0
-1348 -1948 0
-1349 -1949 0
-1350 -1950 0
-1348 -1951 0
-1349 -1952 0
-1350 -1953 0
-1351 -2209 0
-1352 -2210 0
-1353 -2211 0
-1354 -1420 0
-1355 -1421 0
-1356 -1422 0
-1357 -1360 0
-1358 -1361 0
-1359 -1362 0
-1357 -1927 0
-1358 -1928 0
-1359 -1929 0
-1360 -1987 0
-1361 -1988 0
-1362 -1989 0
-1363 -1381 0
-1364 -1382 0
-1365 -1383 0
-1366 -1525 0
-1367 -1526 0
-1368 -1527 0
-1366 -1492 0
-1367 -1493 0
-1368 -1494 0
-1369 -1438 0
-1370 -1439 0
-1371 -1440 0
-1369 -1450 0
-1370 -1451 0
-1371 -1452 0
-1372 -1861 0
-1373 -1862 0
-1374 -1863 0
-1372 -1909 0
-1373 -1910 0
-1374 -1911 0
-1375 -1792 0
-1376 -1793 0
-1377 -1794 0
-1375 -1831 0
-1376 -1832 0
-1377 -1833 0
-1378 -1402 0
-1379 -1403 0
-1380 -1404 0
-1378 -1435 0
-1379 -1436 0
-1380 -1437 0
-1384 -1828 0
-1385 -1829 0
-1386 -1830 0
-1387 -1732 0
-1388 -1733 0
-1389 -1734 0
-1390 -1510 0
-1391 -1511 0
-1392 -1512 0
-1393 -2317 0
-1394 -2318 0
-1395 -2319 0
-1396 -2290 0
-1397 -2291 0
-1398 -2292 0
-1396 -2248 0
-1397 -2249 0
-1398 -2250 0
-1399 -1711 0
-1400 -1712 0
-1401 -1713 0
-1402 -1411 0
-1403 -1412 0
-1404 -1413 0
-1405 -1444 0
-1406 -1445 0
-1407 -1446 0
-1408 -1507 0
-1409 -1508 0
-1410 -1509 0
-1411 -1954 0
-1412 -1955 0
-1413 -1956 0
-1411 -1780 0
-1412 -1781 0
-1413 -1782 0
-1411 -2281 0
-1412 -2282 0
-1413 -2283 0
-1411 -2170 0
-1412 -2171 0
-1413 -2172 0
-1411 -1549 0
-1412 -1550 0
-1413 -1551 0
-1414 -1495 0
-1415 -1496 0
-1416 -1497 0
-1414 -1645 0
-1415 -1646 0
-1416 -1647 0
-1414 -1513 0
-1415 -1514 0
-1416 -1515 0
-1414 -2233 0
-1415 -2234 0
-1416 -2235 0
-1414 -1516 0
-1415 -1517 0
-1416 -1518 0
-1414 -1453 0
-1415 -1454 0
-1416 -1455 0
-1414 -1951 0
-1415 -1952 0
-1416 -1953 0
-1417 -1492 0
-1418 -1493 0
-1419 -1494 0
-1420 -2245 0
-1421 -2246 0
-1422 -2247 0
-1423 -1456 0
-1424 -1457 0
-1425 -1458 0
-1423 -1693 0
-1424 -1694 0
-1425 -1695 0
-1426 -2014 0
-1427 -2015 0
-1428 -2016 0
-1429 -1537 0
-1430 -1538 0
-1431 -1539 0
-1429 -1522 0
-1430 -1523 0
-1431 -1524 0
-1432 -1462 0
-1433 -1463 0
-1434 -1464 0
-1432 -1465 0
-1433 -1466 0
-1434 -1467 0
-1432 -1492 0
-1433 -1493 0
-1434 -1494 0
-1435 -1993 0
-1436 -1994 0
-1437 -1995 0
-1438 -1489 0
-1439 -1490 0
-1440 -1491 0
-1441 -1447 0
-1442 -1448 0
-1443 -1449 0
-1441 -1570 0
-1442 -1571 0
-1443 -1572 0
-1441 -1876 0
-1442 -1877 0
-1443 -1878 0
-1444 -1501 0
-1445 -1502 0
-1446 -1503 0
-1444 -1519 0
-1445 -1520 0
-1446 -1521 0
-1447 -1693 0
-1448 -1694 0
-1449 -1695 0
-1450 -1510 0
-1451 -1511 0
-1452 -1512 0
-1450 -1453 0
-1451 -1454 0
-1452 -1455 0
-1453 -1744 0
-1454 -1745 0
-1455 -1746 0
-1453 -1876 0
-1454 -1877 0
-1455 -1878 0
-1456 -1960 0
-1457 -1961 0
-1458 -1962 0
-1459 -1855 0
-1460 -1856 0
-1461 -1857 0
-1459 -1615 0
-1460 -1616 0
-1461 -1617 0
-1462 -1588 0
-1463 -1589 0
-1464 -1590 0
-1465 -1720 0
-1466 -1721 0
-1467 -1722 0
-1465 -1846 0
-1466 -1847 0
-1467 -1848 0
-1468 -1567 0
-1469 -1568 0
-1470 -1569 0
-1468 -1579 0
-1469 -1580 0
-1470 -1581 0
-1471 -2200 0
-1472 -2201 0
-1473 -2202 0
-1474 -2140 0
-1475 -2141 0
-1476 -2142 0
-1477 -1591 0
-1478 -1592 0
-1479 -1593 0
-1480 -2170 0
-1481 -2171 0
-1482 -2172 0
-1483 -1618 0
-1484 -1619 0
-1485 -1620 0
-1483 -1612 0
-1484 -1613 0
-1485 -1614 0
-1483 -1549 0
-1484 -1550 0
-1485 -1551 0
-1483 -2464 0
-1484 -2465 0
-1485 -2466 0
-1486 -1954 0
-1487 -1955 0
-1488 -1956 0
-1489 -1738 0
-1490 -1739 0
-1491 -1740 0
-1492 -1567 0
-1493 -1568 0
-1494 -1569 0
-1495 -1591 0
-1496 -1592 0
-1497 -1593 0
-1498 -2296 0
-1499 -2297 0
-1500 -2298 0
-1501 -1588 0
-1502 -1589 0
-1503 -1590 0
-1501 -1657 0
-1502 -1658 0
-1503 -1659 0
-1504 -1621 0
-1505 -1622 0
-1506 -1623 0
-1504 -1582 0
-1505 -1583 0
-1506 -1584 0
-1507 -1567 0
-1508 -1568 0
-1509 -1569 0
-1507 -1720 0
-1508 -1721 0
-1509 -1722 0
-1513 -1582 0
-1514 -1583 0
-1515 -1584 0
-1513 -1615 0
-1514 -1616 0
-1515 -1617 0
-1516 -1573 0
-1517 -1574 0
-1518 -1575 0
-1519 -1660 0
-1520 -1661 0
-1521 -1662 0
-1519 -1846 0
-1520 -1847 0
-1521 -1848 0
-1522 -2260 0
-1523 -2261 0
-1524 -2262 0
-1525 -1945 0
-1526 -1946 0
-1527 -1947 0
-1528 -1621 0
-1529 -1622 0
-1530 -1623 0
-1531 -1771 0
-1532 -1772 0
-1533 -1773 0
-1531 -1564 0
-1532 -1565 0
-1533 -1566 0
-1534 -2140 0
-1535 -2141 0
-1536 -2142 0
-1534 -2170 0
-1535 -2171 0
-1536 -2172 0
-1537 -1624 0
-1538 -1625 0
-1539 -1626 0
-1540 -1576 0
-1541 -1577 0
-1542 -1578 0
-1543 -1744 0
-1544 -1745 0
-1545 -1746 0
-1543 -2089 0
-1544 -2090 0
-1545 -2091 0
-1543 -1903 0
-1544 -1904 0
-1545 -1905 0
-1546 -2302 0
-1547 -2303 0
-1548 -2304 0
-1552 -2398 0
-1553 -2399 0
-1554 -2400 0
-1555 -1822 0
-1556 -1823 0
-1557 -1824 0
-1558 -2197 0
-1559 -2198 0
-1560 -2199 0
-1561 -2197 0
-1562 -2198 0
-1563 -2199 0
-1564 -1666 0
-1565 -1667 0
-1566 -1668 0
-1570 -1879 0
-1571 -1880 0
-1572 -1881 0
-1570 -2191 0
-1571 -2192 0
-1572 -2193 0
-1573 -1852 0
-1574 -1853 0
-1575 -1854 0
-1576 -1717 0
-1577 -1718 0
-1578 -1719 0
-1576 -1810 0
-1577 -1811 0
-1578 -1812 0
-1576 -1813 0
-1577 -1814 0
-1578 -1815 0
-1576 -1819 0
-1577 -1820 0
-1578 -1821 0
-1576 -2245 0
-1577 -2246 0
-1578 -2247 0
-1579 -1711 0
-1580 -1712 0
-1581 -1713 0
-1582 -1852 0
-1583 -1853 0
-1584 -1854 0
-1582 -1849 0
-1583 -1850 0
-1584 -1851 0
-1585 -1804 0
-1586 -1805 0
-1587 -1806 0
-1585 -1816 0
-1586 -1817 0
-1587 -1818 0
-1585 -1822 0
-1586 -1823 0
-1587 -1824 0
-1594 -2167 0
-1595 -2168 0
-1596 -2169 0
-1597 -1816 0
-1598 -1817 0
-1599 -1818 0
-1600 -1645 0
-1601 -1646 0
-1602 -1647 0
-1603 -1807 0
-1604 -1808 0
-1605 -1809 0
-1603 -1810 0
-1604 -1811 0
-1605 -1812 0
-1606 -2242 0
-1607 -2243 0
-1608 -2244 0
-1606 -1843 0
-1607 -1844 0
-1608 -1845 0
-1606 -1936 0
-1607 -1937 0
-1608 -1938 0
-1609 -1819 0
-1610 -1820 0
-1611 -1821 0
-1612 -1666 0
-1613 -1667 0
-1614 -1668 0
-1612 -2401 0
-1613 -2402 0
-1614 -2403 0
-1618 -1645 0
-1619 -1646 0
-1620 -1647 0
-1618 -2248 0
-1619 -2249 0
-1620 -2250 0
-1618 -1657 0
-1619 -1658 0
-1620 -1659 0
-1621 -1948 0
-1622 -1949 0
-1623 -1950 0
-1624 -1948 0
-1625 -1949 0
-1626 -1950 0
-1627 -1891 0
-1628 -1892 0
-1629 -1893 0
-1627 -2356 0
-1628 -2357 0
-1629 -2358 0
-1627 -1894 0
-1628 -1895 0
-1629 -1896 0
-1627 -1924 0
-1628 -1925 0
-1629 -1926 0
-1633 -1930 0
-1634 -1931 0
-1635 -1932 0
-1633 -1741 0
-1634 -1742 0
-1635 -1743 0
-1633 -1777 0
-1634 -1778 0
-1635 -1779 0
-1636 -2125 0
-1637 -2126 0
-1638 -2127 0
-1639 -2191 0
-1640 -2192 0
-1641 -2193 0
-1639 -1759 0
-1640 -1760 0
-1641 -1761 0
-1642 -1786 0
-1643 -1787 0
-1644 -1788 0
-1645 -2098 0
-1646 -2099 0
-1647 -2100 0
-1645 -2107 0
-1646 -2108 0
-1647 -2109 0
-1645 -2110 0
-1646 -2111 0
-1647 -2112 0
-1657 -2296 0
-1658 -2297 0
-1659 -2298 0
-1657 -1759 0
-1658 -1760 0
-1659 -1761 0
-1660 -2050 0
-1661 -2051 0
-1662 -2052 0
-1669 -1804 0
-1670 -1805 0
-1671 -1806 0
-1669 -1801 0
-1670 -1802 0
-1671 -1803 0
-1672 -1906 0
-1673 -1907 0
-1674 -1908 0
-1672 -1765 0
-1673 -1766 0
-1674 -1767 0
-1672 -2158 0
-1673 -2159 0
-1674 -2160 0
-1672 -2188 0
-1673 -2189 0
-1674 -2190 0
-1672 -1834 0
-1673 -1835 0
-1674 -1836 0
-1675 -2158 0
-1676 -2159 0
-1677 -2160 0
-1684 -2296 0
-1685 -2297 0
-1686 -2298 0
-1690 -2278 0
-1691 -2279 0
-1692 -2280 0
-1696 -2308 0
-1697 -2309 0
-1698 -2310 0
-1699 -2314 0
-1700 -2315 0
-1701 -2316 0
-1699 -1909 0
-1700 -1910 0
-1701 -1911 0
-1699 -2308 0
-1700 -2309 0
-1701 -2310 0
-1702 -1798 0
-1703 -1799 0
-1704 -1800 0
-1702 -1783 0
-1703 -1784 0
-1704 -1785 0
-1702 -1873 0
-1703 -1874 0
-1704 -1875 0
-1702 -1825 0
-1703 -1826 0
-1704 -1827 0
-1702 -1828 0
-1703 -1829 0
-1704 -1830 0
-1705 -2065 0
-1706 -2066 0
-1707 -2067 0
-1711 -2341 0
-1712 -2342 0
-1713 -2343 0
-1714 -1936 0
-1715 -1937 0
-1716 -1938 0
-1714 -2242 0
-1715 -2243 0
-1716 -2244 0
-1714 -2167 0
-1715 -2168 0
-1716 -2169 0
-1717 -2341 0
-1718 -2342 0
-1719 -2343 0
-1717 -2215 0
-1718 -2216 0
-1719 -2217 0
-1720 -1744 0
-1721 -1745 0
-1722 -1746 0
-1723 -1807 0
-1724 -1808 0
-1725 -1809 0
-1723 -1810 0
-1724 -1811 0
-1725 -1812 0
-1723 -1843 0
-1724 -1844 0
-1725 -1845 0
-1726 -2296 0
-1727 -2297 0
-1728 -2298 0
-1729 -1795 0
-1730 -1796 0
-1731 -1797 0
-1741 -2398 0
-1742 -2399 0
-1743 -2400 0
-1741 -1816 0
-1742 -1817 0
-1743 -1818 0
-1747 -2494 0
-1748 -2495 0
-1749 -2496 0
-1750 -1822 0
-1751 -1823 0
-1752 -1824 0
-1753 -1900 0
-1754 -1901 0
-1755 -1902 0
-1753 -1822 0
-1754 -1823 0
-1755 -1824 0
-1756 -2497 0
-1757 -2498 0
-1758 -2499 0
-1756 -1936 0
-1757 -1937 0
-1758 -1938 0
-1762 -2212 0
-1763 -2213 0
-1764 -2214 0
-1768 -1804 0
-1769 -1805 0
-1770 -1806 0
-1771 -2002 0
-1772 -2003 0
-1773 -2004 0
-1774 -1810 0
-1775 -1811 0
-1776 -1812 0
-1774 -1813 0
-1775 -1814 0
-1776 -1815 0
-1780 -1795 0
-1781 -1796 0
-1782 -1797 0
-1780 -1855 0
-1781 -1856 0
-1782 -1857 0
-1783 -2164 0
-1784 -2165 0
-1785 -2166 0
-1786 -2155 0
-1787 -2156 0
-1788 -2157 0
-1786 -1939 0
-1787 -1940 0
-1788 -1941 0
-1786 -1864 0
-1787 -1865 0
-1788 -1866 0
-1786 -2134 0
-1787 -2135 0
-1788 -2136 0
-1789 -2155 0
-1790 -2156 0
-1791 -2157 0
-1789 -2029 0
-1790 -2030 0
-1791 -2031 0
-1789 -1861 0
-1790 -1862 0
-1791 -1863 0
-1795 -1999 0
-1796 -2000 0
-1797 -2001 0
-1798 -2068 0
-1799 -2069 0
-1800 -2070 0
-1801 -1837 0
-1802 -1838 0
-1803 -1839 0
-1801 -1840 0
-1802 -1841 0
-1803 -1842 0
-1807 -2053 0
-1808 -2054 0
-1809 -2055 0
-1819 -2182 0
-1820 -2183 0
-1821 -2184 0
-1825 -2068 0
-1826 -2069 0
-1827 -2070 0
-1825 -1981 0
-1826 -1982 0
-1827 -1983 0
-1825 -2323 0
-1826 -2324 0
-1827 -2325 0
-1825 -2152 0
-1826 -2153 0
-1827 -2154 0
-1834 -1984 0
-1835 -1985 0
-1836 -1986 0
-1834 -2263 0
-1835 -2264 0
-1836 -2265 0
-1834 -2503 0
-1835 -2504 0
-1836 -2505 0
-1837 -2119 0
-1838 -2120 0
-1839 -2121 0
-1837 -2122 0
-1838 -2123 0
-1839 -2124 0
-1837 -2491 0
-1838 -2492 0
-1839 -2493 0
-1840 -2122 0
-1841 -2123 0
-1842 -2124 0
-1843 -2218 0
-1844 -2219 0
-1845 -2220 0
-1843 -1909 0
-1844 -1910 0
-1845 -1911 0
-1849 -2290 0
-1850 -2291 0
-1851 -2292 0
-1858 -2158 0
-1859 -2159 0
-1860 -2160 0
-1864 -1996 0
-1865 -1997 0
-1866 -1998 0
-1867 -1906 0
-1868 -1907 0
-1869 -1908 0
-1867 -1873 0
-1868 -1874 0
-1869 -1875 0
-1870 -2065 0
-1871 -2066 0
-1872 -2067 0
-1876 -2374 0
-1877 -2375 0
-1878 -2376 0
-1879 -1960 0
-1880 -1961 0
-1881 -1962 0
-1882 -2314 0
-1883 -2315 0
-1884 -2316 0
-1885 -2023 0
-1886 -2024 0
-1887 -2025 0
-1885 -2086 0
-1886 -2087 0
-1887 -2088 0
-1888 -2299 0
-1889 -2300 0
-1890 -2301 0
-1894 -2248 0
-1895 -2249 0
-1896 -2250 0
-1897 -2260 0
-1898 -2261 0
-1899 -2262 0
-1900 -1933 0
-1901 -1934 0
-1902 -1935 0
-1900 -2239 0
-1901 -2240 0
-1902 -2241 0
-1903 -1990 0
-1904 -1991 0
-1905 -1992 0
-1906 -2488 0
-1907 -2489 0
-1908 -2490 0
-1909 -1996 0
-1910 -1997 0
-1911 -1998 0
-1909 -1936 0
-1910 -1937 0
-1911 -1938 0
-1909 -2125 0
-1910 -2126 0
-1911 -2127 0
-1909 -2014 0
-1910 -2015 0
-1911 -2016 0
-1912 -2119 0
-1913 -2120 0
-1914 -2121 0
-1918 -1984 0
-1919 -1985 0
-1920 -1986 0
-1927 -2188 0
-1928 -2189 0
-1929 -2190 0
-1933 -2260 0
-1934 -2261 0
-1935 -2262 0
-1936 -2077 0
-1937 -2078 0
-1938 -2079 0
-1936 -2131 0
-1937 -2132 0
-1938 -2133 0
-1942 -2368 0
-1943 -2369 0
-1944 -2370 0
-1954 -2179 0
-1955 -2180 0
-1956 -2181 0
-1954 -2011 0
-1955 -2012 0
-1956 -2013 0
-1957 -1978 0
-1958 -1979 0
-1959 -1980 0
-1957 -1963 0
-1958 -1964 0
-1959 -1965 0
-1957 -2128 0
-1958 -2129 0
-1959 -2130 0
-1966 -2236 0
-1967 -2237 0
-1968 -2238 0
-1966 -2221 0
-1967 -2222 0
-1968 -2223 0
-1972 -2062 0
-1973 -2063 0
-1974 -2064 0
-1981 -2026 0
-1982 -2027 0
-1983 -2028 0
-1981 -2044 0
-1982 -2045 0
-1983 -2046 0
-1984 -2338 0
-1985 -2339 0
-1986 -2340 0
-1987 -2275 0
-1988 -2276 0
-1989 -2277 0
-1990 -2335 0
-1991 -2336 0
-1992 -2337 0
-1990 -2284 0
-1991 -2285 0
-1992 -2286 0
-1993 -2182 0
-1994 -2183 0
-1995 -2184 0
-1996 -2038 0
-1997 -2039 0
-1998 -2040 0
-1999 -2017 0
-2000 -2018 0
-2001 -2019 0
-2002 -2017 0
-2003 -2018 0
-2004 -2019 0
-2002 -2056 0
-2003 -2057 0
-2004 -2058 0
-2005 -2047 0
-2006 -2048 0
-2007 -2049 0
-2005 -2182 0
-2006 -2183 0
-2007 -2184 0
-2005 -2035 0
-2006 -2036 0
-2007 -2037 0
-2008 -2161 0
-2009 -2162 0
-2010 -2163 0
-2008 -2194 0
-2009 -2195 0
-2010 -2196 0
-2011 -2182 0
-2012 -2183 0
-2013 -2184 0
-2011 -2092 0
-2012 -2093 0
-2013 -2094 0
-2011 -2041 0
-2012 -2042 0
-2013 -2043 0
-2014 -2077 0
-2015 -2078 0
-2016 -2079 0
-2017 -2035 0
-2018 -2036 0
-2019 -2037 0
-2020 -2314 0
-2021 -2315 0
-2022 -2316 0
-2020 -2131 0
-2021 -2132 0
-2022 -2133 0
-2023 -2464 0
-2024 -2465 0
-2025 -2466 0
-2026 -2194 0
-2027 -2195 0
-2028 -2196 0
-2026 -2446 0
-2027 -2447 0
-2028 -2448 0
-2029 -2251 0
-2030 -2252 0
-2031 -2253 0
-2029 -2266 0
-2030 -2267 0
-2031 -2268 0
-2029 -2383 0
-2030 -2384 0
-2031 -2385 0
-2032 -2221 0
-2033 -2222 0
-2034 -2223 0
-2035 -2086 0
-2036 -2087 0
-2037 -2088 0
-2038 -2137 0
-2039 -2138 0
-2040 -2139 0
-2044 -2161 0
-2045 -2162 0
-2046 -2163 0
-2044 -2236 0
-2045 -2237 0
-2046 -2238 0
-2044 -2221 0
-2045 -2222 0
-2046 -2223 0
-2050 -2329 0
-2051 -2330 0
-2052 -2331 0
-2056 -2434 0
-2057 -2435 0
-2058 -2436 0
-2056 -2389 0
-2057 -2390 0
-2058 -2391 0
-2059 -2116 0
-2060 -2117 0
-2061 -2118 0
-2059 -2365 0
-2060 -2366 0
-2061 -2367 0
-2062 -2188 0
-2063 -2189 0
-2064 -2190 0
-2068 -2101 0
-2069 -2102 0
-2070 -2103 0
-2071 -2212 0
-2072 -2213 0
-2073 -2214 0
-2077 -2167 0
-2078 -2168 0
-2079 -2169 0
-2080 -2233 0
-2081 -2234 0
-2082 -2235 0
-2080 -2083 0
-2081 -2084 0
-2082 -2085 0
-2083 -2284 0
-2084 -2285 0
-2085 -2286 0
-2086 -2281 0
-2087 -2282 0
-2088 -2283 0
-2089 -2227 0
-2090 -2228 0
-2091 -2229 0
-2089 -2224 0
-2090 -2225 0
-2091 -2226 0
-2095 -2275 0
-2096 -2276 0
-2097 -2277 0
-2095 -2152 0
-2096 -2153 0
-2097 -2154 0
-2098 -2233 0
-2099 -2234 0
-2100 -2235 0
-2104 -2443 0
-2105 -2444 0
-2106 -2445 0
-2104 -2293 0
-2105 -2294 0
-2106 -2295 0
-2113 -2257 0
-2114 -2258 0
-2115 -2259 0
-2119 -2350 0
-2120 -2351 0
-2121 -2352 0
-2122 -2353 0
-2123 -2354 0
-2124 -2355 0
-2125 -2218 0
-2126 -2219 0
-2127 -2220 0
-2128 -2329 0
-2129 -2330 0
-2130 -2331 0
-2128 -2302 0
-2129 -2303 0
-2130 -2304 0
-2128 -2197 0
-2129 -2198 0
-2130 -2199 0
-2131 -2443 0
-2132 -2444 0
-2133 -2445 0
-2134 -2398 0
-2135 -2399 0
-2136 -2400 0
-2137 -2293 0
-2138 -2294 0
-2139 -2295 0
-2140 -2443 0
-2141 -2444 0
-2142 -2445 0
-2143 -2395 0
-2144 -2396 0
-2145 -2397 0
-2146 -2296 0
-2147 -2297 0
-2148 -2298 0
-2149 -2308 0
-2150 -2309 0
-2151 -2310 0
-2152 -2479 0
-2153 -2480 0
-2154 -2481 0
-2158 -2503 0
-2159 -2504 0
-2160 -2505 0
-2161 -2479 0
-2162 -2480 0
-2163 -2481 0
-2164 -2347 0
-2165 -2348 0
-2166 -2349 0
-2170 -2305 0
-2171 -2306 0
-2172 -2307 0
-2173 -2401 0
-2174 -2402 0
-2175 -2403 0
-2173 -2272 0
-2174 -2273 0
-2175 -2274 0
-2176 -2263 0
-2177 -2264 0
-2178 -2265 0
-2179 -2200 0
-2180 -2201 0
-2181 -2202 0
-2185 -2242 0
-2186 -2243 0
-2187 -2244 0
-2188 -2254 0
-2189 -2255 0
-2190 -2256 0
-2194 -2254 0
-2195 -2255 0
-2196 -2256 0
-2197 -2332 0
-2198 -2333 0
-2199 -2334 0
-2206 -2503 0
-2207 -2504 0
-2208 -2505 0
-2212 -2332 0
-2213 -2333 0
-2214 -2334 0
-2221 -2425 0
-2222 -2426 0
-2223 -2427 0
-2224 -2428 0
-2225 -2429 0
-2226 -2430 0
-2227 -2422 0
-2228 -2423 0
-2229 -2424 0
-2230 -2377 0
-2231 -2378 0
-2232 -2379 0
-2233 -2482 0
-2234 -2483 0
-2235 -2484 0
-2236 -2386 0
-2237 -2387 0
-2238 -2388 0
-2236 -2338 0
-2237 -2339 0
-2238 -2340 0
-2239 -2260 0
-2240 -2261 0
-2241 -2262 0
-2242 -2440 0
-2243 -2441 0
-2244 -2442 0
-2242 -2470 0
-2243 -2471 0
-2244 -2472 0
-2251 -2371 0
-2252 -2372 0
-2253 -2373 0
-2257 -2344 0
-2258 -2345 0
-2259 -2346 0
-2266 -2320 0
-2267 -2321 0
-2268 -2322 0
-2269 -2287 0
-2270 -2288 0
-2271 -2289 0
-2272 -2380 0
-2273 -2381 0
-2274 -2382 0
-2272 -2371 0
-2273 -2372 0
-2274 -2373 0
-2275 -2479 0
-2276 -2480 0
-2277 -2481 0
-2290 -2377 0
-2291 -2378 0
-2292 -2379 0
-2302 -2311 0
-2303 -2312 0
-2304 -2313 0
-2305 -2317 0
-2306 -2318 0
-2307 -2319 0
-2317 -2452 0
-2318 -2453 0
-2319 -2454 0
-2323 -2362 0
-2324 -2363 0
-2325 -2364 0
-2326 -2374 0
-2327 -2375 0
-2328 -2376 0
-2356 -2455 0
-2357 -2456 0
-2358 -2457 0
-2359 -2455 0
-2360 -2456 0
-2361 -2457 0
-2359 -2461 0
-2360 -2462 0
-2361 -2463 0
-2368 -2500 0
-2369 -2501 0
-2370 -2502 0
-2371 -2401 0
-2372 -2402 0
-2373 -2403 0
-2377 -2449 0
-2378 -2450 0
-2379 -2451 0
-2380 -2461 0
-2381 -2462 0
-2382 -2463 0
-2389 -2437 0
-2390 -2438 0
-2391 -2439 0
-2392 -2422 0
-2393 -2423 0
-2394 -2424 0
-2404 -2494 0
-2405 -2495 0
-2406 -2496 0
-2404 -2497 0
-2405 -2498 0
-2406 -2499 0
-2431 -2485 0
-2432 -2486 0
-2433 -2487 0
-2437 -2467 0
-2438 -2468 0
-2439 -2469 0
-2473 -2491 0
-2474 -2492 0
-2475 -2493 0
-2476 -2491 0
-2477 -2492 0
-2478 -2493 0
1 0
122 0
