p cnf 1386 3953
1 2 3 0
4 5 6 0
7 8 9 0
10 11 12 0
13 14 15 0
16 17 18 0
19 20 21 0
22 23 24 0
25 26 27 0
28 29 30 0
31 32 33 0
34 35 36 0
37 38 39 0
40 41 42 0
43 44 45 0
46 47 48 0
49 50 51 0
52 53 54 0
55 56 57 0
58 59 60 0
61 62 63 0
64 65 66 0
67 68 69 0
70 71 72 0
73 74 75 0
76 77 78 0
79 80 81 0
82 83 84 0
85 86 87 0
88 89 90 0
91 92 93 0
94 95 96 0
97 98 99 0
100 101 102 0
103 104 105 0
106 107 108 0
109 110 111 0
112 113 114 0
115 116 117 0
118 119 120 0
121 122 123 0
124 125 126 0
127 128 129 0
130 131 132 0
133 134 135 0
136 137 138 0
139 140 141 0
142 143 144 0
145 146 147 0
148 149 150 0
151 152 153 0
154 155 156 0
157 158 159 0
160 161 162 0
163 164 165 0
166 167 168 0
169 170 171 0
172 173 174 0
175 176 177 0
178 179 180 0
181 182 183 0
184 185 186 0
187 188 189 0
190 191 192 0
193 194 195 0
196 197 198 0
199 200 201 0
202 203 204 0
205 206 207 0
208 209 210 0
211 212 213 0
214 215 216 0
217 218 219 0
220 221 222 0
223 224 225 0
226 227 228 0
229 230 231 0
232 233 234 0
235 236 237 0
238 239 240 0
241 242 243 0
244 245 246 0
247 248 249 0
250 251 252 0
253 254 255 0
256 257 258 0
259 260 261 0
262 263 264 0
265 266 267 0
268 269 270 0
271 272 273 0
274 275 276 0
277 278 279 0
280 281 282 0
283 284 285 0
286 287 288 0
289 290 291 0
292 293 294 0
295 296 297 0
298 299 300 0
301 302 303 0
304 305 306 0
307 308 309 0
310 311 312 0
313 314 315 0
316 317 318 0
319 320 321 0
322 323 324 0
325 326 327 0
328 329 330 0
331 332 333 0
334 335 336 0
337 338 339 0
340 341 342 0
343 344 345 0
346 347 348 0
349 350 351 0
352 353 354 0
355 356 357 0
358 359 360 0
361 362 363 0
364 365 366 0
367 368 369 0
370 371 372 0
373 374 375 0
376 377 378 0
379 380 381 0
382 383 384 0
385 386 387 0
388 389 390 0
391 392 393 0
394 395 396 0
397 398 399 0
400 401 402 0
403 404 405 0
406 407 408 0
409 410 411 0
412 413 414 0
415 416 417 0
418 419 420 0
421 422 423 0
424 425 426 0
427 428 429 0
430 431 432 0
433 434 435 0
436 437 438 0
439 440 441 0
442 443 444 0
445 446 447 0
448 449 450 0
451 452 453 0
454 455 456 0
457 458 459 0
460 461 462 0
463 464 465 0
466 467 468 0
469 470 471 0
472 473 474 0
475 476 477 0
478 479 480 0
481 482 483 0
484 485 486 0
487 488 489 0
490 491 492 0
493 494 495 0
496 497 498 0
499 500 501 0
502 503 504 0
505 506 507 0
508 509 510 0
511 512 513 0
514 515 516 0
517 518 519 0
520 521 522 0
523 524 525 0
526 527 528 0
529 530 531 0
532 533 534 0
535 536 537 0
538 539 540 0
541 542 543 0
544 545 546 0
547 548 549 0
550 551 552 0
553 554 555 0
556 557 558 0
559 560 561 0
562 563 564 0
565 566 567 0
568 569 570 0
571 572 573 0
574 575 576 0
577 578 579 0
580 581 582 0
583 584 585 0
586 587 588 0
589 590 591 0
592 593 594 0
595 596 597 0
598 599 600 0
601 602 603 0
604 605 606 0
607 608 609 0
610 611 612 0
613 614 615 0
616 617 618 0
619 620 621 0
622 623 624 0
625 626 627 0
628 629 630 0
631 632 633 0
634 635 636 0
637 638 639 0
640 641 642 0
643 644 645 0
646 647 648 0
649 650 651 0
652 653 654 0
655 656 657 0
658 659 660 0
661 662 663 0
664 665 666 0
667 668 669 0
670 671 672 0
673 674 675 0
676 677 678 0
679 680 681 0
682 683 684 0
685 686 687 0
688 689 690 0
691 692 693 0
694 695 696 0
697 698 699 0
700 701 702 0
703 704 705 0
706 707 708 0
709 710 711 0
712 713 714 0
715 716 717 0
718 719 720 0
721 722 723 0
724 725 726 0
727 728 729 0
730 731 732 0
733 734 735 0
736 737 738 0
739 740 741 0
742 743 744 0
745 746 747 0
748 749 750 0
751 752 753 0
754 755 756 0
757 758 759 0
760 761 762 0
763 764 765 0
766 767 768 0
769 770 771 0
772 773 774 0
775 776 777 0
778 779 780 0
781 782 783 0
784 785 786 0
787 788 789 0
790 791 792 0
793 794 795 0
796 797 798 0
799 800 801 0
802 803 804 0
805 806 807 0
808 809 810 0
811 812 813 0
814 815 816 0
817 818 819 0
820 821 822 0
823 824 825 0
826 827 828 0
829 830 831 0
832 833 834 0
835 836 837 0
838 839 840 0
841 842 843 0
844 845 846 0
847 848 849 0
850 851 852 0
853 854 855 0
856 857 858 0
859 860 861 0
862 863 864 0
865 866 867 0
868 869 870 0
871 872 873 0
874 875 876 0
877 878 879 0
880 881 882 0
883 884 885 0
886 887 888 0
889 890 891 0
892 893 894 0
895 896 897 0
898 899 900 0
901 902 903 0
904 905 906 0
907 908 909 0
910 911 912 0
913 914 915 0
916 917 918 0
919 920 921 0
922 923 924 0
925 926 927 0
928 929 930 0
931 932 933 0
934 935 936 0
937 938 939 0
940 941 942 0
943 944 945 0
946 947 948 0
949 950 951 0
952 953 954 0
955 956 957 0
958 959 960 0
961 962 963 0
964 965 966 0
967 968 969 0
970 971 972 0
973 974 975 0
976 977 978 0
979 980 981 0
982 983 984 0
985 986 987 0
988 989 990 0
991 992 993 0
994 995 996 0
997 998 999 0
1000 1001 1002 0
1003 1004 1005 0
1006 1007 1008 0
1009 1010 1011 0
1012 1013 1014 0
1015 1016 1017 0
1018 1019 1020 0
1021 1022 1023 0
1024 1025 1026 0
1027 1028 1029 0
1030 1031 1032 0
1033 1034 1035 0
1036 1037 1038 0
1039 1040 1041 0
1042 1043 1044 0
1045 1046 1047 0
1048 1049 1050 0
1051 1052 1053 0
1054 1055 1056 0
1057 1058 1059 0
1060 1061 1062 0
1063 1064 1065 0
1066 1067 1068 0
1069 1070 1071 0
1072 1073 1074 0
1075 1076 1077 0
1078 1079 1080 0
1081 1082 1083 0
1084 1085 1086 0
1087 1088 1089 0
1090 1091 1092 0
1093 1094 1095 0
1096 1097 1098 0
1099 1100 1101 0
1102 1103 1104 0
1105 1106 1107 0
1108 1109 1110 0
1111 1112 1113 0
1114 1115 1116 0
1117 1118 1119 0
1120 1121 1122 0
1123 1124 1125 0
1126 1127 1128 0
1129 1130 1131 0
1132 1133 1134 0
1135 1136 1137 0
1138 1139 1140 0
1141 1142 1143 0
1144 1145 1146 0
1147 1148 1149 0
1150 1151 1152 0
1153 1154 1155 0
1156 1157 1158 0
1159 1160 1161 0
1162 1163 1164 0
1165 1166 1167 0
1168 1169 1170 0
1171 1172 1173 0
1174 1175 1176 0
1177 1178 1179 0
1180 1181 1182 0
1183 1184 1185 0
1186 1187 1188 0
1189 1190 1191 0
1192 1193 1194 0
1195 1196 1197 0
1198 1199 1200 0
1201 1202 1203 0
1204 1205 1206 0
1207 1208 1209 0
1210 1211 1212 0
1213 1214 1215 0
1216 1217 1218 0
1219 1220 1221 0
1222 1223 1224 0
1225 1226 1227 0
1228 1229 1230 0
1231 1232 1233 0
1234 1235 1236 0
1237 1238 1239 0
1240 1241 1242 0
1243 1244 1245 0
1246 1247 1248 0
1249 1250 1251 0
1252 1253 1254 0
1255 1256 1257 0
1258 1259 1260 0
1261 1262 1263 0
1264 1265 1266 0
1267 1268 1269 0
1270 1271 1272 0
1273 1274 1275 0
1276 1277 1278 0
1279 1280 1281 0
1282 1283 1284 0
1285 1286 1287 0
1288 1289 1290 0
1291 1292 1293 0
1294 1295 1296 0
1297 1298 1299 0
1300 1301 1302 0
1303 1304 1305 0
1306 1307 1308 0
1309 1310 1311 0
1312 1313 1314 0
1315 1316 1317 0
1318 1319 1320 0
1321 1322 1323 0
1324 1325 1326 0
1327 1328 1329 0
1330 1331 1332 0
1333 1334 1335 0
1336 1337 1338 0
1339 1340 1341 0
1342 1343 1344 0
1345 1346 1347 0
1348 1349 1350 0
1351 1352 1353 0
1354 1355 1356 0
1357 1358 1359 0
1360 1361 1362 0
1363 1364 1365 0
1366 1367 1368 0
1369 1370 1371 0
1372 1373 1374 0
1375 1376 1377 0
1378 1379 1380 0
1381 1382 1383 0
1384 1385 1386 0
-1 -25 0
-2 -26 0
-3 -27 0
-1 -28 0
-2 -29 0
-3 -30 0
-1 -685 0
-2 -686 0
-3 -687 0
-1 -814 0
-2 -815 0
-3 -816 0
-4 -1306 0
-5 -1307 0
-6 -1308 0
-4 -1144 0
-5 -1145 0
-6 -1146 0
-4 -52 0
-5 -53 0
-6 -54 0
-7 -1306 0
-8 -1307 0
-9 -1308 0
-7 -43 0
-8 -44 0
-9 -45 0
-7 -52 0
-8 -53 0
-9 -54 0
-7 -1369 0
-8 -1370 0
-9 -1371 0
-10 -85 0
-11 -86 0
-12 -87 0
-10 -28 0
-11 -29 0
-12 -30 0
-10 -1297 0
-11 -1298 0
-12 -1299 0
-10 -814 0
-11 -815 0
-12 -816 0
-13 -88 0
-14 -89 0
-15 -90 0
-13 -190 0
-14 -191 0
-15 -192 0
-13 -292 0
-14 -293 0
-15 -294 0
-13 -55 0
-14 -56 0
-15 -57 0
-16 -1357 0
-17 -1358 0
-18 -1359 0
-16 -1126 0
-17 -1127 0
-18 -1128 0
-16 -52 0
-17 -53 0
-18 -54 0
-16 -94 0
-17 -95 0
-18 -96 0
-19 -25 0
-20 -26 0
-21 -27 0
-19 -277 0
-20 -278 0
-21 -279 0
-19 -757 0
-20 -758 0
-21 -759 0
-19 -658 0
-20 -659 0
-21 -660 0
-22 -289 0
-23 -290 0
-24 -291 0
-22 -25 0
-23 -26 0
-24 -27 0
-22 -1069 0
-23 -1070 0
-24 -1071 0
-25 -424 0
-26 -425 0
-27 -426 0
-25 -292 0
-26 -293 0
-27 -294 0
-28 -235 0
-29 -236 0
-30 -237 0
-28 -238 0
-29 -239 0
-30 -240 0
-28 -427 0
-29 -428 0
-30 -429 0
-28 -292 0
-29 -293 0
-30 -294 0
-28 -394 0
-29 -395 0
-30 -396 0
-31 -970 0
-32 -971 0
-33 -972 0
-31 -1126 0
-32 -1127 0
-33 -1128 0
-31 -841 0
-32 -842 0
-33 -843 0
-31 -94 0
-32 -95 0
-33 -96 0
-34 -436 0
-35 -437 0
-36 -438 0
-34 -292 0
-35 -293 0
-36 -294 0
-34 -316 0
-35 -317 0
-36 -318 0
-37 -1282 0
-38 -1283 0
-39 -1284 0
-37 -1291 0
-38 -1292 0
-39 -1293 0
-37 -346 0
-38 -347 0
-39 -348 0
-37 -1279 0
-38 -1280 0
-39 -1281 0
-40 -910 0
-41 -911 0
-42 -912 0
-40 -139 0
-41 -140 0
-42 -141 0
-40 -73 0
-41 -74 0
-42 -75 0
-43 -514 0
-44 -515 0
-45 -516 0
-43 -376 0
-44 -377 0
-45 -378 0
-43 -286 0
-44 -287 0
-45 -288 0
-43 -292 0
-44 -293 0
-45 -294 0
-43 -49 0
-44 -50 0
-45 -51 0
-46 -898 0
-47 -899 0
-48 -900 0
-46 -289 0
-47 -290 0
-48 -291 0
-46 -1069 0
-47 -1070 0
-48 -1071 0
-46 -652 0
-47 -653 0
-48 -654 0
-46 -1177 0
-47 -1178 0
-48 -1179 0
-46 -1132 0
-47 -1133 0
-48 -1134 0
-46 -52 0
-47 -53 0
-48 -54 0
-49 -868 0
-50 -869 0
-51 -870 0
-49 -802 0
-50 -803 0
-51 -804 0
-49 -1321 0
-50 -1322 0
-51 -1323 0
-49 -1075 0
-50 -1076 0
-51 -1077 0
-49 -937 0
-50 -938 0
-51 -939 0
-49 -295 0
-50 -296 0
-51 -297 0
-49 -1135 0
-50 -1136 0
-51 -1137 0
-49 -904 0
-50 -905 0
-51 -906 0
-52 -517 0
-53 -518 0
-54 -519 0
-52 -538 0
-53 -539 0
-54 -540 0
-52 -292 0
-53 -293 0
-54 -294 0
-52 -298 0
-53 -299 0
-54 -300 0
-55 -772 0
-56 -773 0
-57 -774 0
-55 -1357 0
-56 -1358 0
-57 -1359 0
-55 -526 0
-56 -527 0
-57 -528 0
-55 -1366 0
-56 -1367 0
-57 -1368 0
-55 -1369 0
-56 -1370 0
-57 -1371 0
-58 -79 0
-59 -80 0
-60 -81 0
-58 -160 0
-59 -161 0
-60 -162 0
-58 -1045 0
-59 -1046 0
-60 -1047 0
-58 -1186 0
-59 -1187 0
-60 -1188 0
-61 -709 0
-62 -710 0
-63 -711 0
-61 -67 0
-62 -68 0
-63 -69 0
-61 -199 0
-62 -200 0
-63 -201 0
-61 -1294 0
-62 -1295 0
-63 -1296 0
-61 -922 0
-62 -923 0
-63 -924 0
-61 -703 0
-62 -704 0
-63 -705 0
-64 -67 0
-65 -68 0
-66 -69 0
-64 -916 0
-65 -917 0
-66 -918 0
-64 -1078 0
-65 -1079 0
-66 -1080 0
-64 -223 0
-65 -224 0
-66 -225 0
-64 -703 0
-65 -704 0
-66 -705 0
-67 -226 0
-68 -227 0
-69 -228 0
-67 -229 0
-68 -230 0
-69 -231 0
-67 -193 0
-68 -194 0
-69 -195 0
-67 -292 0
-68 -293 0
-69 -294 0
-67 -124 0
-68 -125 0
-69 -126 0
-70 -565 0
-71 -566 0
-72 -567 0
-70 -1123 0
-71 -1124 0
-72 -1125 0
-70 -1135 0
-71 -1136 0
-72 -1137 0
-73 -82 0
-74 -83 0
-75 -84 0
-73 -148 0
-74 -149 0
-75 -150 0
-73 -166 0
-74 -167 0
-75 -168 0
-73 -262 0
-74 -263 0
-75 -264 0
-73 -115 0
-74 -116 0
-75 -117 0
-73 -292 0
-74 -293 0
-75 -294 0
-76 -625 0
-77 -626 0
-78 -627 0
-76 -1291 0
-77 -1292 0
-78 -1293 0
-76 -169 0
-77 -170 0
-78 -171 0
-76 -1114 0
-77 -1115 0
-78 -1116 0
-76 -637 0
-77 -638 0
-78 -639 0
-76 -160 0
-77 -161 0
-78 -162 0
-76 -1273 0
-77 -1274 0
-78 -1275 0
-79 -151 0
-80 -152 0
-81 -153 0
-79 -154 0
-80 -155 0
-81 -156 0
-79 -163 0
-80 -164 0
-81 -165 0
-79 -292 0
-80 -293 0
-81 -294 0
-79 -319 0
-80 -320 0
-81 -321 0
-82 -631 0
-83 -632 0
-84 -633 0
-82 -742 0
-83 -743 0
-84 -744 0
-82 -328 0
-83 -329 0
-84 -330 0
-85 -508 0
-86 -509 0
-87 -510 0
-85 -292 0
-86 -293 0
-87 -294 0
-88 -565 0
-89 -566 0
-90 -567 0
-88 -1357 0
-89 -1358 0
-90 -1359 0
-88 -1126 0
-89 -1127 0
-90 -1128 0
-88 -1012 0
-89 -1013 0
-90 -1014 0
-91 -649 0
-92 -650 0
-93 -651 0
-91 -775 0
-92 -776 0
-93 -777 0
-91 -970 0
-92 -971 0
-93 -972 0
-91 -526 0
-92 -527 0
-93 -528 0
-94 -292 0
-95 -293 0
-96 -294 0
-97 -175 0
-98 -176 0
-99 -177 0
-97 -1120 0
-98 -1121 0
-99 -1122 0
-97 -199 0
-98 -200 0
-99 -201 0
-97 -1147 0
-98 -1148 0
-99 -1149 0
-100 -1339 0
-101 -1340 0
-102 -1341 0
-100 -907 0
-101 -908 0
-102 -909 0
-100 -184 0
-101 -185 0
-102 -186 0
-100 -1120 0
-101 -1121 0
-102 -1122 0
-100 -1294 0
-101 -1295 0
-102 -1296 0
-100 -1324 0
-101 -1325 0
-102 -1326 0
-100 -1183 0
-101 -1184 0
-102 -1185 0
-100 -199 0
-101 -200 0
-102 -201 0
-103 -145 0
-104 -146 0
-105 -147 0
-103 -340 0
-104 -341 0
-105 -342 0
-103 -247 0
-104 -248 0
-105 -249 0
-103 -109 0
-104 -110 0
-105 -111 0
-103 -292 0
-104 -293 0
-105 -294 0
-106 -112 0
-107 -113 0
-108 -114 0
-106 -250 0
-107 -251 0
-108 -252 0
-106 -856 0
-107 -857 0
-108 -858 0
-106 -976 0
-107 -977 0
-108 -978 0
-106 -1219 0
-107 -1220 0
-108 -1221 0
-106 -982 0
-107 -983 0
-108 -984 0
-109 -661 0
-110 -662 0
-111 -663 0
-109 -874 0
-110 -875 0
-111 -876 0
-109 -328 0
-110 -329 0
-111 -330 0
-109 -976 0
-110 -977 0
-111 -978 0
-109 -1237 0
-110 -1238 0
-111 -1239 0
-112 -343 0
-113 -344 0
-114 -345 0
-112 -292 0
-113 -293 0
-114 -294 0
-115 -892 0
-116 -893 0
-117 -894 0
-115 -370 0
-116 -371 0
-117 -372 0
-115 -1300 0
-116 -1301 0
-117 -1302 0
-118 -1282 0
-119 -1283 0
-120 -1284 0
-118 -1189 0
-119 -1190 0
-120 -1191 0
-118 -208 0
-119 -209 0
-120 -210 0
-118 -169 0
-119 -170 0
-120 -171 0
-118 -1096 0
-119 -1097 0
-120 -1098 0
-118 -655 0
-119 -656 0
-120 -657 0
-118 -835 0
-119 -836 0
-120 -837 0
-118 -1198 0
-119 -1199 0
-120 -1200 0
-118 -1021 0
-119 -1022 0
-120 -1023 0
-121 -1072 0
-122 -1073 0
-123 -1074 0
-121 -1090 0
-122 -1091 0
-123 -1092 0
-121 -571 0
-122 -572 0
-123 -573 0
-124 -931 0
-125 -932 0
-126 -933 0
-124 -964 0
-125 -965 0
-126 -966 0
-124 -1360 0
-125 -1361 0
-126 -1362 0
-124 -1378 0
-125 -1379 0
-126 -1380 0
-124 -382 0
-125 -383 0
-126 -384 0
-127 -1282 0
-128 -1283 0
-129 -1284 0
-127 -208 0
-128 -209 0
-129 -210 0
-127 -199 0
-128 -200 0
-129 -201 0
-127 -1156 0
-128 -1157 0
-129 -1158 0
-127 -919 0
-128 -920 0
-129 -921 0
-127 -1183 0
-128 -1184 0
-129 -1185 0
-127 -979 0
-128 -980 0
-129 -981 0
-127 -1279 0
-128 -1280 0
-129 -1281 0
-130 -706 0
-131 -707 0
-132 -708 0
-130 -913 0
-131 -914 0
-132 -915 0
-130 -250 0
-131 -251 0
-132 -252 0
-130 -139 0
-131 -140 0
-132 -141 0
-133 -706 0
-134 -707 0
-135 -708 0
-133 -823 0
-134 -824 0
-135 -825 0
-133 -1348 0
-134 -1349 0
-135 -1350 0
-133 -256 0
-134 -257 0
-135 -258 0
-133 -1351 0
-134 -1352 0
-135 -1353 0
-133 -730 0
-134 -731 0
-135 -732 0
-133 -1102 0
-134 -1103 0
-135 -1104 0
-133 -769 0
-134 -770 0
-135 -771 0
-133 -1060 0
-134 -1061 0
-135 -1062 0
-133 -139 0
-134 -140 0
-135 -141 0
-136 -1216 0
-137 -1217 0
-138 -1218 0
-136 -1228 0
-137 -1229 0
-138 -1230 0
-136 -1231 0
-137 -1232 0
-138 -1233 0
-136 -325 0
-137 -326 0
-138 -327 0
-136 -1099 0
-137 -1100 0
-138 -1101 0
-136 -1063 0
-137 -1064 0
-138 -1065 0
-136 -817 0
-137 -818 0
-138 -819 0
-136 -1048 0
-137 -1049 0
-138 -1050 0
-136 -1015 0
-137 -1016 0
-138 -1017 0
-139 -331 0
-140 -332 0
-141 -333 0
-139 -220 0
-140 -221 0
-141 -222 0
-139 -292 0
-140 -293 0
-141 -294 0
-142 -847 0
-143 -848 0
-144 -849 0
-142 -628 0
-143 -629 0
-144 -630 0
-142 -199 0
-143 -200 0
-144 -201 0
-142 -223 0
-143 -224 0
-144 -225 0
-142 -1147 0
-143 -1148 0
-144 -1149 0
-142 -703 0
-143 -704 0
-144 -705 0
-145 -712 0
-146 -713 0
-147 -714 0
-145 -715 0
-146 -716 0
-147 -717 0
-145 -346 0
-146 -347 0
-147 -348 0
-148 -1195 0
-149 -1196 0
-150 -1197 0
-148 -1213 0
-149 -1214 0
-150 -1215 0
-148 -754 0
-149 -755 0
-150 -756 0
-148 -742 0
-149 -743 0
-150 -744 0
-148 -1174 0
-149 -1175 0
-150 -1176 0
-148 -400 0
-149 -401 0
-150 -402 0
-151 -1225 0
-152 -1226 0
-153 -1227 0
-151 -400 0
-152 -401 0
-153 -402 0
-151 -1255 0
-152 -1256 0
-153 -1257 0
-154 -742 0
-155 -743 0
-156 -744 0
-154 -406 0
-155 -407 0
-156 -408 0
-154 -1186 0
-155 -1187 0
-156 -1188 0
-157 -652 0
-158 -653 0
-159 -654 0
-157 -1129 0
-158 -1130 0
-159 -1131 0
-157 -1090 0
-158 -1091 0
-159 -1092 0
-157 -1285 0
-158 -1286 0
-159 -1287 0
-157 -679 0
-158 -680 0
-159 -681 0
-157 -1144 0
-158 -1145 0
-159 -1146 0
-157 -700 0
-158 -701 0
-159 -702 0
-157 -586 0
-158 -587 0
-159 -588 0
-160 -415 0
-161 -416 0
-162 -417 0
-160 -292 0
-161 -293 0
-162 -294 0
-160 -205 0
-161 -206 0
-162 -207 0
-163 -1066 0
-164 -1067 0
-165 -1068 0
-163 -997 0
-164 -998 0
-165 -999 0
-163 -637 0
-164 -638 0
-165 -639 0
-163 -412 0
-164 -413 0
-165 -414 0
-163 -826 0
-164 -827 0
-165 -828 0
-163 -688 0
-164 -689 0
-165 -690 0
-166 -988 0
-167 -989 0
-168 -990 0
-166 -1066 0
-167 -1067 0
-168 -1068 0
-166 -625 0
-167 -626 0
-168 -627 0
-166 -421 0
-167 -422 0
-168 -423 0
-166 -997 0
-167 -998 0
-168 -999 0
-166 -1213 0
-167 -1214 0
-168 -1215 0
-166 -985 0
-167 -986 0
-168 -987 0
-169 -418 0
-170 -419 0
-171 -420 0
-169 -292 0
-170 -293 0
-171 -294 0
-172 -895 0
-173 -896 0
-174 -897 0
-172 -184 0
-173 -185 0
-174 -186 0
-172 -619 0
-173 -620 0
-174 -621 0
-172 -1324 0
-173 -1325 0
-174 -1326 0
-172 -976 0
-173 -977 0
-174 -978 0
-172 -646 0
-173 -647 0
-174 -648 0
-172 -250 0
-173 -251 0
-174 -252 0
-175 -217 0
-176 -218 0
-177 -219 0
-175 -430 0
-176 -431 0
-177 -432 0
-175 -181 0
-176 -182 0
-177 -183 0
-175 -187 0
-176 -188 0
-177 -189 0
-175 -259 0
-176 -260 0
-177 -261 0
-175 -292 0
-176 -293 0
-177 -294 0
-178 -208 0
-179 -209 0
-180 -210 0
-178 -1363 0
-179 -1364 0
-180 -1365 0
-178 -223 0
-179 -224 0
-180 -225 0
-178 -622 0
-179 -623 0
-180 -624 0
-178 -640 0
-179 -641 0
-180 -642 0
-181 -724 0
-182 -725 0
-183 -726 0
-181 -844 0
-182 -845 0
-183 -846 0
-184 -211 0
-185 -212 0
-186 -213 0
-184 -292 0
-185 -293 0
-186 -294 0
-184 -379 0
-185 -380 0
-186 -381 0
-184 -322 0
-185 -323 0
-186 -324 0
-187 -976 0
-188 -977 0
-189 -978 0
-187 -745 0
-188 -746 0
-189 -747 0
-187 -328 0
-188 -329 0
-189 -330 0
-187 -646 0
-188 -647 0
-189 -648 0
-190 -772 0
-191 -773 0
-192 -774 0
-190 -718 0
-191 -719 0
-192 -720 0
-190 -586 0
-191 -587 0
-192 -588 0
-190 -700 0
-191 -701 0
-192 -702 0
-193 -1228 0
-194 -1229 0
-195 -1230 0
-193 -454 0
-194 -455 0
-195 -456 0
-193 -1063 0
-194 -1064 0
-195 -1065 0
-196 -847 0
-197 -848 0
-198 -849 0
-196 -850 0
-197 -851 0
-198 -852 0
-196 -1324 0
-197 -1325 0
-198 -1326 0
-196 -199 0
-197 -200 0
-198 -201 0
-196 -250 0
-197 -251 0
-198 -252 0
-199 -337 0
-200 -338 0
-201 -339 0
-199 -349 0
-200 -350 0
-201 -351 0
-199 -367 0
-200 -368 0
-201 -369 0
-199 -460 0
-200 -461 0
-201 -462 0
-199 -202 0
-200 -203 0
-201 -204 0
-199 -292 0
-200 -293 0
-201 -294 0
-202 -1330 0
-203 -1331 0
-204 -1332 0
-202 -1333 0
-203 -1334 0
-204 -1335 0
-202 -919 0
-203 -920 0
-204 -921 0
-202 -940 0
-203 -941 0
-204 -942 0
-202 -328 0
-203 -329 0
-204 -330 0
-202 -952 0
-203 -953 0
-204 -954 0
-205 -925 0
-206 -926 0
-207 -927 0
-205 -739 0
-206 -740 0
-207 -741 0
-205 -370 0
-206 -371 0
-207 -372 0
-205 -781 0
-206 -782 0
-207 -783 0
-208 -352 0
-209 -353 0
-210 -354 0
-208 -244 0
-209 -245 0
-210 -246 0
-208 -373 0
-209 -374 0
-210 -375 0
-208 -292 0
-209 -293 0
-210 -294 0
-208 -469 0
-209 -470 0
-210 -471 0
-208 -478 0
-209 -479 0
-210 -480 0
-211 -640 0
-212 -641 0
-213 -642 0
-211 -973 0
-212 -974 0
-213 -975 0
-211 -346 0
-212 -347 0
-213 -348 0
-211 -1201 0
-212 -1202 0
-213 -1203 0
-214 -847 0
-215 -848 0
-216 -849 0
-214 -727 0
-215 -728 0
-216 -729 0
-214 -853 0
-215 -854 0
-216 -855 0
-214 -943 0
-215 -944 0
-216 -945 0
-214 -223 0
-215 -224 0
-216 -225 0
-214 -250 0
-215 -251 0
-216 -252 0
-214 -913 0
-215 -914 0
-216 -915 0
-214 -643 0
-215 -644 0
-216 -645 0
-217 -622 0
-218 -623 0
-219 -624 0
-217 -1240 0
-218 -1241 0
-219 -1242 0
-217 -1000 0
-218 -1001 0
-219 -1002 0
-217 -370 0
-218 -371 0
-219 -372 0
-217 -1006 0
-218 -1007 0
-219 -1008 0
-217 -973 0
-218 -974 0
-219 -975 0
-217 -745 0
-218 -746 0
-219 -747 0
-217 -844 0
-218 -845 0
-219 -846 0
-220 -382 0
-221 -383 0
-222 -384 0
-220 -769 0
-221 -770 0
-222 -771 0
-220 -979 0
-221 -980 0
-222 -981 0
-220 -1054 0
-221 -1055 0
-222 -1056 0
-223 -364 0
-224 -365 0
-225 -366 0
-223 -292 0
-224 -293 0
-225 -294 0
-223 -385 0
-224 -386 0
-225 -387 0
-226 -1084 0
-227 -1085 0
-228 -1086 0
-226 -1192 0
-227 -1193 0
-228 -1194 0
-226 -1360 0
-227 -1361 0
-228 -1362 0
-226 -1231 0
-227 -1232 0
-228 -1233 0
-226 -481 0
-227 -482 0
-228 -483 0
-226 -922 0
-227 -923 0
-228 -924 0
-226 -1018 0
-227 -1019 0
-228 -1020 0
-226 -1063 0
-227 -1064 0
-228 -1065 0
-229 -709 0
-230 -710 0
-231 -711 0
-229 -1060 0
-230 -1061 0
-231 -1062 0
-229 -487 0
-230 -488 0
-231 -489 0
-229 -1078 0
-230 -1079 0
-231 -1080 0
-229 -1303 0
-230 -1304 0
-231 -1305 0
-229 -793 0
-230 -794 0
-231 -795 0
-232 -934 0
-233 -935 0
-234 -936 0
-232 -1216 0
-233 -1217 0
-234 -1218 0
-232 -400 0
-233 -401 0
-234 -402 0
-232 -889 0
-233 -890 0
-234 -891 0
-235 -574 0
-236 -575 0
-237 -576 0
-235 -811 0
-236 -812 0
-237 -813 0
-235 -658 0
-236 -659 0
-237 -660 0
-235 -796 0
-236 -797 0
-237 -798 0
-238 -799 0
-239 -800 0
-240 -801 0
-238 -580 0
-239 -581 0
-240 -582 0
-238 -751 0
-239 -752 0
-240 -753 0
-241 -1030 0
-242 -1031 0
-243 -1032 0
-241 -982 0
-242 -983 0
-243 -984 0
-241 -850 0
-242 -851 0
-243 -852 0
-241 -877 0
-242 -878 0
-243 -879 0
-241 -664 0
-242 -665 0
-243 -666 0
-241 -250 0
-242 -251 0
-243 -252 0
-244 -1003 0
-245 -1004 0
-246 -1005 0
-244 -1096 0
-245 -1097 0
-246 -1098 0
-244 -1117 0
-245 -1118 0
-246 -1119 0
-244 -346 0
-245 -347 0
-246 -348 0
-247 -481 0
-248 -482 0
-249 -483 0
-247 -613 0
-248 -614 0
-249 -615 0
-250 -397 0
-251 -398 0
-252 -399 0
-250 -355 0
-251 -356 0
-252 -357 0
-250 -253 0
-251 -254 0
-252 -255 0
-250 -280 0
-251 -281 0
-252 -282 0
-250 -292 0
-251 -293 0
-252 -294 0
-253 -727 0
-254 -728 0
-255 -729 0
-253 -295 0
-254 -296 0
-255 -297 0
-253 -865 0
-254 -866 0
-255 -867 0
-256 -358 0
-257 -359 0
-258 -360 0
-256 -445 0
-257 -446 0
-258 -447 0
-256 -541 0
-257 -542 0
-258 -543 0
-256 -292 0
-257 -293 0
-258 -294 0
-256 -304 0
-257 -305 0
-258 -306 0
-259 -724 0
-260 -725 0
-261 -726 0
-259 -400 0
-260 -401 0
-261 -402 0
-259 -664 0
-260 -665 0
-261 -666 0
-259 -973 0
-260 -974 0
-261 -975 0
-259 -982 0
-260 -983 0
-261 -984 0
-262 -1066 0
-263 -1067 0
-264 -1068 0
-262 -631 0
-263 -632 0
-264 -633 0
-262 -529 0
-263 -530 0
-264 -531 0
-262 -619 0
-263 -620 0
-264 -621 0
-262 -1045 0
-263 -1046 0
-264 -1047 0
-262 -613 0
-263 -614 0
-264 -615 0
-265 -1072 0
-266 -1073 0
-267 -1074 0
-265 -766 0
-266 -767 0
-267 -768 0
-265 -571 0
-266 -572 0
-267 -573 0
-268 -649 0
-269 -650 0
-270 -651 0
-268 -1039 0
-269 -1040 0
-270 -1041 0
-268 -574 0
-269 -575 0
-270 -576 0
-268 -658 0
-269 -659 0
-270 -660 0
-271 -886 0
-272 -887 0
-273 -888 0
-271 -277 0
-272 -278 0
-273 -279 0
-271 -784 0
-272 -785 0
-273 -786 0
-271 -658 0
-272 -659 0
-273 -660 0
-271 -1222 0
-272 -1223 0
-273 -1224 0
-274 -520 0
-275 -521 0
-276 -522 0
-274 -556 0
-275 -557 0
-276 -558 0
-274 -292 0
-275 -293 0
-276 -294 0
-277 -523 0
-278 -524 0
-279 -525 0
-277 -292 0
-278 -293 0
-279 -294 0
-280 -877 0
-281 -878 0
-282 -879 0
-280 -325 0
-281 -326 0
-282 -327 0
-280 -853 0
-281 -854 0
-282 -855 0
-280 -1015 0
-281 -1016 0
-282 -1017 0
-283 -289 0
-284 -290 0
-285 -291 0
-283 -1177 0
-284 -1178 0
-285 -1179 0
-283 -1342 0
-284 -1343 0
-285 -1344 0
-286 -937 0
-287 -938 0
-288 -939 0
-286 -820 0
-287 -821 0
-288 -822 0
-286 -691 0
-287 -692 0
-288 -693 0
-289 -583 0
-290 -584 0
-291 -585 0
-289 -559 0
-290 -560 0
-291 -561 0
-289 -292 0
-290 -293 0
-291 -294 0
-289 -307 0
-290 -308 0
-291 -309 0
-292 -400 0
-293 -401 0
-294 -402 0
-292 -487 0
-293 -488 0
-294 -489 0
-292 -406 0
-293 -407 0
-294 -408 0
-292 -571 0
-293 -572 0
-294 -573 0
-292 -574 0
-293 -575 0
-294 -576 0
-292 -580 0
-293 -581 0
-294 -582 0
-292 -412 0
-293 -413 0
-294 -414 0
-292 -505 0
-293 -506 0
-294 -507 0
-292 -421 0
-293 -422 0
-294 -423 0
-292 -526 0
-293 -527 0
-294 -528 0
-292 -586 0
-293 -587 0
-294 -588 0
-292 -346 0
-293 -347 0
-294 -348 0
-292 -529 0
-293 -530 0
-294 -531 0
-292 -535 0
-293 -536 0
-294 -537 0
-292 -370 0
-293 -371 0
-294 -372 0
-292 -442 0
-293 -443 0
-294 -444 0
-292 -565 0
-293 -566 0
-294 -567 0
-292 -454 0
-293 -455 0
-294 -456 0
-292 -544 0
-293 -545 0
-294 -546 0
-292 -592 0
-293 -593 0
-294 -594 0
-292 -295 0
-293 -296 0
-294 -297 0
-292 -382 0
-293 -383 0
-294 -384 0
-292 -310 0
-293 -311 0
-294 -312 0
-292 -481 0
-293 -482 0
-294 -483 0
-292 -325 0
-293 -326 0
-294 -327 0
-292 -595 0
-293 -596 0
-294 -597 0
-292 -328 0
-293 -329 0
-294 -330 0
-295 -502 0
-296 -503 0
-297 -504 0
-295 -562 0
-296 -563 0
-297 -564 0
-295 -301 0
-296 -302 0
-297 -303 0
-295 -313 0
-296 -314 0
-297 -315 0
-295 -598 0
-296 -599 0
-297 -600 0
-298 -763 0
-299 -764 0
-300 -765 0
-298 -829 0
-299 -830 0
-300 -831 0
-298 -565 0
-299 -566 0
-300 -567 0
-298 -898 0
-299 -899 0
-300 -900 0
-301 -802 0
-302 -803 0
-303 -804 0
-301 -679 0
-302 -680 0
-303 -681 0
-301 -1144 0
-302 -1145 0
-303 -1146 0
-304 -1330 0
-305 -1331 0
-306 -1332 0
-304 -880 0
-305 -881 0
-306 -882 0
-304 -328 0
-305 -329 0
-306 -330 0
-304 -1162 0
-305 -1163 0
-306 -1164 0
-307 -310 0
-308 -311 0
-309 -312 0
-307 -1342 0
-308 -1343 0
-309 -1344 0
-310 -313 0
-311 -314 0
-312 -315 0
-313 -1087 0
-314 -1088 0
-315 -1089 0
-313 -904 0
-314 -905 0
-315 -906 0
-316 -580 0
-317 -581 0
-318 -582 0
-316 -649 0
-317 -650 0
-318 -651 0
-316 -1039 0
-317 -1040 0
-318 -1041 0
-316 -751 0
-317 -752 0
-318 -753 0
-319 -724 0
-320 -725 0
-321 -726 0
-319 -1066 0
-320 -1067 0
-321 -1068 0
-319 -535 0
-320 -536 0
-321 -537 0
-319 -1045 0
-320 -1046 0
-321 -1047 0
-322 -661 0
-323 -662 0
-324 -663 0
-322 -631 0
-323 -632 0
-324 -633 0
-322 -406 0
-323 -407 0
-324 -408 0
-322 -667 0
-323 -668 0
-324 -669 0
-322 -973 0
-323 -974 0
-324 -975 0
-325 -448 0
-326 -449 0
-327 -450 0
-325 -547 0
-326 -548 0
-327 -549 0
-328 -484 0
-329 -485 0
-330 -486 0
-328 -334 0
-329 -335 0
-330 -336 0
-328 -409 0
-329 -410 0
-330 -411 0
-328 -361 0
-329 -362 0
-330 -363 0
-328 -451 0
-329 -452 0
-330 -453 0
-328 -388 0
-329 -389 0
-330 -390 0
-331 -910 0
-332 -911 0
-333 -912 0
-331 -730 0
-332 -731 0
-333 -732 0
-331 -454 0
-332 -455 0
-333 -456 0
-334 -661 0
-335 -662 0
-336 -663 0
-334 -1333 0
-335 -1334 0
-336 -1335 0
-334 -880 0
-335 -881 0
-336 -882 0
-334 -883 0
-335 -884 0
-336 -885 0
-334 -667 0
-335 -668 0
-336 -669 0
-334 -859 0
-335 -860 0
-336 -861 0
-337 -421 0
-338 -422 0
-339 -423 0
-337 -616 0
-338 -617 0
-339 -618 0
-340 -823 0
-341 -824 0
-342 -825 0
-340 -1351 0
-341 -1352 0
-342 -1353 0
-340 -1105 0
-341 -1106 0
-342 -1107 0
-340 -715 0
-341 -716 0
-342 -717 0
-340 -544 0
-341 -545 0
-342 -546 0
-343 -544 0
-344 -545 0
-345 -546 0
-343 -856 0
-344 -857 0
-345 -858 0
-343 -1048 0
-344 -1049 0
-345 -1050 0
-343 -1081 0
-344 -1082 0
-345 -1083 0
-343 -955 0
-344 -956 0
-345 -957 0
-346 -403 0
-347 -404 0
-348 -405 0
-346 -361 0
-347 -362 0
-348 -363 0
-346 -439 0
-347 -440 0
-348 -441 0
-346 -463 0
-347 -464 0
-348 -465 0
-346 -472 0
-347 -473 0
-348 -474 0
-349 -628 0
-350 -629 0
-351 -630 0
-349 -940 0
-350 -941 0
-351 -942 0
-349 -442 0
-350 -443 0
-351 -444 0
-349 -1051 0
-350 -1052 0
-351 -1053 0
-349 -1273 0
-350 -1274 0
-351 -1275 0
-352 -1189 0
-353 -1190 0
-354 -1191 0
-352 -640 0
-353 -641 0
-354 -642 0
-352 -406 0
-353 -407 0
-354 -408 0
-352 -748 0
-353 -749 0
-354 -750 0
-355 -925 0
-356 -926 0
-357 -927 0
-355 -1219 0
-356 -1220 0
-357 -1221 0
-355 -370 0
-356 -371 0
-357 -372 0
-355 -895 0
-356 -896 0
-357 -897 0
-355 -1030 0
-356 -1031 0
-357 -1032 0
-355 -643 0
-356 -644 0
-357 -645 0
-355 -1159 0
-356 -1160 0
-357 -1161 0
-358 -370 0
-359 -371 0
-360 -372 0
-358 -1159 0
-359 -1160 0
-360 -1161 0
-358 -760 0
-359 -761 0
-360 -762 0
-361 -1117 0
-362 -1118 0
-363 -1119 0
-361 -859 0
-362 -860 0
-363 -861 0
-364 -622 0
-365 -623 0
-366 -624 0
-364 -400 0
-365 -401 0
-366 -402 0
-364 -916 0
-365 -917 0
-366 -918 0
-364 -889 0
-365 -890 0
-366 -891 0
-364 -736 0
-365 -737 0
-366 -738 0
-367 -991 0
-368 -992 0
-369 -993 0
-367 -967 0
-368 -968 0
-369 -969 0
-367 -979 0
-368 -980 0
-369 -981 0
-367 -1273 0
-368 -1274 0
-369 -1275 0
-367 -454 0
-368 -455 0
-369 -456 0
-370 -403 0
-371 -404 0
-372 -405 0
-370 -457 0
-371 -458 0
-372 -459 0
-370 -466 0
-371 -467 0
-372 -468 0
-370 -475 0
-371 -476 0
-372 -477 0
-373 -421 0
-374 -422 0
-375 -423 0
-373 -985 0
-374 -986 0
-375 -987 0
-376 -820 0
-377 -821 0
-378 -822 0
-376 -571 0
-377 -572 0
-378 -573 0
-379 -667 0
-380 -668 0
-381 -669 0
-379 -487 0
-380 -488 0
-381 -489 0
-379 -646 0
-380 -647 0
-381 -648 0
-379 -1303 0
-380 -1304 0
-381 -1305 0
-382 -490 0
-383 -491 0
-384 -492 0
-382 -493 0
-383 -494 0
-384 -495 0
-382 -499 0
-383 -500 0
-384 -501 0
-382 -439 0
-383 -440 0
-384 -441 0
-382 -457 0
-383 -458 0
-384 -459 0
-382 -388 0
-383 -389 0
-384 -390 0
-385 -628 0
-386 -629 0
-387 -630 0
-385 -670 0
-386 -671 0
-387 -672 0
-385 -442 0
-386 -443 0
-387 -444 0
-385 -1057 0
-386 -1058 0
-387 -1059 0
-388 -1378 0
-389 -1379 0
-390 -1380 0
-388 -958 0
-389 -959 0
-390 -960 0
-388 -883 0
-389 -884 0
-390 -885 0
-388 -1162 0
-389 -1163 0
-390 -1164 0
-388 -1237 0
-389 -1238 0
-390 -1239 0
-391 -544 0
-392 -545 0
-393 -546 0
-391 -673 0
-392 -674 0
-393 -675 0
-391 -1063 0
-392 -1064 0
-393 -1065 0
-394 -805 0
-395 -806 0
-396 -807 0
-394 -592 0
-395 -593 0
-396 -594 0
-394 -1180 0
-395 -1181 0
-396 -1182 0
-394 -811 0
-395 -812 0
-396 -813 0
-394 -697 0
-395 -698 0
-396 -699 0
-397 -1288 0
-398 -1289 0
-399 -1290 0
-397 -406 0
-398 -407 0
-399 -408 0
-397 -943 0
-398 -944 0
-399 -945 0
-397 -1276 0
-398 -1277 0
-399 -1278 0
-400 -490 0
-401 -491 0
-402 -492 0
-400 -409 0
-401 -410 0
-402 -411 0
-400 -553 0
-401 -554 0
-402 -555 0
-400 -496 0
-401 -497 0
-402 -498 0
-400 -466 0
-401 -467 0
-402 -468 0
-403 -1273 0
-404 -1274 0
-405 -1275 0
-403 -1291 0
-404 -1292 0
-405 -1293 0
-403 -967 0
-404 -968 0
-405 -969 0
-403 -622 0
-404 -623 0
-405 -624 0
-403 -640 0
-404 -641 0
-405 -642 0
-406 -493 0
-407 -494 0
-408 -495 0
-406 -463 0
-407 -464 0
-408 -465 0
-409 -934 0
-410 -935 0
-411 -936 0
-409 -958 0
-410 -959 0
-411 -960 0
-409 -742 0
-410 -743 0
-411 -744 0
-409 -733 0
-410 -734 0
-411 -735 0
-409 -1276 0
-410 -1277 0
-411 -1278 0
-409 -736 0
-410 -737 0
-411 -738 0
-412 -532 0
-413 -533 0
-414 -534 0
-412 -475 0
-413 -476 0
-414 -477 0
-415 -535 0
-416 -536 0
-417 -537 0
-415 -637 0
-416 -638 0
-417 -639 0
-415 -1108 0
-416 -1109 0
-417 -1110 0
-415 -1045 0
-416 -1046 0
-417 -1047 0
-415 -688 0
-416 -689 0
-417 -690 0
-415 -946 0
-416 -947 0
-417 -948 0
-418 -988 0
-419 -989 0
-420 -990 0
-418 -625 0
-419 -626 0
-420 -627 0
-418 -529 0
-419 -530 0
-420 -531 0
-418 -1108 0
-419 -1109 0
-420 -1110 0
-418 -1045 0
-419 -1046 0
-420 -1047 0
-418 -1021 0
-419 -1022 0
-420 -1023 0
-421 -499 0
-422 -500 0
-423 -501 0
-421 -532 0
-422 -533 0
-423 -534 0
-421 -472 0
-422 -473 0
-423 -474 0
-424 -1177 0
-425 -1178 0
-426 -1179 0
-424 -1132 0
-425 -1133 0
-426 -1134 0
-424 -682 0
-425 -683 0
-426 -684 0
-424 -685 0
-425 -686 0
-426 -687 0
-424 -1042 0
-425 -1043 0
-426 -1044 0
-424 -595 0
-425 -596 0
-426 -597 0
-424 -757 0
-425 -758 0
-426 -759 0
-427 -1123 0
-428 -1124 0
-429 -1125 0
-427 -790 0
-428 -791 0
-429 -792 0
-427 -796 0
-428 -797 0
-429 -798 0
-427 -799 0
-428 -800 0
-429 -801 0
-427 -802 0
-428 -803 0
-429 -804 0
-427 -1141 0
-428 -1142 0
-429 -1143 0
-427 -808 0
-428 -809 0
-429 -810 0
-427 -685 0
-428 -686 0
-429 -687 0
-427 -697 0
-428 -698 0
-429 -699 0
-427 -595 0
-428 -596 0
-429 -597 0
-430 -1240 0
-431 -1241 0
-432 -1242 0
-430 -529 0
-431 -530 0
-432 -531 0
-430 -619 0
-431 -620 0
-432 -621 0
-433 -592 0
-434 -593 0
-435 -594 0
-433 -1120 0
-434 -1121 0
-435 -1122 0
-433 -1180 0
-434 -1181 0
-435 -1182 0
-433 -778 0
-434 -779 0
-435 -780 0
-436 -805 0
-437 -806 0
-438 -807 0
-436 -592 0
-437 -593 0
-438 -594 0
-436 -1120 0
-437 -1121 0
-438 -1122 0
-436 -1009 0
-437 -1010 0
-438 -1011 0
-436 -1024 0
-437 -1025 0
-438 -1026 0
-439 -712 0
-440 -713 0
-441 -714 0
-439 -1165 0
-440 -1166 0
-441 -1167 0
-439 -655 0
-440 -656 0
-441 -657 0
-439 -979 0
-440 -980 0
-441 -981 0
-439 -1273 0
-440 -1274 0
-441 -1275 0
-442 -550 0
-443 -551 0
-444 -552 0
-442 -448 0
-443 -449 0
-444 -450 0
-442 -451 0
-443 -452 0
-444 -453 0
-445 -991 0
-446 -992 0
-447 -993 0
-445 -1084 0
-446 -1085 0
-447 -1086 0
-445 -730 0
-446 -731 0
-447 -732 0
-445 -673 0
-446 -674 0
-447 -675 0
-445 -760 0
-446 -761 0
-447 -762 0
-445 -454 0
-446 -455 0
-447 -456 0
-448 -1057 0
-449 -1058 0
-450 -1059 0
-448 -1105 0
-449 -1106 0
-450 -1107 0
-448 -817 0
-449 -818 0
-450 -819 0
-448 -694 0
-449 -695 0
-450 -696 0
-448 -1051 0
-449 -1052 0
-450 -1053 0
-448 -793 0
-449 -794 0
-450 -795 0
-451 -940 0
-452 -941 0
-453 -942 0
-451 -694 0
-452 -695 0
-453 -696 0
-454 -550 0
-455 -551 0
-456 -552 0
-457 -928 0
-458 -929 0
-459 -930 0
-457 -628 0
-458 -629 0
-459 -630 0
-457 -670 0
-458 -671 0
-459 -672 0
-457 -1273 0
-458 -1274 0
-459 -1275 0
-460 -1339 0
-461 -1340 0
-462 -1341 0
-460 -1111 0
-461 -1112 0
-462 -1113 0
-460 -544 0
-461 -545 0
-462 -546 0
-460 -1210 0
-461 -1211 0
-462 -1212 0
-460 -1081 0
-461 -1082 0
-462 -1083 0
-463 -973 0
-464 -974 0
-465 -975 0
-463 -1165 0
-464 -1166 0
-465 -1167 0
-463 -1138 0
-464 -1139 0
-465 -1140 0
-466 -973 0
-467 -974 0
-468 -975 0
-466 -1138 0
-467 -1139 0
-468 -1140 0
-469 -994 0
-470 -995 0
-471 -996 0
-469 -1003 0
-470 -1004 0
-471 -1005 0
-472 -1282 0
-473 -1283 0
-474 -1284 0
-472 -655 0
-473 -656 0
-474 -657 0
-472 -1201 0
-473 -1202 0
-474 -1203 0
-475 -892 0
-476 -893 0
-477 -894 0
-475 -832 0
-476 -833 0
-477 -834 0
-475 -826 0
-476 -827 0
-477 -828 0
-478 -535 0
-479 -536 0
-480 -537 0
-478 -946 0
-479 -947 0
-480 -948 0
-478 -949 0
-479 -950 0
-480 -951 0
-478 -1198 0
-479 -1199 0
-480 -1200 0
-481 -484 0
-482 -485 0
-483 -486 0
-481 -553 0
-482 -554 0
-483 -555 0
-484 -1192 0
-485 -1193 0
-486 -1194 0
-484 -667 0
-485 -668 0
-486 -669 0
-484 -646 0
-485 -647 0
-486 -648 0
-484 -952 0
-485 -953 0
-486 -954 0
-484 -1276 0
-485 -1277 0
-486 -1278 0
-490 -931 0
-491 -932 0
-492 -933 0
-490 -754 0
-491 -755 0
-492 -756 0
-490 -958 0
-491 -959 0
-492 -960 0
-490 -1168 0
-491 -1169 0
-492 -1170 0
-493 -1288 0
-494 -1289 0
-495 -1290 0
-493 -1153 0
-494 -1154 0
-495 -1155 0
-493 -1165 0
-494 -1166 0
-495 -1167 0
-493 -1054 0
-494 -1055 0
-495 -1056 0
-496 -1195 0
-497 -1196 0
-498 -1197 0
-496 -1255 0
-497 -1256 0
-498 -1257 0
-496 -1168 0
-497 -1169 0
-498 -1170 0
-496 -1138 0
-497 -1139 0
-498 -1140 0
-499 -655 0
-500 -656 0
-501 -657 0
-499 -1363 0
-500 -1364 0
-501 -1365 0
-502 -1087 0
-503 -1088 0
-504 -1089 0
-502 -865 0
-503 -866 0
-504 -867 0
-505 -577 0
-506 -578 0
-507 -579 0
-505 -601 0
-506 -602 0
-507 -603 0
-508 -634 0
-509 -635 0
-510 -636 0
-508 -1234 0
-509 -1235 0
-510 -1236 0
-508 -1297 0
-509 -1298 0
-510 -1299 0
-511 -580 0
-512 -581 0
-513 -582 0
-511 -1039 0
-512 -1040 0
-513 -1041 0
-511 -841 0
-512 -842 0
-513 -843 0
-514 -868 0
-515 -869 0
-516 -870 0
-514 -1009 0
-515 -1010 0
-516 -1011 0
-514 -592 0
-515 -593 0
-516 -594 0
-514 -1369 0
-515 -1370 0
-516 -1371 0
-517 -1354 0
-518 -1355 0
-519 -1356 0
-517 -1357 0
-518 -1358 0
-519 -1359 0
-517 -592 0
-518 -593 0
-519 -594 0
-517 -1369 0
-518 -1370 0
-519 -1371 0
-520 -994 0
-521 -995 0
-522 -996 0
-520 -1375 0
-521 -1376 0
-522 -1377 0
-520 -721 0
-521 -722 0
-522 -723 0
-523 -643 0
-524 -644 0
-525 -645 0
-523 -526 0
-524 -527 0
-525 -528 0
-523 -1366 0
-524 -1367 0
-525 -1368 0
-523 -784 0
-524 -785 0
-525 -786 0
-526 -577 0
-527 -578 0
-528 -579 0
-526 -604 0
-527 -605 0
-528 -606 0
-532 -625 0
-533 -626 0
-534 -627 0
-532 -637 0
-533 -638 0
-534 -639 0
-532 -1363 0
-533 -1364 0
-534 -1365 0
-532 -616 0
-533 -617 0
-534 -618 0
-538 -676 0
-539 -677 0
-540 -678 0
-538 -652 0
-539 -653 0
-540 -654 0
-538 -1042 0
-539 -1043 0
-540 -1044 0
-538 -595 0
-539 -596 0
-540 -597 0
-541 -544 0
-542 -545 0
-543 -546 0
-541 -1048 0
-542 -1049 0
-543 -1050 0
-541 -1060 0
-542 -1061 0
-543 -1062 0
-544 -589 0
-545 -590 0
-546 -591 0
-544 -547 0
-545 -548 0
-546 -549 0
-547 -1351 0
-548 -1352 0
-549 -1353 0
-547 -1063 0
-548 -1064 0
-549 -1065 0
-550 -1114 0
-551 -1115 0
-552 -1116 0
-550 -670 0
-551 -671 0
-552 -672 0
-550 -1273 0
-551 -1274 0
-552 -1275 0
-553 -664 0
-554 -665 0
-555 -666 0
-553 -1018 0
-554 -1019 0
-555 -1020 0
-553 -1276 0
-554 -1277 0
-555 -1278 0
-556 -565 0
-557 -566 0
-558 -567 0
-556 -763 0
-557 -764 0
-558 -765 0
-559 -1123 0
-560 -1124 0
-561 -1125 0
-559 -1372 0
-560 -1373 0
-561 -1374 0
-559 -961 0
-560 -962 0
-561 -963 0
-559 -565 0
-560 -566 0
-561 -567 0
-559 -898 0
-560 -899 0
-561 -900 0
-559 -1141 0
-560 -1142 0
-561 -1143 0
-562 -1171 0
-563 -1172 0
-564 -1173 0
-562 -676 0
-563 -677 0
-564 -678 0
-562 -1129 0
-563 -1130 0
-564 -1131 0
-562 -1093 0
-563 -1094 0
-564 -1095 0
-562 -937 0
-563 -938 0
-564 -939 0
-562 -1042 0
-563 -1043 0
-564 -1044 0
-562 -679 0
-563 -680 0
-564 -681 0
-562 -682 0
-563 -683 0
-564 -684 0
-565 -568 0
-566 -569 0
-567 -570 0
-568 -961 0
-569 -962 0
-570 -963 0
-568 -901 0
-569 -902 0
-570 -903 0
-568 -829 0
-569 -830 0
-570 -831 0
-568 -1012 0
-569 -1013 0
-570 -1014 0
-577 -1354 0
-578 -1355 0
-579 -1356 0
-577 -871 0
-578 -872 0
-579 -873 0
-577 -970 0
-578 -971 0
-579 -972 0
-577 -841 0
-578 -842 0
-579 -843 0
-577 -1369 0
-578 -1370 0
-579 -1371 0
-583 -1129 0
-584 -1130 0
-585 -1131 0
-583 -586 0
-584 -587 0
-585 -588 0
-583 -1132 0
-584 -1133 0
-585 -1134 0
-586 -601 0
-587 -602 0
-588 -603 0
-586 -604 0
-587 -605 0
-588 -606 0
-589 -1105 0
-590 -1106 0
-591 -1107 0
-589 -1111 0
-590 -1112 0
-591 -1113 0
-589 -673 0
-590 -674 0
-591 -675 0
-592 -607 0
-593 -608 0
-594 -609 0
-595 -610 0
-596 -611 0
-597 -612 0
-595 -598 0
-596 -599 0
-597 -600 0
-598 -1132 0
-599 -1133 0
-600 -1134 0
-598 -1135 0
-599 -1136 0
-600 -1137 0
-601 -1285 0
-602 -1286 0
-603 -1287 0
-601 -718 0
-602 -719 0
-603 -720 0
-604 -772 0
-605 -773 0
-606 -774 0
-604 -775 0
-605 -776 0
-606 -777 0
-607 -1354 0
-608 -1355 0
-609 -1356 0
-607 -778 0
-608 -779 0
-609 -780 0
-607 -1024 0
-608 -1025 0
-609 -1026 0
-607 -787 0
-608 -788 0
-609 -789 0
-610 -676 0
-611 -677 0
-612 -678 0
-610 -1141 0
-611 -1142 0
-612 -1143 0
-610 -682 0
-611 -683 0
-612 -684 0
-610 -1372 0
-611 -1373 0
-612 -1374 0
-613 -1381 0
-614 -1382 0
-615 -1383 0
-616 -1318 0
-617 -1319 0
-618 -1320 0
-622 -706 0
-623 -707 0
-624 -708 0
-622 -730 0
-623 -731 0
-624 -732 0
-622 -691 0
-623 -692 0
-624 -693 0
-625 -1312 0
-626 -1313 0
-627 -1314 0
-628 -880 0
-629 -881 0
-630 -882 0
-634 -937 0
-635 -938 0
-636 -939 0
-634 -691 0
-635 -692 0
-636 -693 0
-634 -904 0
-635 -905 0
-636 -906 0
-637 -1318 0
-638 -1319 0
-639 -1320 0
-640 -763 0
-641 -764 0
-642 -765 0
-640 -817 0
-641 -818 0
-642 -819 0
-640 -694 0
-641 -695 0
-642 -696 0
-640 -1150 0
-641 -1151 0
-642 -1152 0
-643 -721 0
-644 -722 0
-645 -723 0
-649 -685 0
-650 -686 0
-651 -687 0
-649 -697 0
-650 -698 0
-651 -699 0
-652 -1243 0
-653 -1244 0
-654 -1245 0
-658 -1285 0
-659 -1286 0
-660 -1287 0
-658 -718 0
-659 -719 0
-660 -720 0
-658 -700 0
-659 -701 0
-660 -702 0
-661 -709 0
-662 -710 0
-663 -711 0
-661 -1078 0
-662 -1079 0
-663 -1080 0
-661 -703 0
-662 -704 0
-663 -705 0
-664 -712 0
-665 -713 0
-666 -714 0
-664 -715 0
-665 -716 0
-666 -717 0
-667 -928 0
-668 -929 0
-669 -930 0
-667 -955 0
-668 -956 0
-669 -957 0
-670 -1336 0
-671 -1337 0
-672 -1338 0
-673 -862 0
-674 -863 0
-675 -864 0
-676 -1036 0
-677 -1037 0
-678 -1038 0
-679 -886 0
-680 -887 0
-681 -888 0
-682 -1243 0
-683 -1244 0
-684 -1245 0
-682 -778 0
-683 -779 0
-684 -780 0
-685 -1264 0
-686 -1265 0
-687 -1266 0
-685 -766 0
-686 -767 0
-687 -768 0
-688 -733 0
-689 -734 0
-690 -735 0
-691 -1027 0
-692 -1028 0
-693 -1029 0
-691 -844 0
-692 -845 0
-693 -846 0
-694 -1054 0
-695 -1055 0
-696 -1056 0
-697 -775 0
-698 -776 0
-699 -777 0
-697 -784 0
-698 -785 0
-699 -786 0
-700 -1039 0
-701 -1040 0
-702 -1041 0
-700 -751 0
-701 -752 0
-702 -753 0
-703 -874 0
-704 -875 0
-705 -876 0
-706 -1000 0
-707 -1001 0
-708 -1002 0
-706 -889 0
-707 -890 0
-708 -891 0
-709 -973 0
-710 -974 0
-711 -975 0
-709 -859 0
-710 -860 0
-711 -861 0
-712 -1018 0
-713 -1019 0
-714 -1020 0
-715 -850 0
-716 -851 0
-717 -852 0
-715 -1270 0
-716 -1271 0
-717 -1272 0
-718 -757 0
-719 -758 0
-720 -759 0
-718 -796 0
-719 -797 0
-720 -798 0
-721 -820 0
-722 -821 0
-723 -822 0
-724 -1381 0
-725 -1382 0
-726 -1383 0
-727 -994 0
-728 -995 0
-729 -996 0
-730 -1267 0
-731 -1268 0
-732 -1269 0
-730 -733 0
-731 -734 0
-732 -735 0
-730 -838 0
-731 -839 0
-732 -840 0
-730 -745 0
-731 -746 0
-732 -747 0
-730 -862 0
-731 -863 0
-732 -864 0
-730 -736 0
-731 -737 0
-732 -738 0
-733 -1348 0
-734 -1349 0
-735 -1350 0
-733 -832 0
-734 -833 0
-735 -834 0
-733 -739 0
-734 -740 0
-735 -741 0
-733 -826 0
-734 -827 0
-735 -828 0
-736 -1033 0
-737 -1034 0
-738 -1035 0
-736 -760 0
-737 -761 0
-738 -762 0
-739 -742 0
-740 -743 0
-741 -744 0
-739 -838 0
-740 -839 0
-741 -840 0
-739 -748 0
-740 -749 0
-741 -750 0
-742 -781 0
-743 -782 0
-744 -783 0
-745 -1249 0
-746 -1250 0
-747 -1251 0
-748 -892 0
-749 -893 0
-750 -894 0
-748 -763 0
-749 -764 0
-750 -765 0
-748 -832 0
-749 -833 0
-750 -834 0
-751 -772 0
-752 -773 0
-753 -774 0
-754 -946 0
-755 -947 0
-756 -948 0
-754 -949 0
-755 -950 0
-756 -951 0
-757 -778 0
-758 -779 0
-759 -780 0
-757 -787 0
-758 -788 0
-759 -789 0
-763 -838 0
-764 -839 0
-765 -840 0
-766 -814 0
-767 -815 0
-768 -816 0
-769 -877 0
-770 -878 0
-771 -879 0
-769 -853 0
-770 -854 0
-771 -855 0
-769 -940 0
-770 -941 0
-771 -942 0
-772 -799 0
-773 -800 0
-774 -801 0
-772 -790 0
-773 -791 0
-774 -792 0
-775 -805 0
-776 -806 0
-777 -807 0
-775 -790 0
-776 -791 0
-777 -792 0
-778 -1093 0
-779 -1094 0
-780 -1095 0
-781 -1327 0
-782 -1328 0
-783 -1329 0
-781 -1213 0
-782 -1214 0
-783 -1215 0
-784 -868 0
-785 -869 0
-786 -870 0
-784 -802 0
-785 -803 0
-786 -804 0
-787 -808 0
-788 -809 0
-789 -810 0
-787 -796 0
-788 -797 0
-789 -798 0
-793 -1204 0
-794 -1205 0
-795 -1206 0
-796 -1258 0
-797 -1259 0
-798 -1260 0
-802 -1264 0
-803 -1265 0
-804 -1266 0
-802 -1261 0
-803 -1262 0
-804 -1263 0
-802 -1366 0
-803 -1367 0
-804 -1368 0
-808 -1366 0
-809 -1367 0
-810 -1368 0
-808 -1024 0
-809 -1025 0
-810 -1026 0
-811 -1285 0
-812 -1286 0
-813 -1287 0
-814 -1072 0
-815 -1073 0
-816 -1074 0
-817 -1027 0
-818 -1028 0
-819 -1029 0
-817 -895 0
-818 -896 0
-819 -897 0
-817 -1267 0
-818 -1268 0
-819 -1269 0
-817 -943 0
-818 -944 0
-819 -945 0
-817 -862 0
-818 -863 0
-819 -864 0
-823 -847 0
-824 -848 0
-825 -849 0
-823 -850 0
-824 -851 0
-825 -852 0
-823 -1204 0
-824 -1205 0
-825 -1206 0
-826 -907 0
-827 -908 0
-828 -909 0
-829 -871 0
-830 -872 0
-831 -873 0
-829 -841 0
-830 -842 0
-831 -843 0
-835 -1027 0
-836 -1028 0
-837 -1029 0
-835 -895 0
-836 -896 0
-837 -897 0
-835 -844 0
-836 -845 0
-837 -846 0
-835 -1300 0
-836 -1301 0
-837 -1302 0
-838 -910 0
-839 -911 0
-840 -912 0
-838 -1150 0
-839 -1151 0
-840 -1152 0
-841 -898 0
-842 -899 0
-843 -900 0
-841 -961 0
-842 -962 0
-843 -963 0
-844 -1198 0
-845 -1199 0
-846 -1200 0
-847 -874 0
-848 -875 0
-849 -876 0
-850 -1348 0
-851 -1349 0
-852 -1350 0
-853 -1345 0
-854 -1346 0
-855 -1347 0
-853 -1162 0
-854 -1163 0
-855 -1164 0
-856 -931 0
-857 -932 0
-858 -933 0
-856 -964 0
-857 -965 0
-858 -966 0
-856 -1156 0
-857 -1157 0
-858 -1158 0
-856 -919 0
-857 -920 0
-858 -921 0
-856 -952 0
-857 -953 0
-858 -954 0
-859 -1051 0
-860 -1052 0
-861 -1053 0
-862 -1033 0
-863 -1034 0
-864 -1035 0
-865 -994 0
-866 -995 0
-867 -996 0
-865 -1003 0
-866 -1004 0
-867 -1005 0
-868 -901 0
-869 -902 0
-870 -903 0
-868 -1012 0
-869 -1013 0
-870 -1014 0
-868 -1222 0
-869 -1223 0
-870 -1224 0
-871 -901 0
-872 -902 0
-873 -903 0
-877 -991 0
-878 -992 0
-879 -993 0
-877 -1348 0
-878 -1349 0
-879 -1350 0
-877 -979 0
-878 -980 0
-879 -981 0
-880 -1384 0
-881 -1385 0
-882 -1386 0
-880 -1099 0
-881 -1100 0
-882 -1101 0
-880 -1051 0
-881 -1052 0
-882 -1053 0
-880 -1057 0
-881 -1058 0
-882 -1059 0
-883 -1057 0
-884 -1058 0
-885 -1059 0
-883 -1078 0
-884 -1079 0
-885 -1080 0
-886 -1171 0
-887 -1172 0
-888 -1173 0
-886 -1285 0
-887 -1286 0
-888 -1287 0
-889 -1159 0
-890 -1160 0
-891 -1161 0
-892 -1189 0
-893 -1190 0
-894 -1191 0
-895 -1384 0
-896 -1385 0
-897 -1386 0
-895 -988 0
-896 -989 0
-897 -990 0
-895 -1057 0
-896 -1058 0
-897 -1059 0
-895 -1249 0
-896 -1250 0
-897 -1251 0
-895 -1252 0
-896 -1253 0
-897 -1254 0
-895 -1021 0
-896 -1022 0
-897 -1023 0
-895 -985 0
-896 -986 0
-897 -987 0
-898 -1036 0
-899 -1037 0
-900 -1038 0
-898 -1246 0
-899 -1247 0
-900 -1248 0
-901 -1171 0
-902 -1172 0
-903 -1173 0
-904 -1234 0
-905 -1235 0
-906 -1236 0
-907 -997 0
-908 -998 0
-909 -999 0
-913 -1000 0
-914 -1001 0
-915 -1002 0
-916 -1153 0
-917 -1154 0
-918 -1155 0
-919 -1327 0
-920 -1328 0
-921 -1329 0
-919 -1015 0
-920 -1016 0
-921 -1017 0
-922 -1030 0
-923 -1031 0
-924 -1032 0
-922 -1006 0
-923 -1007 0
-924 -1008 0
-922 -973 0
-923 -974 0
-924 -975 0
-922 -1219 0
-923 -1220 0
-924 -1221 0
-922 -982 0
-923 -983 0
-924 -984 0
-925 -1213 0
-926 -1214 0
-927 -1215 0
-925 -985 0
-926 -986 0
-927 -987 0
-928 -1192 0
-929 -1193 0
-930 -1194 0
-928 -1303 0
-929 -1304 0
-930 -1305 0
-931 -1081 0
-932 -1082 0
-933 -1083 0
-934 -991 0
-935 -992 0
-936 -993 0
-934 -1348 0
-935 -1349 0
-936 -1350 0
-934 -967 0
-935 -968 0
-936 -969 0
-937 -1036 0
-938 -1037 0
-939 -1038 0
-937 -970 0
-938 -971 0
-939 -972 0
-937 -1246 0
-938 -1247 0
-939 -1248 0
-940 -1102 0
-941 -1103 0
-942 -1104 0
-940 -1345 0
-941 -1346 0
-942 -1347 0
-940 -1054 0
-941 -1055 0
-942 -1056 0
-943 -988 0
-944 -989 0
-945 -990 0
-943 -1033 0
-944 -1034 0
-945 -1035 0
-943 -1345 0
-944 -1346 0
-945 -1347 0
-946 -1195 0
-947 -1196 0
-948 -1197 0
-946 -1168 0
-947 -1169 0
-948 -1170 0
-949 -1213 0
-950 -1214 0
-951 -1215 0
-952 -1336 0
-953 -1337 0
-954 -1338 0
-952 -1219 0
-953 -1220 0
-954 -1221 0
-952 -955 0
-953 -956 0
-954 -957 0
-955 -1333 0
-956 -1334 0
-957 -1335 0
-958 -991 0
-959 -992 0
-960 -993 0
-958 -1111 0
-959 -1112 0
-960 -1113 0
-958 -1081 0
-959 -1082 0
-960 -1083 0
-961 -1009 0
-962 -1010 0
-963 -1011 0
-961 -1024 0
-962 -1025 0
-963 -1026 0
-964 -1327 0
-965 -1328 0
-966 -1329 0
-964 -1336 0
-965 -1337 0
-966 -1338 0
-964 -976 0
-965 -977 0
-966 -978 0
-967 -1216 0
-968 -1217 0
-969 -1218 0
-970 -1093 0
-971 -1094 0
-972 -1095 0
-970 -1075 0
-971 -1076 0
-972 -1077 0
-976 -1249 0
-977 -1250 0
-978 -1251 0
-982 -1156 0
-983 -1157 0
-984 -1158 0
-991 -1030 0
-992 -1031 0
-993 -1032 0
-997 -1183 0
-998 -1184 0
-999 -1185 0
-997 -1147 0
-998 -1148 0
-999 -1149 0
-1003 -1087 0
-1004 -1088 0
-1005 -1089 0
-1006 -1249 0
-1007 -1250 0
-1008 -1251 0
-1006 -1294 0
-1007 -1295 0
-1008 -1296 0
-1006 -1252 0
-1007 -1253 0
-1008 -1254 0
-1009 -1012 0
-1010 -1013 0
-1011 -1014 0
-1012 -1321 0
-1013 -1322 0
-1014 -1323 0
-1015 -1330 0
-1016 -1331 0
-1017 -1332 0
-1018 -1258 0
-1019 -1259 0
-1020 -1260 0
-1018 -1210 0
-1019 -1211 0
-1020 -1212 0
-1018 -1165 0
-1019 -1166 0
-1020 -1167 0
-1021 -1168 0
-1022 -1169 0
-1023 -1170 0
-1021 -1255 0
-1022 -1256 0
-1023 -1257 0
-1024 -1141 0
-1025 -1142 0
-1026 -1143 0
-1027 -1096 0
-1028 -1097 0
-1029 -1098 0
-1027 -1150 0
-1028 -1151 0
-1029 -1152 0
-1030 -1084 0
-1031 -1085 0
-1032 -1086 0
-1030 -1252 0
-1031 -1253 0
-1032 -1254 0
-1033 -1309 0
-1034 -1310 0
-1035 -1311 0
-1033 -1276 0
-1034 -1277 0
-1035 -1278 0
-1036 -1372 0
-1037 -1373 0
-1038 -1374 0
-1042 -1207 0
-1043 -1208 0
-1044 -1209 0
-1045 -1381 0
-1046 -1382 0
-1047 -1383 0
-1051 -1288 0
-1052 -1289 0
-1053 -1290 0
-1051 -1054 0
-1052 -1055 0
-1053 -1056 0
-1057 -1162 0
-1058 -1163 0
-1059 -1164 0
-1060 -1207 0
-1061 -1208 0
-1062 -1209 0
-1060 -1204 0
-1061 -1205 0
-1062 -1206 0
-1063 -1258 0
-1064 -1259 0
-1065 -1260 0
-1069 -1246 0
-1070 -1247 0
-1071 -1248 0
-1075 -1126 0
-1076 -1127 0
-1077 -1128 0
-1078 -1153 0
-1079 -1154 0
-1080 -1155 0
-1078 -1237 0
-1079 -1238 0
-1080 -1239 0
-1081 -1378 0
-1082 -1379 0
-1083 -1380 0
-1087 -1117 0
-1088 -1118 0
-1089 -1119 0
-1087 -1234 0
-1088 -1235 0
-1089 -1236 0
-1090 -1297 0
-1091 -1298 0
-1092 -1299 0
-1093 -1354 0
-1094 -1355 0
-1095 -1356 0
-1096 -1315 0
-1097 -1316 0
-1098 -1317 0
-1099 -1324 0
-1100 -1325 0
-1101 -1326 0
-1102 -1207 0
-1103 -1208 0
-1104 -1209 0
-1105 -1288 0
-1106 -1289 0
-1107 -1290 0
-1105 -1204 0
-1106 -1205 0
-1107 -1206 0
-1108 -1165 0
-1109 -1166 0
-1110 -1167 0
-1108 -1138 0
-1109 -1139 0
-1110 -1140 0
-1108 -1168 0
-1109 -1169 0
-1110 -1170 0
-1111 -1288 0
-1112 -1289 0
-1113 -1290 0
-1111 -1276 0
-1112 -1277 0
-1113 -1278 0
-1114 -1312 0
-1115 -1313 0
-1116 -1314 0
-1117 -1315 0
-1118 -1316 0
-1119 -1317 0
-1123 -1258 0
-1124 -1259 0
-1125 -1260 0
-1126 -1321 0
-1127 -1322 0
-1128 -1323 0
-1129 -1243 0
-1130 -1244 0
-1131 -1245 0
-1129 -1270 0
-1130 -1271 0
-1131 -1272 0
-1135 -1261 0
-1136 -1262 0
-1137 -1263 0
-1141 -1261 0
-1142 -1262 0
-1143 -1263 0
-1144 -1264 0
-1145 -1265 0
-1146 -1266 0
-1150 -1315 0
-1151 -1316 0
-1152 -1317 0
-1162 -1252 0
-1163 -1253 0
-1164 -1254 0
-1171 -1270 0
-1172 -1271 0
-1173 -1272 0
-1171 -1222 0
-1172 -1223 0
-1173 -1224 0
-1174 -1183 0
-1175 -1184 0
-1176 -1185 0
-1174 -1279 0
-1175 -1280 0
-1176 -1281 0
-1177 -1375 0
-1178 -1376 0
-1179 -1377 0
-1177 -1243 0
-1178 -1244 0
-1179 -1245 0
-1180 -1285 0
-1181 -1286 0
-1182 -1287 0
-1183 -1327 0
-1184 -1328 0
-1185 -1329 0
-1183 -1213 0
-1184 -1214 0
-1185 -1215 0
-1183 -1225 0
-1184 -1226 0
-1185 -1227 0
-1186 -1240 0
-1187 -1241 0
-1188 -1242 0
-1189 -1300 0
-1190 -1301 0
-1191 -1302 0
-1192 -1339 0
-1193 -1340 0
-1194 -1341 0
-1192 -1210 0
-1193 -1211 0
-1194 -1212 0
-1192 -1219 0
-1193 -1220 0
-1194 -1221 0
-1195 -1279 0
-1196 -1280 0
-1197 -1281 0
-1201 -1225 0
-1202 -1226 0
-1203 -1227 0
-1210 -1309 0
-1211 -1310 0
-1212 -1311 0
-1210 -1276 0
-1211 -1277 0
-1212 -1278 0
-1216 -1258 0
-1217 -1259 0
-1218 -1260 0
-1219 -1249 0
-1220 -1250 0
-1221 -1251 0
-1225 -1282 0
-1226 -1283 0
-1227 -1284 0
-1228 -1267 0
-1229 -1268 0
-1230 -1269 0
-1231 -1324 0
-1232 -1325 0
-1233 -1326 0
-1237 -1309 0
-1238 -1310 0
-1239 -1311 0
-1249 -1267 0
-1250 -1268 0
-1251 -1269 0
-1249 -1336 0
-1250 -1337 0
-1251 -1338 0
-1255 -1282 0
-1256 -1283 0
-1257 -1284 0
-1255 -1384 0
-1256 -1385 0
-1257 -1386 0
-1264 -1306 0
-1265 -1307 0
-1266 -1308 0
-1270 -1285 0
-1271 -1286 0
-1272 -1287 0
-1270 -1348 0
-1271 -1349 0
-1272 -1350 0
-1270 -1351 0
-1271 -1352 0
-1272 -1353 0
-1291 -1318 0
-1292 -1319 0
-1293 -1320 0
-1312 -1363 0
-1313 -1364 0
-1314 -1365 0
-1324 -1384 0
-1325 -1385 0
-1326 -1386 0
-1324 -1360 0
-1325 -1361 0
-1326 -1362 0
-1333 -1345 0
-1334 -1346 0
-1335 -1347 0
-1339 -1378 0
-1340 -1379 0
-1341 -1380 0
-1339 -1360 0
-1340 -1361 0
-1341 -1362 0
-1342 -1375 0
-1343 -1376 0
-1344 -1377 0
1 0
26 0
