p cnf 1977 5719
1 2 3 0
4 5 6 0
7 8 9 0
10 11 12 0
13 14 15 0
16 17 18 0
19 20 21 0
22 23 24 0
25 26 27 0
28 29 30 0
31 32 33 0
34 35 36 0
37 38 39 0
40 41 42 0
43 44 45 0
46 47 48 0
49 50 51 0
52 53 54 0
55 56 57 0
58 59 60 0
61 62 63 0
64 65 66 0
67 68 69 0
70 71 72 0
73 74 75 0
76 77 78 0
79 80 81 0
82 83 84 0
85 86 87 0
88 89 90 0
91 92 93 0
94 95 96 0
97 98 99 0
100 101 102 0
103 104 105 0
106 107 108 0
109 110 111 0
112 113 114 0
115 116 117 0
118 119 120 0
121 122 123 0
124 125 126 0
127 128 129 0
130 131 132 0
133 134 135 0
136 137 138 0
139 140 141 0
142 143 144 0
145 146 147 0
148 149 150 0
151 152 153 0
154 155 156 0
157 158 159 0
160 161 162 0
163 164 165 0
166 167 168 0
169 170 171 0
172 173 174 0
175 176 177 0
178 179 180 0
181 182 183 0
184 185 186 0
187 188 189 0
190 191 192 0
193 194 195 0
196 197 198 0
199 200 201 0
202 203 204 0
205 206 207 0
208 209 210 0
211 212 213 0
214 215 216 0
217 218 219 0
220 221 222 0
223 224 225 0
226 227 228 0
229 230 231 0
232 233 234 0
235 236 237 0
238 239 240 0
241 242 243 0
244 245 246 0
247 248 249 0
250 251 252 0
253 254 255 0
256 257 258 0
259 260 261 0
262 263 264 0
265 266 267 0
268 269 270 0
271 272 273 0
274 275 276 0
277 278 279 0
280 281 282 0
283 284 285 0
286 287 288 0
289 290 291 0
292 293 294 0
295 296 297 0
298 299 300 0
301 302 303 0
304 305 306 0
307 308 309 0
310 311 312 0
313 314 315 0
316 317 318 0
319 320 321 0
322 323 324 0
325 326 327 0
328 329 330 0
331 332 333 0
334 335 336 0
337 338 339 0
340 341 342 0
343 344 345 0
346 347 348 0
349 350 351 0
352 353 354 0
355 356 357 0
358 359 360 0
361 362 363 0
364 365 366 0
367 368 369 0
370 371 372 0
373 374 375 0
376 377 378 0
379 380 381 0
382 383 384 0
385 386 387 0
388 389 390 0
391 392 393 0
394 395 396 0
397 398 399 0
400 401 402 0
403 404 405 0
406 407 408 0
409 410 411 0
412 413 414 0
415 416 417 0
418 419 420 0
421 422 423 0
424 425 426 0
427 428 429 0
430 431 432 0
433 434 435 0
436 437 438 0
439 440 441 0
442 443 444 0
445 446 447 0
448 449 450 0
451 452 453 0
454 455 456 0
457 458 459 0
460 461 462 0
463 464 465 0
466 467 468 0
469 470 471 0
472 473 474 0
475 476 477 0
478 479 480 0
481 482 483 0
484 485 486 0
487 488 489 0
490 491 492 0
493 494 495 0
496 497 498 0
499 500 501 0
502 503 504 0
505 506 507 0
508 509 510 0
511 512 513 0
514 515 516 0
517 518 519 0
520 521 522 0
523 524 525 0
526 527 528 0
529 530 531 0
532 533 534 0
535 536 537 0
538 539 540 0
541 542 543 0
544 545 546 0
547 548 549 0
550 551 552 0
553 554 555 0
556 557 558 0
559 560 561 0
562 563 564 0
565 566 567 0
568 569 570 0
571 572 573 0
574 575 576 0
577 578 579 0
580 581 582 0
583 584 585 0
586 587 588 0
589 590 591 0
592 593 594 0
595 596 597 0
598 599 600 0
601 602 603 0
604 605 606 0
607 608 609 0
610 611 612 0
613 614 615 0
616 617 618 0
619 620 621 0
622 623 624 0
625 626 627 0
628 629 630 0
631 632 633 0
634 635 636 0
637 638 639 0
640 641 642 0
643 644 645 0
646 647 648 0
649 650 651 0
652 653 654 0
655 656 657 0
658 659 660 0
661 662 663 0
664 665 666 0
667 668 669 0
670 671 672 0
673 674 675 0
676 677 678 0
679 680 681 0
682 683 684 0
685 686 687 0
688 689 690 0
691 692 693 0
694 695 696 0
697 698 699 0
700 701 702 0
703 704 705 0
706 707 708 0
709 710 711 0
712 713 714 0
715 716 717 0
718 719 720 0
721 722 723 0
724 725 726 0
727 728 729 0
730 731 732 0
733 734 735 0
736 737 738 0
739 740 741 0
742 743 744 0
745 746 747 0
748 749 750 0
751 752 753 0
754 755 756 0
757 758 759 0
760 761 762 0
763 764 765 0
766 767 768 0
769 770 771 0
772 773 774 0
775 776 777 0
778 779 780 0
781 782 783 0
784 785 786 0
787 788 789 0
790 791 792 0
793 794 795 0
796 797 798 0
799 800 801 0
802 803 804 0
805 806 807 0
808 809 810 0
811 812 813 0
814 815 816 0
817 818 819 0
820 821 822 0
823 824 825 0
826 827 828 0
829 830 831 0
832 833 834 0
835 836 837 0
838 839 840 0
841 842 843 0
844 845 846 0
847 848 849 0
850 851 852 0
853 854 855 0
856 857 858 0
859 860 861 0
862 863 864 0
865 866 867 0
868 869 870 0
871 872 873 0
874 875 876 0
877 878 879 0
880 881 882 0
883 884 885 0
886 887 888 0
889 890 891 0
892 893 894 0
895 896 897 0
898 899 900 0
901 902 903 0
904 905 906 0
907 908 909 0
910 911 912 0
913 914 915 0
916 917 918 0
919 920 921 0
922 923 924 0
925 926 927 0
928 929 930 0
931 932 933 0
934 935 936 0
937 938 939 0
940 941 942 0
943 944 945 0
946 947 948 0
949 950 951 0
952 953 954 0
955 956 957 0
958 959 960 0
961 962 963 0
964 965 966 0
967 968 969 0
970 971 972 0
973 974 975 0
976 977 978 0
979 980 981 0
982 983 984 0
985 986 987 0
988 989 990 0
991 992 993 0
994 995 996 0
997 998 999 0
1000 1001 1002 0
1003 1004 1005 0
1006 1007 1008 0
1009 1010 1011 0
1012 1013 1014 0
1015 1016 1017 0
1018 1019 1020 0
1021 1022 1023 0
1024 1025 1026 0
1027 1028 1029 0
1030 1031 1032 0
1033 1034 1035 0
1036 1037 1038 0
1039 1040 1041 0
1042 1043 1044 0
1045 1046 1047 0
1048 1049 1050 0
1051 1052 1053 0
1054 1055 1056 0
1057 1058 1059 0
1060 1061 1062 0
1063 1064 1065 0
1066 1067 1068 0
1069 1070 1071 0
1072 1073 1074 0
1075 1076 1077 0
1078 1079 1080 0
1081 1082 1083 0
1084 1085 1086 0
1087 1088 1089 0
1090 1091 1092 0
1093 1094 1095 0
1096 1097 1098 0
1099 1100 1101 0
1102 1103 1104 0
1105 1106 1107 0
1108 1109 1110 0
1111 1112 1113 0
1114 1115 1116 0
1117 1118 1119 0
1120 1121 1122 0
1123 1124 1125 0
1126 1127 1128 0
1129 1130 1131 0
1132 1133 1134 0
1135 1136 1137 0
1138 1139 1140 0
1141 1142 1143 0
1144 1145 1146 0
1147 1148 1149 0
1150 1151 1152 0
1153 1154 1155 0
1156 1157 1158 0
1159 1160 1161 0
1162 1163 1164 0
1165 1166 1167 0
1168 1169 1170 0
1171 1172 1173 0
1174 1175 1176 0
1177 1178 1179 0
1180 1181 1182 0
1183 1184 1185 0
1186 1187 1188 0
1189 1190 1191 0
1192 1193 1194 0
1195 1196 1197 0
1198 1199 1200 0
1201 1202 1203 0
1204 1205 1206 0
1207 1208 1209 0
1210 1211 1212 0
1213 1214 1215 0
1216 1217 1218 0
1219 1220 1221 0
1222 1223 1224 0
1225 1226 1227 0
1228 1229 1230 0
1231 1232 1233 0
1234 1235 1236 0
1237 1238 1239 0
1240 1241 1242 0
1243 1244 1245 0
1246 1247 1248 0
1249 1250 1251 0
1252 1253 1254 0
1255 1256 1257 0
1258 1259 1260 0
1261 1262 1263 0
1264 1265 1266 0
1267 1268 1269 0
1270 1271 1272 0
1273 1274 1275 0
1276 1277 1278 0
1279 1280 1281 0
1282 1283 1284 0
1285 1286 1287 0
1288 1289 1290 0
1291 1292 1293 0
1294 1295 1296 0
1297 1298 1299 0
1300 1301 1302 0
1303 1304 1305 0
1306 1307 1308 0
1309 1310 1311 0
1312 1313 1314 0
1315 1316 1317 0
1318 1319 1320 0
1321 1322 1323 0
1324 1325 1326 0
1327 1328 1329 0
1330 1331 1332 0
1333 1334 1335 0
1336 1337 1338 0
1339 1340 1341 0
1342 1343 1344 0
1345 1346 1347 0
1348 1349 1350 0
1351 1352 1353 0
1354 1355 1356 0
1357 1358 1359 0
1360 1361 1362 0
1363 1364 1365 0
1366 1367 1368 0
1369 1370 1371 0
1372 1373 1374 0
1375 1376 1377 0
1378 1379 1380 0
1381 1382 1383 0
1384 1385 1386 0
1387 1388 1389 0
1390 1391 1392 0
1393 1394 1395 0
1396 1397 1398 0
1399 1400 1401 0
1402 1403 1404 0
1405 1406 1407 0
1408 1409 1410 0
1411 1412 1413 0
1414 1415 1416 0
1417 1418 1419 0
1420 1421 1422 0
1423 1424 1425 0
1426 1427 1428 0
1429 1430 1431 0
1432 1433 1434 0
1435 1436 1437 0
1438 1439 1440 0
1441 1442 1443 0
1444 1445 1446 0
1447 1448 1449 0
1450 1451 1452 0
1453 1454 1455 0
1456 1457 1458 0
1459 1460 1461 0
1462 1463 1464 0
1465 1466 1467 0
1468 1469 1470 0
1471 1472 1473 0
1474 1475 1476 0
1477 1478 1479 0
1480 1481 1482 0
1483 1484 1485 0
1486 1487 1488 0
1489 1490 1491 0
1492 1493 1494 0
1495 1496 1497 0
1498 1499 1500 0
1501 1502 1503 0
1504 1505 1506 0
1507 1508 1509 0
1510 1511 1512 0
1513 1514 1515 0
1516 1517 1518 0
1519 1520 1521 0
1522 1523 1524 0
1525 1526 1527 0
1528 1529 1530 0
1531 1532 1533 0
1534 1535 1536 0
1537 1538 1539 0
1540 1541 1542 0
1543 1544 1545 0
1546 1547 1548 0
1549 1550 1551 0
1552 1553 1554 0
1555 1556 1557 0
1558 1559 1560 0
1561 1562 1563 0
1564 1565 1566 0
1567 1568 1569 0
1570 1571 1572 0
1573 1574 1575 0
1576 1577 1578 0
1579 1580 1581 0
1582 1583 1584 0
1585 1586 1587 0
1588 1589 1590 0
1591 1592 1593 0
1594 1595 1596 0
1597 1598 1599 0
1600 1601 1602 0
1603 1604 1605 0
1606 1607 1608 0
1609 1610 1611 0
1612 1613 1614 0
1615 1616 1617 0
1618 1619 1620 0
1621 1622 1623 0
1624 1625 1626 0
1627 1628 1629 0
1630 1631 1632 0
1633 1634 1635 0
1636 1637 1638 0
1639 1640 1641 0
1642 1643 1644 0
1645 1646 1647 0
1648 1649 1650 0
1651 1652 1653 0
1654 1655 1656 0
1657 1658 1659 0
1660 1661 1662 0
1663 1664 1665 0
1666 1667 1668 0
1669 1670 1671 0
1672 1673 1674 0
1675 1676 1677 0
1678 1679 1680 0
1681 1682 1683 0
1684 1685 1686 0
1687 1688 1689 0
1690 1691 1692 0
1693 1694 1695 0
1696 1697 1698 0
1699 1700 1701 0
1702 1703 1704 0
1705 1706 1707 0
1708 1709 1710 0
1711 1712 1713 0
1714 1715 1716 0
1717 1718 1719 0
1720 1721 1722 0
1723 1724 1725 0
1726 1727 1728 0
1729 1730 1731 0
1732 1733 1734 0
1735 1736 1737 0
1738 1739 1740 0
1741 1742 1743 0
1744 1745 1746 0
1747 1748 1749 0
1750 1751 1752 0
1753 1754 1755 0
1756 1757 1758 0
1759 1760 1761 0
1762 1763 1764 0
1765 1766 1767 0
1768 1769 1770 0
1771 1772 1773 0
1774 1775 1776 0
1777 1778 1779 0
1780 1781 1782 0
1783 1784 1785 0
1786 1787 1788 0
1789 1790 1791 0
1792 1793 1794 0
1795 1796 1797 0
1798 1799 1800 0
1801 1802 1803 0
1804 1805 1806 0
1807 1808 1809 0
1810 1811 1812 0
1813 1814 1815 0
1816 1817 1818 0
1819 1820 1821 0
1822 1823 1824 0
1825 1826 1827 0
1828 1829 1830 0
1831 1832 1833 0
1834 1835 1836 0
1837 1838 1839 0
1840 1841 1842 0
1843 1844 1845 0
1846 1847 1848 0
1849 1850 1851 0
1852 1853 1854 0
1855 1856 1857 0
1858 1859 1860 0
1861 1862 1863 0
1864 1865 1866 0
1867 1868 1869 0
1870 1871 1872 0
1873 1874 1875 0
1876 1877 1878 0
1879 1880 1881 0
1882 1883 1884 0
1885 1886 1887 0
1888 1889 1890 0
1891 1892 1893 0
1894 1895 1896 0
1897 1898 1899 0
1900 1901 1902 0
1903 1904 1905 0
1906 1907 1908 0
1909 1910 1911 0
1912 1913 1914 0
1915 1916 1917 0
1918 1919 1920 0
1921 1922 1923 0
1924 1925 1926 0
1927 1928 1929 0
1930 1931 1932 0
1933 1934 1935 0
1936 1937 1938 0
1939 1940 1941 0
1942 1943 1944 0
1945 1946 1947 0
1948 1949 1950 0
1951 1952 1953 0
1954 1955 1956 0
1957 1958 1959 0
1960 1961 1962 0
1963 1964 1965 0
1966 1967 1968 0
1969 1970 1971 0
1972 1973 1974 0
1975 1976 1977 0
-1 -1375 0
-2 -1376 0
-3 -1377 0
-1 -25 0
-2 -26 0
-3 -27 0
-1 -106 0
-2 -107 0
-3 -108 0
-1 -31 0
-2 -32 0
-3 -33 0
-1 -61 0
-2 -62 0
-3 -63 0
-1 -91 0
-2 -92 0
-3 -93 0
-4 -1429 0
-5 -1430 0
-6 -1431 0
-4 -28 0
-5 -29 0
-6 -30 0
-4 -34 0
-5 -35 0
-6 -36 0
-4 -91 0
-5 -92 0
-6 -93 0
-4 -64 0
-5 -65 0
-6 -66 0
-7 -1882 0
-8 -1883 0
-9 -1884 0
-7 -1438 0
-8 -1439 0
-9 -1440 0
-7 -91 0
-8 -92 0
-9 -93 0
-10 -1885 0
-11 -1886 0
-12 -1887 0
-10 -109 0
-11 -110 0
-12 -111 0
-10 -112 0
-11 -113 0
-12 -114 0
-10 -91 0
-11 -92 0
-12 -93 0
-10 -94 0
-11 -95 0
-12 -96 0
-10 -1417 0
-11 -1418 0
-12 -1419 0
-10 -97 0
-11 -98 0
-12 -99 0
-10 -208 0
-11 -209 0
-12 -210 0
-10 -1444 0
-11 -1445 0
-12 -1446 0
-13 -214 0
-14 -215 0
-15 -216 0
-13 -22 0
-14 -23 0
-15 -24 0
-13 -91 0
-14 -92 0
-15 -93 0
-13 -100 0
-14 -101 0
-15 -102 0
-13 -37 0
-14 -38 0
-15 -39 0
-16 -1429 0
-17 -1430 0
-18 -1431 0
-16 -46 0
-17 -47 0
-18 -48 0
-16 -73 0
-17 -74 0
-18 -75 0
-16 -52 0
-17 -53 0
-18 -54 0
-16 -139 0
-17 -140 0
-18 -141 0
-16 -184 0
-17 -185 0
-18 -186 0
-16 -208 0
-17 -209 0
-18 -210 0
-19 -214 0
-20 -215 0
-21 -216 0
-19 -187 0
-20 -188 0
-21 -189 0
-19 -49 0
-20 -50 0
-21 -51 0
-19 -142 0
-20 -143 0
-21 -144 0
-19 -55 0
-20 -56 0
-21 -57 0
-22 -169 0
-23 -170 0
-24 -171 0
-22 -199 0
-23 -200 0
-24 -201 0
-22 -157 0
-23 -158 0
-24 -159 0
-25 -196 0
-26 -197 0
-27 -198 0
-25 -1354 0
-26 -1355 0
-27 -1356 0
-25 -178 0
-26 -179 0
-27 -180 0
-25 -1360 0
-26 -1361 0
-27 -1362 0
-25 -265 0
-26 -266 0
-27 -267 0
-28 -256 0
-29 -257 0
-30 -258 0
-28 -1420 0
-29 -1421 0
-30 -1422 0
-28 -199 0
-29 -200 0
-30 -201 0
-28 -175 0
-29 -176 0
-30 -177 0
-28 -268 0
-29 -269 0
-30 -270 0
-31 -271 0
-32 -272 0
-33 -273 0
-31 -259 0
-32 -260 0
-33 -261 0
-31 -169 0
-32 -170 0
-33 -171 0
-31 -1351 0
-32 -1352 0
-33 -1353 0
-31 -202 0
-32 -203 0
-33 -204 0
-31 -1363 0
-32 -1364 0
-33 -1365 0
-34 -1420 0
-35 -1421 0
-36 -1422 0
-34 -166 0
-35 -167 0
-36 -168 0
-34 -205 0
-35 -206 0
-36 -207 0
-37 -178 0
-38 -179 0
-39 -180 0
-37 -205 0
-38 -206 0
-39 -207 0
-37 -160 0
-38 -161 0
-39 -162 0
-40 -1735 0
-41 -1736 0
-42 -1737 0
-40 -214 0
-41 -215 0
-42 -216 0
-40 -175 0
-41 -176 0
-42 -177 0
-40 -1621 0
-41 -1622 0
-42 -1623 0
-43 -169 0
-44 -170 0
-45 -171 0
-43 -1777 0
-44 -1778 0
-45 -1779 0
-43 -301 0
-44 -302 0
-45 -303 0
-43 -1498 0
-44 -1499 0
-45 -1500 0
-46 -1426 0
-47 -1427 0
-48 -1428 0
-46 -334 0
-47 -335 0
-48 -336 0
-46 -166 0
-47 -167 0
-48 -168 0
-46 -1765 0
-47 -1766 0
-48 -1767 0
-46 -307 0
-47 -308 0
-48 -309 0
-49 -169 0
-50 -170 0
-51 -171 0
-49 -340 0
-50 -341 0
-51 -342 0
-52 -1426 0
-53 -1427 0
-54 -1428 0
-52 -1744 0
-53 -1745 0
-54 -1746 0
-52 -175 0
-53 -176 0
-54 -177 0
-52 -1768 0
-53 -1769 0
-54 -1770 0
-52 -349 0
-53 -350 0
-54 -351 0
-52 -310 0
-53 -311 0
-54 -312 0
-52 -343 0
-53 -344 0
-54 -345 0
-55 -178 0
-56 -179 0
-57 -180 0
-55 -313 0
-56 -314 0
-57 -315 0
-58 -1522 0
-59 -1523 0
-60 -1524 0
-58 -496 0
-59 -497 0
-60 -498 0
-58 -1918 0
-59 -1919 0
-60 -1920 0
-58 -1414 0
-59 -1415 0
-60 -1416 0
-58 -91 0
-59 -92 0
-60 -93 0
-61 -604 0
-62 -605 0
-63 -606 0
-61 -196 0
-62 -197 0
-63 -198 0
-61 -451 0
-62 -452 0
-63 -453 0
-64 -607 0
-65 -608 0
-66 -609 0
-64 -199 0
-65 -200 0
-66 -201 0
-64 -1642 0
-65 -1643 0
-66 -1644 0
-64 -1447 0
-65 -1448 0
-66 -1449 0
-67 -448 0
-68 -449 0
-69 -450 0
-67 -1639 0
-68 -1640 0
-69 -1641 0
-67 -1873 0
-68 -1874 0
-69 -1875 0
-67 -1921 0
-68 -1922 0
-69 -1923 0
-67 -208 0
-68 -209 0
-69 -210 0
-70 -451 0
-71 -452 0
-72 -453 0
-70 -1636 0
-71 -1637 0
-72 -1638 0
-70 -1792 0
-71 -1793 0
-72 -1794 0
-70 -1861 0
-71 -1862 0
-72 -1863 0
-70 -1924 0
-71 -1925 0
-72 -1926 0
-70 -208 0
-71 -209 0
-72 -210 0
-73 -166 0
-74 -167 0
-75 -168 0
-73 -538 0
-74 -539 0
-75 -540 0
-73 -478 0
-74 -479 0
-75 -480 0
-73 -502 0
-74 -503 0
-75 -504 0
-76 -1693 0
-77 -1694 0
-78 -1695 0
-76 -499 0
-77 -500 0
-78 -501 0
-76 -1585 0
-77 -1586 0
-78 -1587 0
-76 -202 0
-77 -203 0
-78 -204 0
-79 -130 0
-80 -131 0
-81 -132 0
-79 -292 0
-80 -293 0
-81 -294 0
-79 -136 0
-80 -137 0
-81 -138 0
-79 -370 0
-80 -371 0
-81 -372 0
-79 -412 0
-80 -413 0
-81 -414 0
-79 -148 0
-80 -149 0
-81 -150 0
-82 -1444 0
-83 -1445 0
-84 -1446 0
-82 -1435 0
-83 -1436 0
-84 -1437 0
-82 -370 0
-83 -371 0
-84 -372 0
-82 -301 0
-83 -302 0
-84 -303 0
-85 -1303 0
-86 -1304 0
-87 -1305 0
-85 -133 0
-86 -134 0
-87 -135 0
-85 -301 0
-86 -302 0
-87 -303 0
-85 -1432 0
-86 -1433 0
-87 -1434 0
-85 -376 0
-86 -377 0
-87 -378 0
-85 -409 0
-86 -410 0
-87 -411 0
-85 -151 0
-86 -152 0
-87 -153 0
-85 -154 0
-86 -155 0
-87 -156 0
-88 -1732 0
-89 -1733 0
-90 -1734 0
-88 -1453 0
-89 -1454 0
-90 -1455 0
-88 -1450 0
-89 -1451 0
-90 -1452 0
-88 -178 0
-89 -179 0
-90 -180 0
-88 -595 0
-89 -596 0
-90 -597 0
-91 -505 0
-92 -506 0
-93 -507 0
-91 -604 0
-92 -605 0
-93 -606 0
-91 -607 0
-92 -608 0
-93 -609 0
-91 -616 0
-92 -617 0
-93 -618 0
-91 -769 0
-92 -770 0
-93 -771 0
-91 -400 0
-92 -401 0
-93 -402 0
-91 -253 0
-92 -254 0
-93 -255 0
-91 -103 0
-92 -104 0
-93 -105 0
-91 -565 0
-92 -566 0
-93 -567 0
-91 -568 0
-92 -569 0
-93 -570 0
-91 -571 0
-92 -572 0
-93 -573 0
-91 -157 0
-92 -158 0
-93 -159 0
-91 -160 0
-92 -161 0
-93 -162 0
-91 -163 0
-92 -164 0
-93 -165 0
-91 -256 0
-92 -257 0
-93 -258 0
-91 -259 0
-92 -260 0
-93 -261 0
-94 -175 0
-95 -176 0
-96 -177 0
-94 -1921 0
-95 -1922 0
-96 -1923 0
-94 -619 0
-95 -620 0
-96 -621 0
-94 -565 0
-95 -566 0
-96 -567 0
-97 -166 0
-98 -167 0
-99 -168 0
-97 -1924 0
-98 -1925 0
-99 -1926 0
-97 -571 0
-98 -572 0
-99 -573 0
-97 -622 0
-98 -623 0
-99 -624 0
-100 -169 0
-101 -170 0
-102 -171 0
-100 -1441 0
-101 -1442 0
-102 -1443 0
-100 -790 0
-101 -791 0
-102 -792 0
-100 -568 0
-101 -569 0
-102 -570 0
-100 -625 0
-101 -626 0
-102 -627 0
-103 -1933 0
-104 -1934 0
-105 -1935 0
-103 -1819 0
-104 -1820 0
-105 -1821 0
-106 -265 0
-107 -266 0
-108 -267 0
-106 -271 0
-107 -272 0
-108 -273 0
-106 -640 0
-107 -641 0
-108 -642 0
-106 -769 0
-107 -770 0
-108 -771 0
-106 -793 0
-107 -794 0
-108 -795 0
-106 -427 0
-107 -428 0
-108 -429 0
-106 -574 0
-107 -575 0
-108 -576 0
-109 -1888 0
-110 -1889 0
-111 -1890 0
-109 -607 0
-110 -608 0
-111 -609 0
-109 -619 0
-110 -620 0
-111 -621 0
-109 -1414 0
-110 -1415 0
-111 -1416 0
-109 -202 0
-110 -203 0
-111 -204 0
-109 -826 0
-110 -827 0
-111 -828 0
-112 -196 0
-113 -197 0
-114 -198 0
-112 -622 0
-113 -623 0
-114 -624 0
-112 -829 0
-113 -830 0
-114 -831 0
-115 -166 0
-116 -167 0
-117 -168 0
-115 -1450 0
-116 -1451 0
-117 -1452 0
-115 -697 0
-116 -698 0
-117 -699 0
-118 -1624 0
-119 -1625 0
-120 -1626 0
-118 -340 0
-119 -341 0
-120 -342 0
-118 -451 0
-119 -452 0
-120 -453 0
-118 -1861 0
-119 -1862 0
-120 -1863 0
-121 -1693 0
-122 -1694 0
-123 -1695 0
-121 -499 0
-122 -500 0
-123 -501 0
-121 -1831 0
-122 -1832 0
-123 -1833 0
-121 -1966 0
-122 -1967 0
-123 -1968 0
-121 -292 0
-122 -293 0
-123 -294 0
-121 -1750 0
-122 -1751 0
-123 -1752 0
-124 -1963 0
-125 -1964 0
-126 -1965 0
-124 -496 0
-125 -497 0
-126 -498 0
-124 -301 0
-125 -302 0
-126 -303 0
-127 -292 0
-128 -293 0
-129 -294 0
-127 -1702 0
-128 -1703 0
-129 -1704 0
-127 -1753 0
-128 -1754 0
-129 -1755 0
-130 -508 0
-131 -509 0
-132 -510 0
-130 -547 0
-131 -548 0
-132 -549 0
-133 -1387 0
-134 -1388 0
-135 -1389 0
-133 -244 0
-134 -245 0
-135 -246 0
-133 -511 0
-134 -512 0
-135 -513 0
-133 -1351 0
-134 -1352 0
-135 -1353 0
-133 -553 0
-134 -554 0
-135 -555 0
-136 -247 0
-137 -248 0
-138 -249 0
-136 -514 0
-137 -515 0
-138 -516 0
-136 -556 0
-137 -557 0
-138 -558 0
-139 -769 0
-140 -770 0
-141 -771 0
-139 -307 0
-140 -308 0
-141 -309 0
-139 -310 0
-140 -311 0
-141 -312 0
-139 -475 0
-140 -476 0
-141 -477 0
-139 -478 0
-140 -479 0
-141 -480 0
-142 -769 0
-143 -770 0
-144 -771 0
-142 -313 0
-143 -314 0
-144 -315 0
-145 -166 0
-146 -167 0
-147 -168 0
-145 -1714 0
-146 -1715 0
-147 -1716 0
-145 -1783 0
-146 -1784 0
-147 -1785 0
-145 -730 0
-146 -731 0
-147 -732 0
-148 -247 0
-149 -248 0
-150 -249 0
-148 -580 0
-149 -581 0
-150 -582 0
-148 -418 0
-149 -419 0
-150 -420 0
-151 -250 0
-152 -251 0
-153 -252 0
-151 -415 0
-152 -416 0
-153 -417 0
-151 -583 0
-152 -584 0
-153 -585 0
-151 -1651 0
-152 -1652 0
-153 -1653 0
-154 -424 0
-155 -425 0
-156 -426 0
-154 -589 0
-155 -590 0
-156 -591 0
-154 -1654 0
-155 -1655 0
-156 -1656 0
-154 -244 0
-155 -245 0
-156 -246 0
-157 -745 0
-158 -746 0
-159 -747 0
-157 -352 0
-158 -353 0
-159 -354 0
-157 -934 0
-158 -935 0
-159 -936 0
-160 -748 0
-161 -749 0
-162 -750 0
-160 -355 0
-161 -356 0
-162 -357 0
-160 -361 0
-161 -362 0
-162 -363 0
-160 -940 0
-161 -941 0
-162 -942 0
-163 -709 0
-164 -710 0
-165 -711 0
-163 -751 0
-164 -752 0
-165 -753 0
-163 -358 0
-164 -359 0
-165 -360 0
-163 -943 0
-164 -944 0
-165 -945 0
-166 -763 0
-167 -764 0
-168 -765 0
-166 -769 0
-167 -770 0
-168 -771 0
-166 -193 0
-167 -194 0
-168 -195 0
-166 -241 0
-167 -242 0
-168 -243 0
-169 -913 0
-170 -914 0
-171 -915 0
-169 -769 0
-170 -770 0
-171 -771 0
-169 -541 0
-170 -542 0
-171 -543 0
-169 -325 0
-170 -326 0
-171 -327 0
-169 -487 0
-170 -488 0
-171 -489 0
-169 -220 0
-170 -221 0
-171 -222 0
-172 -175 0
-173 -176 0
-174 -177 0
-172 -1798 0
-173 -1799 0
-174 -1800 0
-172 -766 0
-173 -767 0
-174 -768 0
-172 -1717 0
-173 -1718 0
-174 -1719 0
-175 -769 0
-176 -770 0
-177 -771 0
-175 -775 0
-176 -776 0
-177 -777 0
-175 -709 0
-176 -710 0
-177 -711 0
-178 -769 0
-179 -770 0
-180 -771 0
-178 -190 0
-179 -191 0
-180 -192 0
-178 -544 0
-179 -545 0
-180 -546 0
-178 -181 0
-179 -182 0
-180 -183 0
-178 -490 0
-179 -491 0
-180 -492 0
-181 -1837 0
-182 -1838 0
-183 -1839 0
-181 -772 0
-182 -773 0
-183 -774 0
-181 -1474 0
-182 -1475 0
-183 -1476 0
-184 -826 0
-185 -827 0
-186 -828 0
-184 -496 0
-185 -497 0
-186 -498 0
-184 -1414 0
-185 -1415 0
-186 -1416 0
-184 -1642 0
-185 -1643 0
-186 -1644 0
-184 -343 0
-185 -344 0
-186 -345 0
-187 -340 0
-188 -341 0
-189 -342 0
-187 -832 0
-188 -833 0
-189 -834 0
-190 -1732 0
-191 -1733 0
-192 -1734 0
-190 -1837 0
-191 -1838 0
-192 -1839 0
-190 -805 0
-191 -806 0
-192 -807 0
-193 -820 0
-194 -821 0
-195 -822 0
-193 -1762 0
-194 -1763 0
-195 -1764 0
-193 -1780 0
-194 -1781 0
-195 -1782 0
-193 -1720 0
-194 -1721 0
-195 -1722 0
-196 -769 0
-197 -770 0
-198 -771 0
-199 -769 0
-200 -770 0
-201 -771 0
-199 -745 0
-200 -746 0
-201 -747 0
-199 -379 0
-200 -380 0
-201 -381 0
-202 -769 0
-203 -770 0
-204 -771 0
-202 -976 0
-203 -977 0
-204 -978 0
-202 -751 0
-203 -752 0
-204 -753 0
-205 -769 0
-206 -770 0
-207 -771 0
-205 -748 0
-206 -749 0
-207 -750 0
-205 -382 0
-206 -383 0
-207 -384 0
-208 -658 0
-209 -659 0
-210 -660 0
-208 -274 0
-209 -275 0
-210 -276 0
-208 -538 0
-209 -539 0
-210 -540 0
-208 -769 0
-209 -770 0
-210 -771 0
-208 -349 0
-209 -350 0
-210 -351 0
-208 -211 0
-209 -212 0
-210 -213 0
-208 -826 0
-209 -827 0
-210 -828 0
-208 -829 0
-209 -830 0
-210 -831 0
-211 -772 0
-212 -773 0
-213 -774 0
-211 -1417 0
-212 -1418 0
-213 -1419 0
-211 -1879 0
-212 -1880 0
-213 -1881 0
-214 -769 0
-215 -770 0
-216 -771 0
-214 -790 0
-215 -791 0
-216 -792 0
-214 -217 0
-215 -218 0
-216 -219 0
-214 -982 0
-215 -983 0
-216 -984 0
-214 -832 0
-215 -833 0
-216 -834 0
-214 -262 0
-215 -263 0
-216 -264 0
-217 -1303 0
-218 -1304 0
-219 -1305 0
-217 -772 0
-218 -773 0
-219 -774 0
-217 -1576 0
-218 -1577 0
-219 -1578 0
-220 -1915 0
-221 -1916 0
-222 -1917 0
-220 -859 0
-221 -860 0
-222 -861 0
-220 -1678 0
-221 -1679 0
-222 -1680 0
-223 -334 0
-224 -335 0
-225 -336 0
-223 -547 0
-224 -548 0
-225 -549 0
-223 -1369 0
-224 -1370 0
-225 -1371 0
-226 -1507 0
-227 -1508 0
-228 -1509 0
-226 -1501 0
-227 -1502 0
-228 -1503 0
-226 -553 0
-227 -554 0
-228 -555 0
-226 -343 0
-227 -344 0
-228 -345 0
-229 -1270 0
-230 -1271 0
-231 -1272 0
-229 -1834 0
-230 -1835 0
-231 -1836 0
-229 -1663 0
-230 -1664 0
-231 -1665 0
-229 -1771 0
-230 -1772 0
-231 -1773 0
-229 -301 0
-230 -302 0
-231 -303 0
-232 -583 0
-233 -584 0
-234 -585 0
-232 -1588 0
-233 -1589 0
-234 -1590 0
-232 -1759 0
-233 -1760 0
-234 -1761 0
-232 -343 0
-233 -344 0
-234 -345 0
-235 -1891 0
-236 -1892 0
-237 -1893 0
-235 -244 0
-236 -245 0
-237 -246 0
-235 -715 0
-236 -716 0
-237 -717 0
-238 -1657 0
-239 -1658 0
-240 -1659 0
-238 -730 0
-239 -731 0
-240 -732 0
-238 -244 0
-239 -245 0
-240 -246 0
-241 -1639 0
-242 -1640 0
-243 -1641 0
-241 -940 0
-242 -941 0
-243 -942 0
-244 -460 0
-245 -461 0
-246 -462 0
-244 -289 0
-245 -290 0
-246 -291 0
-244 -769 0
-245 -770 0
-246 -771 0
-244 -670 0
-245 -671 0
-246 -672 0
-247 -769 0
-248 -770 0
-249 -771 0
-250 -769 0
-251 -770 0
-252 -771 0
-250 -283 0
-251 -284 0
-252 -285 0
-253 -1933 0
-254 -1934 0
-255 -1935 0
-253 -1066 0
-254 -1067 0
-255 -1068 0
-256 -355 0
-257 -356 0
-258 -357 0
-256 -1069 0
-257 -1070 0
-258 -1071 0
-259 -361 0
-260 -362 0
-261 -363 0
-259 -913 0
-260 -914 0
-261 -915 0
-262 -1492 0
-263 -1493 0
-264 -1494 0
-262 -928 0
-263 -929 0
-264 -930 0
-262 -1303 0
-263 -1304 0
-264 -1305 0
-262 -1432 0
-263 -1433 0
-264 -1434 0
-262 -1339 0
-263 -1340 0
-264 -1341 0
-262 -1342 0
-263 -1343 0
-264 -1344 0
-262 -1573 0
-263 -1574 0
-264 -1575 0
-262 -1621 0
-263 -1622 0
-264 -1623 0
-265 -1072 0
-266 -1073 0
-267 -1074 0
-265 -1600 0
-266 -1601 0
-267 -1602 0
-268 -1735 0
-269 -1736 0
-270 -1737 0
-268 -1822 0
-269 -1823 0
-270 -1824 0
-268 -1552 0
-269 -1553 0
-270 -1554 0
-268 -1069 0
-269 -1070 0
-270 -1071 0
-271 -1600 0
-272 -1601 0
-273 -1602 0
-271 -976 0
-272 -977 0
-273 -978 0
-274 -976 0
-275 -977 0
-276 -978 0
-274 -943 0
-275 -944 0
-276 -945 0
-277 -718 0
-278 -719 0
-279 -720 0
-277 -1462 0
-278 -1463 0
-279 -1464 0
-277 -1276 0
-278 -1277 0
-279 -1278 0
-277 -1273 0
-278 -1274 0
-279 -1275 0
-277 -301 0
-278 -302 0
-279 -303 0
-277 -1399 0
-278 -1400 0
-279 -1401 0
-277 -1423 0
-278 -1424 0
-279 -1425 0
-280 -1519 0
-281 -1520 0
-282 -1521 0
-280 -1402 0
-281 -1403 0
-282 -1404 0
-280 -1279 0
-281 -1280 0
-282 -1281 0
-280 -301 0
-281 -302 0
-282 -303 0
-280 -730 0
-281 -731 0
-282 -732 0
-283 -1873 0
-284 -1874 0
-285 -1875 0
-283 -1309 0
-284 -1310 0
-285 -1311 0
-283 -856 0
-284 -857 0
-285 -858 0
-286 -1510 0
-287 -1511 0
-288 -1512 0
-286 -673 0
-287 -674 0
-288 -675 0
-286 -343 0
-287 -344 0
-288 -345 0
-286 -1504 0
-287 -1505 0
-288 -1506 0
-286 -1441 0
-287 -1442 0
-288 -1443 0
-289 -865 0
-290 -866 0
-291 -867 0
-289 -1888 0
-290 -1889 0
-291 -1890 0
-292 -418 0
-293 -419 0
-294 -420 0
-292 -769 0
-293 -770 0
-294 -771 0
-292 -298 0
-293 -299 0
-294 -300 0
-292 -328 0
-293 -329 0
-294 -330 0
-292 -868 0
-293 -869 0
-294 -870 0
-292 -874 0
-293 -875 0
-294 -876 0
-295 -1519 0
-296 -1520 0
-297 -1521 0
-295 -1711 0
-296 -1712 0
-297 -1713 0
-295 -1432 0
-296 -1433 0
-297 -1434 0
-295 -1462 0
-296 -1463 0
-297 -1464 0
-295 -766 0
-296 -767 0
-297 -768 0
-295 -301 0
-296 -302 0
-297 -303 0
-295 -1669 0
-296 -1670 0
-297 -1671 0
-298 -1831 0
-299 -1832 0
-300 -1833 0
-298 -772 0
-299 -773 0
-300 -774 0
-298 -1702 0
-299 -1703 0
-300 -1704 0
-301 -415 0
-302 -416 0
-303 -417 0
-301 -424 0
-302 -425 0
-303 -426 0
-301 -385 0
-302 -386 0
-303 -387 0
-301 -769 0
-302 -770 0
-303 -771 0
-301 -304 0
-302 -305 0
-303 -306 0
-301 -331 0
-302 -332 0
-303 -333 0
-301 -526 0
-302 -527 0
-303 -528 0
-301 -529 0
-302 -530 0
-303 -531 0
-301 -979 0
-302 -980 0
-303 -981 0
-301 -319 0
-302 -320 0
-303 -321 0
-301 -322 0
-302 -323 0
-303 -324 0
-301 -871 0
-302 -872 0
-303 -873 0
-301 -877 0
-302 -878 0
-303 -879 0
-304 -532 0
-305 -533 0
-306 -534 0
-304 -421 0
-305 -422 0
-306 -423 0
-304 -1435 0
-305 -1436 0
-306 -1437 0
-304 -772 0
-305 -773 0
-306 -774 0
-304 -1438 0
-305 -1439 0
-306 -1440 0
-307 -1600 0
-308 -1601 0
-309 -1602 0
-307 -1030 0
-308 -1031 0
-309 -1032 0
-307 -1627 0
-308 -1628 0
-309 -1629 0
-307 -1000 0
-308 -1001 0
-309 -1002 0
-310 -1036 0
-311 -1037 0
-312 -1038 0
-310 -1378 0
-311 -1379 0
-312 -1380 0
-310 -1381 0
-311 -1382 0
-312 -1383 0
-310 -1003 0
-311 -1004 0
-312 -1005 0
-310 -709 0
-311 -710 0
-312 -711 0
-310 -1870 0
-311 -1871 0
-312 -1872 0
-310 -1600 0
-311 -1601 0
-312 -1602 0
-313 -1552 0
-314 -1553 0
-315 -1554 0
-316 -1726 0
-317 -1727 0
-318 -1728 0
-316 -718 0
-317 -719 0
-318 -720 0
-316 -1423 0
-317 -1424 0
-318 -1425 0
-316 -343 0
-317 -344 0
-318 -345 0
-319 -1270 0
-320 -1271 0
-321 -1272 0
-319 -808 0
-320 -809 0
-321 -810 0
-319 -1669 0
-320 -1670 0
-321 -1671 0
-322 -817 0
-323 -818 0
-324 -819 0
-322 -1663 0
-323 -1664 0
-324 -1665 0
-322 -1330 0
-323 -1331 0
-324 -1332 0
-322 -1666 0
-323 -1667 0
-324 -1668 0
-322 -1456 0
-323 -1457 0
-324 -1458 0
-322 -1498 0
-323 -1499 0
-324 -1500 0
-325 -1459 0
-326 -1460 0
-327 -1461 0
-325 -1030 0
-326 -1031 0
-327 -1032 0
-325 -1678 0
-326 -1679 0
-327 -1680 0
-328 -1396 0
-329 -1397 0
-330 -1398 0
-328 -550 0
-329 -551 0
-330 -552 0
-328 -844 0
-329 -845 0
-330 -846 0
-331 -1330 0
-332 -1331 0
-333 -1332 0
-331 -454 0
-332 -455 0
-333 -456 0
-331 -841 0
-332 -842 0
-333 -843 0
-334 -847 0
-335 -848 0
-336 -849 0
-334 -769 0
-335 -770 0
-336 -771 0
-334 -1000 0
-335 -1001 0
-336 -1002 0
-334 -337 0
-335 -338 0
-336 -339 0
-334 -442 0
-335 -443 0
-336 -444 0
-337 -1495 0
-338 -1496 0
-339 -1497 0
-337 -1327 0
-338 -1328 0
-339 -1329 0
-337 -772 0
-338 -773 0
-339 -774 0
-337 -1534 0
-338 -1535 0
-339 -1536 0
-337 -1561 0
-338 -1562 0
-339 -1563 0
-337 -1567 0
-338 -1568 0
-339 -1569 0
-340 -769 0
-341 -770 0
-342 -771 0
-340 -562 0
-341 -563 0
-342 -564 0
-343 -850 0
-344 -851 0
-345 -852 0
-343 -769 0
-344 -770 0
-345 -771 0
-343 -1003 0
-344 -1004 0
-345 -1005 0
-343 -346 0
-344 -347 0
-345 -348 0
-343 -1048 0
-344 -1049 0
-345 -1050 0
-343 -445 0
-344 -446 0
-345 -447 0
-346 -1546 0
-347 -1547 0
-348 -1548 0
-346 -1324 0
-347 -1325 0
-348 -1326 0
-346 -1744 0
-347 -1745 0
-348 -1746 0
-346 -772 0
-347 -773 0
-348 -774 0
-346 -1501 0
-347 -1502 0
-348 -1503 0
-346 -1504 0
-347 -1505 0
-348 -1506 0
-349 -1036 0
-350 -1037 0
-351 -1038 0
-349 -1048 0
-350 -1049 0
-351 -1050 0
-349 -1633 0
-350 -1634 0
-351 -1635 0
-352 -1606 0
-353 -1607 0
-354 -1608 0
-352 -619 0
-353 -620 0
-354 -621 0
-352 -1399 0
-353 -1400 0
-354 -1401 0
-352 -451 0
-353 -452 0
-354 -453 0
-352 -1126 0
-353 -1127 0
-354 -1128 0
-352 -1423 0
-353 -1424 0
-354 -1425 0
-355 -448 0
-356 -449 0
-357 -450 0
-355 -1402 0
-356 -1403 0
-357 -1404 0
-355 -1486 0
-356 -1487 0
-357 -1488 0
-355 -1129 0
-356 -1130 0
-357 -1131 0
-355 -622 0
-356 -623 0
-357 -624 0
-358 -1408 0
-359 -1409 0
-360 -1410 0
-358 -625 0
-359 -626 0
-360 -627 0
-358 -1648 0
-359 -1649 0
-360 -1650 0
-358 -1132 0
-359 -1133 0
-360 -1134 0
-361 -622 0
-362 -623 0
-363 -624 0
-364 -1972 0
-365 -1973 0
-366 -1974 0
-364 -388 0
-365 -389 0
-366 -390 0
-364 -1738 0
-365 -1739 0
-366 -1740 0
-364 -673 0
-365 -674 0
-366 -675 0
-364 -1894 0
-365 -1895 0
-366 -1896 0
-367 -1954 0
-368 -1955 0
-369 -1956 0
-367 -496 0
-368 -497 0
-369 -498 0
-367 -1846 0
-368 -1847 0
-369 -1848 0
-367 -589 0
-368 -590 0
-369 -591 0
-370 -508 0
-371 -509 0
-372 -510 0
-370 -514 0
-371 -515 0
-372 -516 0
-370 -769 0
-371 -770 0
-372 -771 0
-370 -373 0
-371 -374 0
-372 -375 0
-373 -1939 0
-374 -1940 0
-375 -1941 0
-373 -1435 0
-374 -1436 0
-375 -1437 0
-373 -772 0
-374 -773 0
-375 -774 0
-376 -511 0
-377 -512 0
-378 -513 0
-376 -517 0
-377 -518 0
-378 -519 0
-376 -769 0
-377 -770 0
-378 -771 0
-376 -706 0
-377 -707 0
-378 -708 0
-376 -406 0
-377 -407 0
-378 -408 0
-379 -1606 0
-380 -1607 0
-381 -1608 0
-379 -1420 0
-380 -1421 0
-381 -1422 0
-379 -1075 0
-380 -1076 0
-381 -1077 0
-382 -1420 0
-383 -1421 0
-384 -1422 0
-382 -1618 0
-383 -1619 0
-384 -1620 0
-382 -1069 0
-383 -1070 0
-384 -1071 0
-382 -1486 0
-383 -1487 0
-384 -1488 0
-385 -1444 0
-386 -1445 0
-387 -1446 0
-385 -1282 0
-386 -1283 0
-387 -1284 0
-385 -1273 0
-386 -1274 0
-387 -1275 0
-385 -922 0
-386 -923 0
-387 -924 0
-388 -835 0
-389 -836 0
-390 -837 0
-388 -769 0
-389 -770 0
-390 -771 0
-388 -403 0
-389 -404 0
-390 -405 0
-388 -391 0
-389 -392 0
-390 -393 0
-391 -772 0
-392 -773 0
-393 -774 0
-391 -1882 0
-392 -1883 0
-393 -1884 0
-391 -1771 0
-392 -1772 0
-393 -1773 0
-391 -1438 0
-392 -1439 0
-393 -1440 0
-391 -1894 0
-392 -1895 0
-393 -1896 0
-394 -1852 0
-395 -1853 0
-396 -1854 0
-394 -1351 0
-395 -1352 0
-396 -1353 0
-394 -553 0
-395 -554 0
-396 -555 0
-394 -556 0
-395 -557 0
-396 -558 0
-397 -559 0
-398 -560 0
-399 -561 0
-397 -1354 0
-398 -1355 0
-399 -1356 0
-397 -1291 0
-398 -1292 0
-399 -1293 0
-397 -1273 0
-398 -1274 0
-399 -1275 0
-397 -547 0
-398 -548 0
-399 -549 0
-397 -1909 0
-398 -1910 0
-399 -1911 0
-400 -1375 0
-401 -1376 0
-402 -1377 0
-400 -1882 0
-401 -1883 0
-402 -1884 0
-400 -1159 0
-401 -1160 0
-402 -1161 0
-403 -1405 0
-404 -1406 0
-405 -1407 0
-403 -808 0
-404 -809 0
-405 -810 0
-403 -1843 0
-404 -1844 0
-405 -1845 0
-406 -865 0
-407 -866 0
-408 -867 0
-406 -1843 0
-407 -1844 0
-408 -1845 0
-406 -1912 0
-407 -1913 0
-408 -1914 0
-409 -559 0
-410 -560 0
-411 -561 0
-409 -583 0
-410 -584 0
-411 -585 0
-409 -871 0
-410 -872 0
-411 -873 0
-412 -874 0
-413 -875 0
-414 -876 0
-412 -547 0
-413 -548 0
-414 -549 0
-415 -985 0
-416 -986 0
-417 -987 0
-415 -1282 0
-416 -1283 0
-417 -1284 0
-415 -682 0
-416 -683 0
-417 -684 0
-415 -1021 0
-416 -1022 0
-417 -1023 0
-415 -466 0
-416 -467 0
-417 -468 0
-415 -421 0
-416 -422 0
-417 -423 0
-418 -691 0
-419 -692 0
-420 -693 0
-418 -1024 0
-419 -1025 0
-420 -1026 0
-418 -988 0
-419 -989 0
-420 -990 0
-418 -469 0
-419 -470 0
-420 -471 0
-421 -1270 0
-422 -1271 0
-423 -1272 0
-421 -688 0
-422 -689 0
-423 -690 0
-421 -472 0
-422 -473 0
-423 -474 0
-424 -991 0
-425 -992 0
-426 -993 0
-424 -694 0
-425 -695 0
-426 -696 0
-424 -1027 0
-425 -1028 0
-426 -1029 0
-424 -454 0
-425 -455 0
-426 -456 0
-427 -1375 0
-428 -1376 0
-429 -1377 0
-427 -1159 0
-428 -1160 0
-429 -1161 0
-427 -1879 0
-428 -1880 0
-429 -1881 0
-430 -769 0
-431 -770 0
-432 -771 0
-430 -601 0
-431 -602 0
-432 -603 0
-430 -493 0
-431 -494 0
-432 -495 0
-433 -628 0
-434 -629 0
-435 -630 0
-433 -715 0
-434 -716 0
-435 -717 0
-433 -436 0
-434 -437 0
-435 -438 0
-433 -463 0
-434 -464 0
-435 -465 0
-436 -1687 0
-437 -1688 0
-438 -1689 0
-436 -721 0
-437 -722 0
-438 -723 0
-436 -469 0
-437 -470 0
-438 -471 0
-436 -553 0
-437 -554 0
-438 -555 0
-439 -631 0
-440 -632 0
-441 -633 0
-439 -454 0
-440 -455 0
-441 -456 0
-439 -724 0
-440 -725 0
-441 -726 0
-439 -556 0
-440 -557 0
-441 -558 0
-442 -1495 0
-443 -1496 0
-444 -1497 0
-442 -967 0
-443 -968 0
-444 -969 0
-442 -1540 0
-443 -1541 0
-444 -1542 0
-445 -1507 0
-446 -1508 0
-447 -1509 0
-445 -1510 0
-446 -1511 0
-447 -1512 0
-445 -973 0
-446 -974 0
-447 -975 0
-448 -769 0
-449 -770 0
-450 -771 0
-448 -1186 0
-449 -1187 0
-450 -1188 0
-448 -1120 0
-449 -1121 0
-450 -1122 0
-451 -769 0
-452 -770 0
-453 -771 0
-451 -1189 0
-452 -1190 0
-453 -1191 0
-451 -1123 0
-452 -1124 0
-453 -1125 0
-451 -1198 0
-452 -1199 0
-453 -1200 0
-454 -643 0
-455 -644 0
-456 -645 0
-454 -457 0
-455 -458 0
-456 -459 0
-454 -766 0
-455 -767 0
-456 -768 0
-454 -1675 0
-455 -1676 0
-456 -1677 0
-457 -769 0
-458 -770 0
-459 -771 0
-457 -484 0
-458 -485 0
-459 -486 0
-460 -1768 0
-461 -1769 0
-462 -1770 0
-460 -1315 0
-461 -1316 0
-462 -1317 0
-460 -1060 0
-461 -1061 0
-462 -1062 0
-463 -769 0
-464 -770 0
-465 -771 0
-463 -469 0
-464 -470 0
-465 -471 0
-463 -1015 0
-464 -1016 0
-465 -1017 0
-466 -766 0
-467 -767 0
-468 -768 0
-466 -646 0
-467 -647 0
-468 -648 0
-466 -472 0
-467 -473 0
-468 -474 0
-466 -1012 0
-467 -1013 0
-468 -1014 0
-469 -772 0
-470 -773 0
-471 -774 0
-472 -649 0
-473 -650 0
-474 -651 0
-472 -769 0
-473 -770 0
-474 -771 0
-472 -637 0
-473 -638 0
-474 -639 0
-472 -481 0
-473 -482 0
-474 -483 0
-475 -1522 0
-476 -1523 0
-477 -1524 0
-475 -709 0
-476 -710 0
-477 -711 0
-475 -1144 0
-476 -1145 0
-477 -1146 0
-475 -1864 0
-476 -1865 0
-477 -1866 0
-478 -1927 0
-479 -1928 0
-480 -1929 0
-478 -1135 0
-479 -1136 0
-480 -1137 0
-478 -1147 0
-479 -1148 0
-480 -1149 0
-478 -1891 0
-479 -1892 0
-480 -1893 0
-478 -1903 0
-479 -1904 0
-480 -1905 0
-478 -1867 0
-479 -1868 0
-480 -1869 0
-481 -805 0
-482 -806 0
-483 -807 0
-481 -1681 0
-482 -1682 0
-483 -1683 0
-481 -1390 0
-482 -1391 0
-483 -1392 0
-484 -817 0
-485 -818 0
-486 -819 0
-484 -1390 0
-485 -1391 0
-486 -1392 0
-487 -1144 0
-488 -1145 0
-489 -1146 0
-487 -1351 0
-488 -1352 0
-489 -1353 0
-490 -1354 0
-491 -1355 0
-492 -1356 0
-490 -1147 0
-491 -1148 0
-492 -1149 0
-493 -1951 0
-494 -1952 0
-495 -1953 0
-493 -1846 0
-494 -1847 0
-495 -1848 0
-493 -865 0
-494 -866 0
-495 -867 0
-493 -1888 0
-494 -1889 0
-495 -1890 0
-496 -769 0
-497 -770 0
-498 -771 0
-499 -1156 0
-500 -1157 0
-501 -1158 0
-499 -769 0
-500 -770 0
-501 -771 0
-502 -769 0
-503 -770 0
-504 -771 0
-502 -1135 0
-503 -1136 0
-504 -1137 0
-505 -1876 0
-506 -1877 0
-507 -1878 0
-505 -1885 0
-506 -1886 0
-507 -1887 0
-508 -1939 0
-509 -1940 0
-510 -1941 0
-508 -1093 0
-509 -1094 0
-510 -1095 0
-511 -1318 0
-512 -1319 0
-513 -1320 0
-511 -967 0
-512 -968 0
-513 -969 0
-511 -1096 0
-512 -1097 0
-513 -1098 0
-511 -1312 0
-512 -1313 0
-513 -1314 0
-511 -1333 0
-512 -1334 0
-513 -1335 0
-511 -670 0
-512 -671 0
-513 -672 0
-511 -1315 0
-512 -1316 0
-513 -1317 0
-514 -1102 0
-515 -1103 0
-516 -1104 0
-517 -1318 0
-518 -1319 0
-519 -1320 0
-517 -973 0
-518 -974 0
-519 -975 0
-517 -1336 0
-518 -1337 0
-519 -1338 0
-517 -1105 0
-518 -1106 0
-519 -1107 0
-517 -1309 0
-518 -1310 0
-519 -1311 0
-520 -1918 0
-521 -1919 0
-522 -1920 0
-520 -1282 0
-521 -1283 0
-522 -1284 0
-520 -688 0
-521 -689 0
-522 -690 0
-520 -1273 0
-521 -1274 0
-522 -1275 0
-520 -547 0
-521 -548 0
-522 -549 0
-523 -1276 0
-524 -1277 0
-525 -1278 0
-523 -685 0
-524 -686 0
-525 -687 0
-523 -1558 0
-524 -1559 0
-525 -1560 0
-523 -1960 0
-524 -1961 0
-525 -1962 0
-523 -553 0
-524 -554 0
-525 -555 0
-526 -1279 0
-527 -1280 0
-528 -1281 0
-526 -682 0
-527 -683 0
-528 -684 0
-526 -1051 0
-527 -1052 0
-528 -1053 0
-526 -1897 0
-527 -1898 0
-528 -1899 0
-529 -1276 0
-530 -1277 0
-531 -1278 0
-529 -694 0
-530 -695 0
-531 -696 0
-529 -532 0
-530 -533 0
-531 -534 0
-529 -1060 0
-530 -1061 0
-531 -1062 0
-532 -700 0
-533 -701 0
-534 -702 0
-532 -1063 0
-533 -1064 0
-534 -1065 0
-532 -1960 0
-533 -1961 0
-534 -1962 0
-532 -553 0
-533 -554 0
-534 -555 0
-535 -559 0
-536 -560 0
-537 -561 0
-535 -1279 0
-536 -1280 0
-537 -1281 0
-535 -697 0
-536 -698 0
-537 -699 0
-535 -1909 0
-536 -1910 0
-537 -1911 0
-538 -1873 0
-539 -1874 0
-540 -1875 0
-538 -1147 0
-539 -1148 0
-540 -1149 0
-541 -1459 0
-542 -1460 0
-543 -1461 0
-541 -1747 0
-542 -1748 0
-543 -1749 0
-541 -1159 0
-542 -1160 0
-543 -1161 0
-541 -1363 0
-542 -1364 0
-543 -1365 0
-544 -1516 0
-545 -1517 0
-546 -1518 0
-544 -1159 0
-545 -1160 0
-546 -1161 0
-544 -1474 0
-545 -1475 0
-546 -1476 0
-544 -1360 0
-545 -1361 0
-546 -1362 0
-547 -550 0
-548 -551 0
-549 -552 0
-547 -769 0
-548 -770 0
-549 -771 0
-547 -736 0
-548 -737 0
-549 -738 0
-547 -895 0
-548 -896 0
-549 -897 0
-547 -1093 0
-548 -1094 0
-549 -1095 0
-550 -898 0
-551 -899 0
-552 -900 0
-550 -772 0
-551 -773 0
-552 -774 0
-550 -1099 0
-551 -1100 0
-552 -1101 0
-550 -1630 0
-551 -1631 0
-552 -1632 0
-553 -769 0
-554 -770 0
-555 -771 0
-553 -739 0
-554 -740 0
-555 -741 0
-553 -901 0
-554 -902 0
-555 -903 0
-553 -937 0
-554 -938 0
-555 -939 0
-553 -1096 0
-554 -1097 0
-555 -1098 0
-553 -1006 0
-554 -1007 0
-555 -1008 0
-556 -769 0
-557 -770 0
-558 -771 0
-556 -733 0
-557 -734 0
-558 -735 0
-556 -904 0
-557 -905 0
-558 -906 0
-556 -1102 0
-557 -1103 0
-558 -1104 0
-559 -769 0
-560 -770 0
-561 -771 0
-559 -910 0
-560 -911 0
-561 -912 0
-559 -1105 0
-560 -1106 0
-561 -1107 0
-562 -1471 0
-563 -1472 0
-564 -1473 0
-562 -1828 0
-563 -1829 0
-564 -1830 0
-562 -1075 0
-563 -1076 0
-564 -1077 0
-565 -1522 0
-566 -1523 0
-567 -1524 0
-565 -1186 0
-566 -1187 0
-567 -1188 0
-565 -709 0
-566 -710 0
-567 -711 0
-565 -913 0
-566 -914 0
-567 -915 0
-568 -1819 0
-569 -1820 0
-570 -1821 0
-571 -1189 0
-572 -1190 0
-573 -1191 0
-574 -1219 0
-575 -1220 0
-576 -1221 0
-574 -1435 0
-575 -1436 0
-576 -1437 0
-577 -583 0
-578 -584 0
-579 -585 0
-577 -1651 0
-578 -1652 0
-579 -1653 0
-577 -1936 0
-578 -1937 0
-579 -1938 0
-577 -766 0
-578 -767 0
-579 -768 0
-577 -1849 0
-578 -1850 0
-579 -1851 0
-577 -1675 0
-578 -1676 0
-579 -1677 0
-580 -769 0
-581 -770 0
-582 -771 0
-580 -1024 0
-581 -1025 0
-582 -1026 0
-583 -916 0
-584 -917 0
-585 -918 0
-583 -796 0
-584 -797 0
-585 -798 0
-583 -919 0
-584 -920 0
-585 -921 0
-583 -769 0
-584 -770 0
-585 -771 0
-583 -1021 0
-584 -1022 0
-585 -1023 0
-583 -1117 0
-584 -1118 0
-585 -1119 0
-583 -652 0
-584 -653 0
-585 -654 0
-583 -892 0
-584 -893 0
-585 -894 0
-586 -1654 0
-587 -1655 0
-588 -1656 0
-586 -1723 0
-587 -1724 0
-588 -1725 0
-586 -1846 0
-587 -1847 0
-588 -1848 0
-586 -1936 0
-587 -1937 0
-588 -1938 0
-586 -766 0
-587 -767 0
-588 -768 0
-586 -589 0
-587 -590 0
-588 -591 0
-589 -799 0
-590 -800 0
-591 -801 0
-589 -769 0
-590 -770 0
-591 -771 0
-589 -1027 0
-590 -1028 0
-591 -1029 0
-592 -613 0
-593 -614 0
-594 -615 0
-592 -769 0
-593 -770 0
-594 -771 0
-592 -655 0
-593 -656 0
-594 -657 0
-592 -1171 0
-593 -1172 0
-594 -1173 0
-592 -760 0
-593 -761 0
-594 -762 0
-595 -769 0
-596 -770 0
-597 -771 0
-595 -778 0
-596 -779 0
-597 -780 0
-598 -610 0
-599 -611 0
-600 -612 0
-598 -769 0
-599 -770 0
-600 -771 0
-598 -781 0
-599 -782 0
-600 -783 0
-601 -1876 0
-602 -1877 0
-603 -1878 0
-601 -967 0
-602 -968 0
-603 -969 0
-604 -1918 0
-605 -1919 0
-606 -1920 0
-604 -748 0
-605 -749 0
-606 -750 0
-604 -1189 0
-605 -1190 0
-606 -1191 0
-604 -1222 0
-605 -1223 0
-606 -1224 0
-607 -751 0
-608 -752 0
-609 -753 0
-607 -1558 0
-608 -1559 0
-609 -1560 0
-607 -1225 0
-608 -1226 0
-609 -1227 0
-610 -808 0
-611 -809 0
-612 -810 0
-610 -1762 0
-611 -1763 0
-612 -1764 0
-610 -1789 0
-611 -1790 0
-612 -1791 0
-610 -1843 0
-611 -1844 0
-612 -1845 0
-610 -1912 0
-611 -1913 0
-612 -1914 0
-613 -1732 0
-614 -1733 0
-615 -1734 0
-613 -817 0
-614 -818 0
-615 -819 0
-613 -1942 0
-614 -1943 0
-615 -1944 0
-616 -745 0
-617 -746 0
-618 -747 0
-616 -1186 0
-617 -1187 0
-618 -1188 0
-616 -1231 0
-617 -1232 0
-618 -1233 0
-619 -769 0
-620 -770 0
-621 -771 0
-619 -1108 0
-620 -1109 0
-621 -1110 0
-622 -769 0
-623 -770 0
-624 -771 0
-622 -1204 0
-623 -1205 0
-624 -1206 0
-622 -1234 0
-623 -1235 0
-624 -1236 0
-625 -769 0
-626 -770 0
-627 -771 0
-625 -1237 0
-626 -1238 0
-627 -1239 0
-628 -766 0
-629 -767 0
-630 -768 0
-628 -1300 0
-629 -1301 0
-630 -1302 0
-631 -643 0
-632 -644 0
-633 -645 0
-631 -646 0
-632 -647 0
-633 -648 0
-631 -769 0
-632 -770 0
-633 -771 0
-631 -634 0
-632 -635 0
-633 -636 0
-634 -958 0
-635 -959 0
-636 -960 0
-634 -649 0
-635 -650 0
-636 -651 0
-634 -772 0
-635 -773 0
-636 -774 0
-634 -961 0
-635 -962 0
-636 -963 0
-637 -1681 0
-638 -1682 0
-639 -1683 0
-637 -1309 0
-638 -1310 0
-639 -1311 0
-637 -973 0
-638 -974 0
-639 -975 0
-640 -976 0
-641 -977 0
-642 -978 0
-640 -1231 0
-641 -1232 0
-642 -1233 0
-643 -1318 0
-644 -1319 0
-645 -1320 0
-643 -805 0
-644 -806 0
-645 -807 0
-643 -1312 0
-644 -1313 0
-645 -1314 0
-646 -817 0
-647 -818 0
-648 -819 0
-646 -1318 0
-647 -1319 0
-648 -1320 0
-646 -649 0
-647 -650 0
-648 -651 0
-646 -994 0
-647 -995 0
-648 -996 0
-646 -1297 0
-647 -1298 0
-648 -1299 0
-649 -823 0
-650 -824 0
-651 -825 0
-649 -1390 0
-650 -1391 0
-651 -1392 0
-652 -865 0
-653 -866 0
-654 -867 0
-652 -1849 0
-653 -1850 0
-654 -1851 0
-655 -1846 0
-656 -1847 0
-657 -1848 0
-655 -1405 0
-656 -1406 0
-657 -1407 0
-655 -865 0
-656 -866 0
-657 -867 0
-655 -1843 0
-656 -1844 0
-657 -1845 0
-658 -1858 0
-659 -1859 0
-660 -1860 0
-658 -1633 0
-659 -1634 0
-660 -1635 0
-658 -1885 0
-659 -1886 0
-660 -1887 0
-661 -715 0
-662 -716 0
-663 -717 0
-661 -1279 0
-662 -1280 0
-663 -1281 0
-661 -697 0
-662 -698 0
-663 -699 0
-661 -682 0
-662 -683 0
-663 -684 0
-661 -724 0
-662 -725 0
-663 -726 0
-661 -1564 0
-662 -1565 0
-663 -1566 0
-664 -727 0
-665 -728 0
-666 -729 0
-664 -712 0
-665 -713 0
-666 -714 0
-664 -1276 0
-665 -1277 0
-666 -1278 0
-664 -667 0
-665 -668 0
-666 -669 0
-664 -694 0
-665 -695 0
-666 -696 0
-664 -1828 0
-665 -1829 0
-666 -1830 0
-664 -685 0
-665 -686 0
-666 -687 0
-664 -1357 0
-665 -1358 0
-666 -1359 0
-667 -1726 0
-668 -1727 0
-669 -1728 0
-667 -718 0
-668 -719 0
-669 -720 0
-667 -700 0
-668 -701 0
-669 -702 0
-667 -691 0
-668 -692 0
-669 -693 0
-667 -1366 0
-668 -1367 0
-669 -1368 0
-670 -1393 0
-671 -1394 0
-672 -1395 0
-670 -1900 0
-671 -1901 0
-672 -1902 0
-670 -1747 0
-671 -1748 0
-672 -1749 0
-670 -1159 0
-671 -1160 0
-672 -1161 0
-673 -769 0
-674 -770 0
-675 -771 0
-673 -1207 0
-674 -1208 0
-675 -1209 0
-676 -772 0
-677 -773 0
-678 -774 0
-676 -1549 0
-677 -1550 0
-678 -1551 0
-676 -1534 0
-677 -1535 0
-678 -1536 0
-679 -1036 0
-680 -1037 0
-681 -1038 0
-679 -1513 0
-680 -1514 0
-681 -1515 0
-679 -1447 0
-680 -1448 0
-681 -1449 0
-682 -688 0
-683 -689 0
-684 -690 0
-682 -1321 0
-683 -1322 0
-684 -1323 0
-682 -766 0
-683 -767 0
-684 -768 0
-685 -769 0
-686 -770 0
-687 -771 0
-685 -691 0
-686 -692 0
-687 -693 0
-685 -1210 0
-686 -1211 0
-687 -1212 0
-685 -754 0
-686 -755 0
-687 -756 0
-688 -769 0
-689 -770 0
-690 -771 0
-688 -1138 0
-689 -1139 0
-690 -1140 0
-688 -757 0
-689 -758 0
-690 -759 0
-691 -1345 0
-692 -1346 0
-693 -1347 0
-691 -772 0
-692 -773 0
-693 -774 0
-691 -1141 0
-692 -1142 0
-693 -1143 0
-691 -1324 0
-692 -1325 0
-693 -1326 0
-694 -700 0
-695 -701 0
-696 -702 0
-694 -766 0
-695 -767 0
-696 -768 0
-697 -769 0
-698 -770 0
-699 -771 0
-697 -703 0
-698 -704 0
-699 -705 0
-697 -784 0
-698 -785 0
-699 -786 0
-697 -1150 0
-698 -1151 0
-699 -1152 0
-700 -769 0
-701 -770 0
-702 -771 0
-700 -787 0
-701 -788 0
-702 -789 0
-700 -1174 0
-701 -1175 0
-702 -1176 0
-703 -1327 0
-704 -1328 0
-705 -1329 0
-703 -772 0
-704 -773 0
-705 -774 0
-703 -1153 0
-704 -1154 0
-705 -1155 0
-706 -1303 0
-707 -1304 0
-708 -1305 0
-706 -1576 0
-707 -1577 0
-708 -1578 0
-706 -1912 0
-707 -1913 0
-708 -1914 0
-709 -1219 0
-710 -1220 0
-711 -1221 0
-709 -1408 0
-710 -1409 0
-711 -1410 0
-712 -1804 0
-713 -1805 0
-714 -1806 0
-712 -895 0
-713 -896 0
-714 -897 0
-712 -1462 0
-713 -1463 0
-714 -1464 0
-712 -1465 0
-713 -1466 0
-714 -1467 0
-712 -1774 0
-713 -1775 0
-714 -1776 0
-712 -754 0
-713 -755 0
-714 -756 0
-712 -766 0
-713 -767 0
-714 -768 0
-712 -718 0
-713 -719 0
-714 -720 0
-715 -721 0
-716 -722 0
-717 -723 0
-715 -769 0
-716 -770 0
-717 -771 0
-715 -946 0
-716 -947 0
-717 -948 0
-718 -1042 0
-719 -1043 0
-720 -1044 0
-718 -769 0
-719 -770 0
-720 -771 0
-718 -898 0
-719 -899 0
-720 -900 0
-718 -958 0
-719 -959 0
-720 -960 0
-721 -901 0
-722 -902 0
-723 -903 0
-721 -772 0
-722 -773 0
-723 -774 0
-721 -757 0
-722 -758 0
-723 -759 0
-724 -1807 0
-725 -1808 0
-726 -1809 0
-724 -784 0
-725 -785 0
-726 -786 0
-724 -1519 0
-725 -1520 0
-726 -1521 0
-724 -1714 0
-725 -1715 0
-726 -1716 0
-724 -904 0
-725 -905 0
-726 -906 0
-724 -766 0
-725 -767 0
-726 -768 0
-724 -730 0
-725 -731 0
-726 -732 0
-727 -769 0
-728 -770 0
-729 -771 0
-727 -949 0
-728 -950 0
-729 -951 0
-730 -769 0
-731 -770 0
-732 -771 0
-730 -961 0
-731 -962 0
-732 -963 0
-730 -907 0
-731 -908 0
-732 -909 0
-733 -967 0
-734 -968 0
-735 -969 0
-733 -1333 0
-734 -1334 0
-735 -1335 0
-736 -973 0
-737 -974 0
-738 -975 0
-736 -1336 0
-737 -1337 0
-738 -1338 0
-736 -1369 0
-737 -1370 0
-738 -1371 0
-739 -1507 0
-740 -1508 0
-741 -1509 0
-739 -1387 0
-740 -1388 0
-741 -1389 0
-739 -973 0
-740 -974 0
-741 -975 0
-742 -1603 0
-743 -1604 0
-744 -1605 0
-742 -1612 0
-743 -1613 0
-744 -1614 0
-742 -1819 0
-743 -1820 0
-744 -1821 0
-745 -1606 0
-746 -1607 0
-747 -1608 0
-745 -1213 0
-746 -1214 0
-747 -1215 0
-748 -1213 0
-749 -1214 0
-750 -1215 0
-748 -1486 0
-749 -1487 0
-750 -1488 0
-748 -1537 0
-749 -1538 0
-750 -1539 0
-748 -1543 0
-749 -1544 0
-750 -1545 0
-751 -1219 0
-752 -1220 0
-753 -1221 0
-751 -1585 0
-752 -1586 0
-753 -1587 0
-754 -802 0
-755 -803 0
-756 -804 0
-754 -1930 0
-755 -1931 0
-756 -1932 0
-754 -841 0
-755 -842 0
-756 -843 0
-757 -811 0
-758 -812 0
-759 -813 0
-757 -844 0
-758 -845 0
-759 -846 0
-760 -1942 0
-761 -1943 0
-762 -1944 0
-760 -1738 0
-761 -1739 0
-762 -1740 0
-760 -1405 0
-761 -1406 0
-762 -1407 0
-760 -1930 0
-761 -1931 0
-762 -1932 0
-760 -952 0
-761 -953 0
-762 -954 0
-763 -1765 0
-764 -1766 0
-765 -1767 0
-763 -1924 0
-764 -1925 0
-765 -1926 0
-763 -1222 0
-764 -1223 0
-765 -1224 0
-763 -1783 0
-764 -1784 0
-765 -1785 0
-766 -838 0
-767 -839 0
-768 -840 0
-766 -853 0
-767 -854 0
-768 -855 0
-766 -925 0
-767 -926 0
-768 -927 0
-766 -769 0
-767 -770 0
-768 -771 0
-766 -802 0
-767 -803 0
-768 -804 0
-766 -814 0
-767 -815 0
-768 -816 0
-766 -964 0
-767 -965 0
-768 -966 0
-766 -1033 0
-767 -1034 0
-768 -1035 0
-766 -994 0
-767 -995 0
-768 -996 0
-766 -1162 0
-767 -1163 0
-768 -1164 0
-766 -1228 0
-767 -1229 0
-768 -1230 0
-769 -1255 0
-770 -1256 0
-771 -1257 0
-769 -841 0
-770 -842 0
-771 -843 0
-769 -844 0
-770 -845 0
-771 -846 0
-769 -985 0
-770 -986 0
-771 -987 0
-769 -988 0
-770 -989 0
-771 -990 0
-769 -1159 0
-770 -1160 0
-771 -1161 0
-769 -952 0
-770 -953 0
-771 -954 0
-769 -856 0
-770 -857 0
-771 -858 0
-769 -859 0
-770 -860 0
-771 -861 0
-769 -1069 0
-770 -1070 0
-771 -1071 0
-769 -922 0
-770 -923 0
-771 -924 0
-769 -1072 0
-770 -1073 0
-771 -1074 0
-769 -928 0
-770 -929 0
-771 -930 0
-769 -955 0
-770 -956 0
-771 -957 0
-769 -805 0
-770 -806 0
-771 -807 0
-769 -808 0
-770 -809 0
-771 -810 0
-769 -817 0
-770 -818 0
-771 -819 0
-769 -820 0
-770 -821 0
-771 -822 0
-769 -772 0
-770 -773 0
-771 -774 0
-769 -934 0
-770 -935 0
-771 -936 0
-769 -940 0
-770 -941 0
-771 -942 0
-769 -943 0
-770 -944 0
-771 -945 0
-769 -967 0
-770 -968 0
-771 -969 0
-769 -973 0
-770 -974 0
-771 -975 0
-769 -1030 0
-770 -1031 0
-771 -1032 0
-769 -1036 0
-770 -1037 0
-771 -1038 0
-769 -991 0
-770 -992 0
-771 -993 0
-769 -1075 0
-770 -1076 0
-771 -1077 0
-769 -1168 0
-770 -1169 0
-771 -1170 0
-769 -1222 0
-770 -1223 0
-771 -1224 0
-769 -1225 0
-770 -1226 0
-771 -1227 0
-769 -1231 0
-770 -1232 0
-771 -1233 0
-769 -1051 0
-770 -1052 0
-771 -1053 0
-769 -1057 0
-770 -1058 0
-771 -1059 0
-769 -1213 0
-770 -1214 0
-771 -1215 0
-769 -1219 0
-770 -1220 0
-771 -1221 0
-769 -1060 0
-770 -1061 0
-771 -1062 0
-769 -1066 0
-770 -1067 0
-771 -1068 0
-769 -1144 0
-770 -1145 0
-771 -1146 0
-769 -1114 0
-770 -1115 0
-771 -1116 0
-769 -865 0
-770 -866 0
-771 -867 0
-769 -1252 0
-770 -1253 0
-771 -1254 0
-769 -1147 0
-770 -1148 0
-771 -1149 0
-769 -1201 0
-770 -1202 0
-771 -1203 0
-772 -1165 0
-773 -1166 0
-774 -1167 0
-772 -862 0
-773 -863 0
-774 -864 0
-772 -931 0
-773 -932 0
-774 -933 0
-772 -811 0
-773 -812 0
-774 -813 0
-772 -823 0
-773 -824 0
-774 -825 0
-772 -970 0
-773 -971 0
-774 -972 0
-772 -1039 0
-773 -1040 0
-774 -1041 0
-772 -1054 0
-773 -1055 0
-774 -1056 0
-772 -1216 0
-773 -1217 0
-774 -1218 0
-772 -1063 0
-773 -1064 0
-774 -1065 0
-775 -1735 0
-776 -1736 0
-777 -1737 0
-775 -1795 0
-776 -1796 0
-777 -1797 0
-775 -1798 0
-776 -1799 0
-777 -1800 0
-775 -1822 0
-776 -1823 0
-777 -1824 0
-775 -1768 0
-776 -1769 0
-777 -1770 0
-775 -1921 0
-776 -1922 0
-777 -1923 0
-775 -1231 0
-776 -1232 0
-777 -1233 0
-778 -1741 0
-779 -1742 0
-780 -1743 0
-778 -955 0
-779 -956 0
-780 -957 0
-778 -1450 0
-779 -1451 0
-780 -1452 0
-781 -1915 0
-782 -1916 0
-783 -1917 0
-781 -1912 0
-782 -1913 0
-783 -1914 0
-784 -1450 0
-785 -1451 0
-786 -1452 0
-784 -856 0
-785 -857 0
-786 -858 0
-784 -814 0
-785 -815 0
-786 -816 0
-787 -1915 0
-788 -1916 0
-789 -1917 0
-787 -823 0
-788 -824 0
-789 -825 0
-787 -859 0
-788 -860 0
-789 -861 0
-790 -1237 0
-791 -1238 0
-792 -1239 0
-793 -1453 0
-794 -1454 0
-795 -1455 0
-793 -1255 0
-794 -1256 0
-795 -1257 0
-796 -991 0
-797 -992 0
-798 -993 0
-796 -1609 0
-797 -1610 0
-798 -1611 0
-796 -1411 0
-797 -1412 0
-798 -1413 0
-799 -985 0
-800 -986 0
-801 -987 0
-799 -1579 0
-800 -1580 0
-801 -1581 0
-799 -1411 0
-800 -1412 0
-801 -1413 0
-799 -1591 0
-800 -1592 0
-801 -1593 0
-802 -808 0
-803 -809 0
-804 -810 0
-802 -1801 0
-803 -1802 0
-804 -1803 0
-802 -880 0
-803 -881 0
-804 -882 0
-802 -1081 0
-803 -1082 0
-804 -1083 0
-802 -1789 0
-803 -1790 0
-804 -1791 0
-802 -1717 0
-803 -1718 0
-804 -1719 0
-802 -1669 0
-803 -1670 0
-804 -1671 0
-805 -883 0
-806 -884 0
-807 -885 0
-805 -811 0
-806 -812 0
-807 -813 0
-808 -1177 0
-809 -1178 0
-810 -1179 0
-808 -886 0
-809 -887 0
-810 -888 0
-808 -1084 0
-809 -1085 0
-810 -1086 0
-811 -889 0
-812 -890 0
-813 -891 0
-811 -1837 0
-812 -1838 0
-813 -1839 0
-811 -1078 0
-812 -1079 0
-813 -1080 0
-814 -820 0
-815 -821 0
-816 -822 0
-814 -883 0
-815 -884 0
-816 -885 0
-814 -1087 0
-815 -1088 0
-816 -1089 0
-814 -1720 0
-815 -1721 0
-816 -1722 0
-817 -1180 0
-818 -1181 0
-819 -1182 0
-817 -880 0
-818 -881 0
-819 -882 0
-817 -823 0
-818 -824 0
-819 -825 0
-820 -1183 0
-821 -1184 0
-822 -1185 0
-820 -889 0
-821 -890 0
-822 -891 0
-820 -1090 0
-821 -1091 0
-822 -1092 0
-823 -886 0
-824 -887 0
-825 -888 0
-823 -1840 0
-824 -1841 0
-825 -1842 0
-826 -976 0
-827 -977 0
-828 -978 0
-826 -1225 0
-827 -1226 0
-828 -1227 0
-826 -1927 0
-827 -1928 0
-828 -1929 0
-826 -1048 0
-827 -1049 0
-828 -1050 0
-829 -1234 0
-830 -1235 0
-831 -1236 0
-832 -1735 0
-833 -1736 0
-834 -1737 0
-832 -1237 0
-833 -1238 0
-834 -1239 0
-832 -1231 0
-833 -1232 0
-834 -1233 0
-835 -1738 0
-836 -1739 0
-837 -1740 0
-835 -1741 0
-836 -1742 0
-837 -1743 0
-835 -1405 0
-836 -1406 0
-837 -1407 0
-835 -1114 0
-836 -1115 0
-837 -1116 0
-835 -1771 0
-836 -1772 0
-837 -1773 0
-835 -1300 0
-836 -1301 0
-837 -1302 0
-838 -1093 0
-839 -1094 0
-840 -1095 0
-838 -1009 0
-839 -1010 0
-840 -1011 0
-838 -844 0
-839 -845 0
-840 -846 0
-838 -883 0
-839 -884 0
-840 -885 0
-841 -880 0
-842 -881 0
-843 -882 0
-844 -889 0
-845 -890 0
-846 -891 0
-844 -1099 0
-845 -1100 0
-846 -1101 0
-847 -1396 0
-848 -1397 0
-849 -1398 0
-847 -1159 0
-848 -1160 0
-849 -1161 0
-847 -1660 0
-848 -1661 0
-849 -1662 0
-847 -1561 0
-848 -1562 0
-849 -1563 0
-850 -1642 0
-851 -1643 0
-852 -1644 0
-850 -1168 0
-851 -1169 0
-852 -1170 0
-850 -1447 0
-851 -1448 0
-852 -1449 0
-853 -1102 0
-854 -1103 0
-855 -1104 0
-853 -859 0
-854 -860 0
-855 -861 0
-853 -880 0
-854 -881 0
-855 -882 0
-853 -1015 0
-854 -1016 0
-855 -1017 0
-856 -883 0
-857 -884 0
-858 -885 0
-856 -862 0
-857 -863 0
-858 -864 0
-856 -1012 0
-857 -1013 0
-858 -1014 0
-856 -1018 0
-857 -1019 0
-858 -1020 0
-859 -886 0
-860 -887 0
-861 -888 0
-862 -1309 0
-863 -1310 0
-864 -1311 0
-862 -889 0
-863 -890 0
-864 -891 0
-862 -1348 0
-863 -1349 0
-864 -1350 0
-862 -1630 0
-863 -1631 0
-864 -1632 0
-862 -1105 0
-863 -1106 0
-864 -1107 0
-865 -997 0
-866 -998 0
-867 -999 0
-868 -1024 0
-869 -1025 0
-870 -1026 0
-868 -1750 0
-869 -1751 0
-870 -1752 0
-871 -1963 0
-872 -1964 0
-873 -1965 0
-871 -1402 0
-872 -1403 0
-873 -1404 0
-871 -1021 0
-872 -1022 0
-873 -1023 0
-874 -1753 0
-875 -1754 0
-876 -1755 0
-877 -1399 0
-878 -1400 0
-879 -1401 0
-877 -1201 0
-878 -1202 0
-879 -1203 0
-877 -1006 0
-878 -1007 0
-879 -1008 0
-877 -1027 0
-878 -1028 0
-879 -1029 0
-880 -886 0
-881 -887 0
-882 -888 0
-880 -1330 0
-881 -1331 0
-882 -1332 0
-880 -1696 0
-881 -1697 0
-882 -1698 0
-883 -889 0
-884 -890 0
-885 -891 0
-883 -1873 0
-884 -1874 0
-885 -1875 0
-883 -1699 0
-884 -1700 0
-885 -1701 0
-886 -1294 0
-887 -1295 0
-888 -1296 0
-889 -1705 0
-890 -1706 0
-891 -1707 0
-892 -1036 0
-893 -1037 0
-894 -1038 0
-892 -1870 0
-893 -1871 0
-894 -1872 0
-895 -898 0
-896 -899 0
-897 -900 0
-895 -1306 0
-896 -1307 0
-897 -1308 0
-895 -1765 0
-896 -1766 0
-897 -1767 0
-895 -1051 0
-896 -1052 0
-897 -1053 0
-895 -1897 0
-896 -1898 0
-897 -1899 0
-895 -1948 0
-896 -1949 0
-897 -1950 0
-898 -1054 0
-899 -1055 0
-900 -1056 0
-898 -1273 0
-899 -1274 0
-900 -1275 0
-898 -1288 0
-899 -1289 0
-900 -1290 0
-898 -1291 0
-899 -1292 0
-900 -1293 0
-898 -1672 0
-899 -1673 0
-900 -1674 0
-898 -922 0
-899 -923 0
-900 -924 0
-901 -931 0
-902 -932 0
-903 -933 0
-901 -1057 0
-902 -1058 0
-903 -1059 0
-904 -1306 0
-905 -1307 0
-906 -1308 0
-904 -1768 0
-905 -1769 0
-906 -1770 0
-904 -1060 0
-905 -1061 0
-906 -1062 0
-904 -907 0
-905 -908 0
-906 -909 0
-907 -1657 0
-908 -1658 0
-909 -1659 0
-907 -1288 0
-908 -1289 0
-909 -1290 0
-907 -1063 0
-908 -1064 0
-909 -1065 0
-907 -922 0
-908 -923 0
-909 -924 0
-910 -931 0
-911 -932 0
-912 -933 0
-910 -1066 0
-911 -1067 0
-912 -1068 0
-913 -1777 0
-914 -1778 0
-915 -1779 0
-913 -1252 0
-914 -1253 0
-915 -1254 0
-916 -1933 0
-917 -1934 0
-918 -1935 0
-916 -1819 0
-917 -1820 0
-918 -1821 0
-919 -1051 0
-920 -1052 0
-921 -1053 0
-919 -1321 0
-920 -1322 0
-921 -1323 0
-922 -1078 0
-923 -1079 0
-924 -1080 0
-925 -928 0
-926 -929 0
-927 -930 0
-925 -1573 0
-926 -1574 0
-927 -1575 0
-925 -1603 0
-926 -1604 0
-927 -1605 0
-928 -931 0
-929 -932 0
-930 -933 0
-928 -1081 0
-929 -1082 0
-930 -1083 0
-928 -1087 0
-929 -1088 0
-930 -1089 0
-928 -997 0
-929 -998 0
-930 -999 0
-931 -1303 0
-932 -1304 0
-933 -1305 0
-931 -1084 0
-932 -1085 0
-933 -1086 0
-931 -1090 0
-932 -1091 0
-933 -1092 0
-934 -1045 0
-935 -1046 0
-936 -1047 0
-934 -1126 0
-935 -1127 0
-936 -1128 0
-937 -1852 0
-938 -1853 0
-939 -1854 0
-937 -1825 0
-938 -1826 0
-939 -1827 0
-940 -1129 0
-941 -1130 0
-942 -1131 0
-943 -1045 0
-944 -1046 0
-945 -1047 0
-943 -1132 0
-944 -1133 0
-945 -1134 0
-946 -1858 0
-947 -1859 0
-948 -1860 0
-946 -1741 0
-947 -1742 0
-948 -1743 0
-946 -955 0
-947 -956 0
-948 -957 0
-946 -1891 0
-947 -1892 0
-948 -1893 0
-946 -1906 0
-947 -1907 0
-948 -1908 0
-946 -1903 0
-947 -1904 0
-948 -1905 0
-949 -1738 0
-950 -1739 0
-951 -1740 0
-949 -952 0
-950 -953 0
-951 -954 0
-949 -1906 0
-950 -1907 0
-951 -1908 0
-958 -1054 0
-959 -1055 0
-960 -1056 0
-961 -988 0
-962 -989 0
-963 -990 0
-961 -1729 0
-962 -1730 0
-963 -1731 0
-961 -1063 0
-962 -1064 0
-963 -1065 0
-964 -1525 0
-965 -1526 0
-966 -1527 0
-964 -967 0
-965 -968 0
-966 -969 0
-964 -1315 0
-965 -1316 0
-966 -1317 0
-967 -1240 0
-968 -1241 0
-969 -1242 0
-967 -970 0
-968 -971 0
-969 -972 0
-970 -1495 0
-971 -1496 0
-972 -1497 0
-970 -1477 0
-971 -1478 0
-972 -1479 0
-976 -1453 0
-977 -1454 0
-978 -1455 0
-976 -1255 0
-977 -1256 0
-978 -1257 0
-979 -1213 0
-980 -1214 0
-981 -1215 0
-979 -1771 0
-980 -1772 0
-981 -1773 0
-979 -1537 0
-980 -1538 0
-981 -1539 0
-982 -1255 0
-983 -1256 0
-984 -1257 0
-982 -1615 0
-983 -1616 0
-984 -1617 0
-985 -1243 0
-986 -1244 0
-987 -1245 0
-985 -1111 0
-986 -1112 0
-987 -1113 0
-985 -1081 0
-986 -1082 0
-987 -1083 0
-985 -1012 0
-986 -1013 0
-987 -1014 0
-988 -1078 0
-989 -1079 0
-990 -1080 0
-988 -1141 0
-989 -1142 0
-990 -1143 0
-991 -1087 0
-992 -1088 0
-993 -1089 0
-994 -1525 0
-995 -1526 0
-996 -1527 0
-994 -1531 0
-995 -1532 0
-996 -1533 0
-994 -1150 0
-995 -1151 0
-996 -1152 0
-994 -1009 0
-995 -1010 0
-996 -1011 0
-997 -1492 0
-998 -1493 0
-999 -1494 0
-1000 -1219 0
-1001 -1220 0
-1002 -1221 0
-1000 -1684 0
-1001 -1685 0
-1002 -1686 0
-1003 -1219 0
-1004 -1220 0
-1005 -1221 0
-1003 -1261 0
-1004 -1262 0
-1005 -1263 0
-1003 -1759 0
-1004 -1760 0
-1005 -1761 0
-1003 -1366 0
-1004 -1367 0
-1005 -1368 0
-1003 -1372 0
-1004 -1373 0
-1005 -1374 0
-1006 -1114 0
-1007 -1115 0
-1008 -1116 0
-1006 -1240 0
-1007 -1241 0
-1008 -1242 0
-1009 -1168 0
-1010 -1169 0
-1011 -1170 0
-1009 -1699 0
-1010 -1700 0
-1011 -1701 0
-1012 -1297 0
-1013 -1298 0
-1014 -1299 0
-1015 -1696 0
-1016 -1697 0
-1017 -1698 0
-1015 -1168 0
-1016 -1169 0
-1017 -1170 0
-1018 -1297 0
-1019 -1298 0
-1020 -1299 0
-1018 -1699 0
-1019 -1700 0
-1020 -1701 0
-1021 -1321 0
-1022 -1322 0
-1023 -1323 0
-1021 -1288 0
-1022 -1289 0
-1023 -1290 0
-1021 -1114 0
-1022 -1115 0
-1023 -1116 0
-1021 -1243 0
-1022 -1244 0
-1023 -1245 0
-1027 -1288 0
-1028 -1289 0
-1029 -1290 0
-1027 -1114 0
-1028 -1115 0
-1029 -1116 0
-1030 -1246 0
-1031 -1247 0
-1032 -1248 0
-1033 -1036 0
-1034 -1037 0
-1035 -1038 0
-1033 -1378 0
-1034 -1379 0
-1035 -1380 0
-1033 -1531 0
-1034 -1532 0
-1035 -1533 0
-1036 -1039 0
-1037 -1040 0
-1038 -1041 0
-1036 -1261 0
-1037 -1262 0
-1038 -1263 0
-1039 -1483 0
-1040 -1484 0
-1041 -1485 0
-1039 -1513 0
-1040 -1514 0
-1041 -1515 0
-1039 -1567 0
-1040 -1568 0
-1041 -1569 0
-1042 -1276 0
-1043 -1277 0
-1044 -1278 0
-1042 -1306 0
-1043 -1307 0
-1044 -1308 0
-1042 -1060 0
-1043 -1061 0
-1044 -1062 0
-1045 -1852 0
-1046 -1853 0
-1047 -1854 0
-1045 -1825 0
-1046 -1826 0
-1047 -1827 0
-1045 -1195 0
-1046 -1196 0
-1047 -1197 0
-1045 -1198 0
-1046 -1199 0
-1047 -1200 0
-1048 -1588 0
-1049 -1589 0
-1050 -1590 0
-1048 -1261 0
-1049 -1262 0
-1050 -1263 0
-1048 -1594 0
-1049 -1595 0
-1050 -1596 0
-1051 -1054 0
-1052 -1055 0
-1053 -1056 0
-1054 -1138 0
-1055 -1139 0
-1056 -1140 0
-1054 -1105 0
-1055 -1106 0
-1056 -1107 0
-1057 -1090 0
-1058 -1091 0
-1059 -1092 0
-1057 -1141 0
-1058 -1142 0
-1059 -1143 0
-1060 -1063 0
-1061 -1064 0
-1062 -1065 0
-1063 -1345 0
-1064 -1346 0
-1065 -1347 0
-1063 -1078 0
-1064 -1079 0
-1065 -1080 0
-1063 -1096 0
-1064 -1097 0
-1065 -1098 0
-1066 -1099 0
-1067 -1100 0
-1068 -1101 0
-1066 -1084 0
-1067 -1085 0
-1068 -1086 0
-1066 -1153 0
-1067 -1154 0
-1068 -1155 0
-1069 -1249 0
-1070 -1250 0
-1071 -1251 0
-1069 -1129 0
-1070 -1130 0
-1071 -1131 0
-1072 -1132 0
-1073 -1133 0
-1074 -1134 0
-1075 -1264 0
-1076 -1265 0
-1077 -1266 0
-1075 -1126 0
-1076 -1127 0
-1077 -1128 0
-1081 -1339 0
-1082 -1340 0
-1083 -1341 0
-1081 -1084 0
-1082 -1085 0
-1083 -1086 0
-1081 -1579 0
-1082 -1580 0
-1083 -1581 0
-1087 -1603 0
-1088 -1604 0
-1089 -1605 0
-1087 -1609 0
-1088 -1610 0
-1089 -1611 0
-1087 -1342 0
-1088 -1343 0
-1089 -1344 0
-1087 -1090 0
-1088 -1091 0
-1089 -1092 0
-1093 -1099 0
-1094 -1100 0
-1095 -1101 0
-1093 -1168 0
-1094 -1169 0
-1095 -1170 0
-1096 -1240 0
-1097 -1241 0
-1098 -1242 0
-1096 -1294 0
-1097 -1295 0
-1098 -1296 0
-1096 -1159 0
-1097 -1160 0
-1098 -1161 0
-1099 -1939 0
-1100 -1940 0
-1101 -1941 0
-1102 -1168 0
-1103 -1169 0
-1104 -1170 0
-1105 -1291 0
-1106 -1292 0
-1107 -1293 0
-1105 -1159 0
-1106 -1160 0
-1107 -1161 0
-1108 -1522 0
-1109 -1523 0
-1110 -1524 0
-1108 -1399 0
-1109 -1400 0
-1110 -1401 0
-1108 -1144 0
-1109 -1145 0
-1110 -1146 0
-1111 -1945 0
-1112 -1946 0
-1113 -1947 0
-1111 -1297 0
-1112 -1298 0
-1113 -1299 0
-1114 -1258 0
-1115 -1259 0
-1116 -1260 0
-1117 -1957 0
-1118 -1958 0
-1119 -1959 0
-1117 -1201 0
-1118 -1202 0
-1119 -1203 0
-1117 -1411 0
-1118 -1412 0
-1119 -1413 0
-1120 -1222 0
-1121 -1223 0
-1122 -1224 0
-1120 -1645 0
-1121 -1646 0
-1122 -1647 0
-1120 -1486 0
-1121 -1487 0
-1122 -1488 0
-1123 -1606 0
-1124 -1607 0
-1125 -1608 0
-1123 -1645 0
-1124 -1646 0
-1125 -1647 0
-1123 -1231 0
-1124 -1232 0
-1125 -1233 0
-1126 -1471 0
-1127 -1472 0
-1128 -1473 0
-1126 -1636 0
-1127 -1637 0
-1128 -1638 0
-1126 -1198 0
-1127 -1199 0
-1128 -1200 0
-1129 -1234 0
-1130 -1235 0
-1131 -1236 0
-1129 -1489 0
-1130 -1490 0
-1131 -1491 0
-1129 -1639 0
-1130 -1640 0
-1131 -1641 0
-1132 -1393 0
-1133 -1394 0
-1134 -1395 0
-1132 -1237 0
-1133 -1238 0
-1134 -1239 0
-1132 -1195 0
-1133 -1196 0
-1134 -1197 0
-1135 -1969 0
-1136 -1970 0
-1137 -1971 0
-1135 -1219 0
-1136 -1220 0
-1137 -1221 0
-1138 -1396 0
-1139 -1397 0
-1140 -1398 0
-1138 -1159 0
-1139 -1160 0
-1140 -1161 0
-1147 -1249 0
-1148 -1250 0
-1149 -1251 0
-1150 -1153 0
-1151 -1154 0
-1152 -1155 0
-1150 -1570 0
-1151 -1571 0
-1152 -1572 0
-1150 -1975 0
-1151 -1976 0
-1152 -1977 0
-1150 -1168 0
-1151 -1169 0
-1152 -1170 0
-1153 -1285 0
-1154 -1286 0
-1155 -1287 0
-1156 -1966 0
-1157 -1967 0
-1158 -1968 0
-1156 -1558 0
-1157 -1559 0
-1158 -1560 0
-1156 -1225 0
-1157 -1226 0
-1158 -1227 0
-1159 -1180 0
-1160 -1181 0
-1161 -1182 0
-1159 -1258 0
-1160 -1259 0
-1161 -1260 0
-1159 -1165 0
-1160 -1166 0
-1161 -1167 0
-1159 -1246 0
-1160 -1247 0
-1161 -1248 0
-1162 -1975 0
-1163 -1976 0
-1164 -1977 0
-1162 -1801 0
-1163 -1802 0
-1164 -1803 0
-1162 -1168 0
-1163 -1169 0
-1164 -1170 0
-1165 -1483 0
-1166 -1484 0
-1167 -1485 0
-1165 -1474 0
-1166 -1475 0
-1167 -1476 0
-1165 -1384 0
-1166 -1385 0
-1167 -1386 0
-1165 -1576 0
-1166 -1577 0
-1167 -1578 0
-1165 -1561 0
-1166 -1562 0
-1167 -1563 0
-1165 -1480 0
-1166 -1481 0
-1167 -1482 0
-1168 -1177 0
-1169 -1178 0
-1170 -1179 0
-1168 -1183 0
-1169 -1184 0
-1170 -1185 0
-1171 -1969 0
-1172 -1970 0
-1173 -1971 0
-1171 -1219 0
-1172 -1220 0
-1173 -1221 0
-1174 -1201 0
-1175 -1202 0
-1176 -1203 0
-1174 -1366 0
-1175 -1367 0
-1176 -1368 0
-1177 -1471 0
-1178 -1472 0
-1179 -1473 0
-1177 -1801 0
-1178 -1802 0
-1179 -1803 0
-1177 -1696 0
-1178 -1697 0
-1179 -1698 0
-1180 -1393 0
-1181 -1394 0
-1182 -1395 0
-1180 -1294 0
-1181 -1295 0
-1182 -1296 0
-1180 -1297 0
-1181 -1298 0
-1182 -1299 0
-1183 -1780 0
-1184 -1781 0
-1185 -1782 0
-1183 -1699 0
-1184 -1700 0
-1185 -1701 0
-1183 -1489 0
-1184 -1490 0
-1185 -1491 0
-1186 -1921 0
-1187 -1922 0
-1188 -1923 0
-1186 -1252 0
-1187 -1253 0
-1188 -1254 0
-1189 -1924 0
-1190 -1925 0
-1191 -1926 0
-1189 -1252 0
-1190 -1253 0
-1191 -1254 0
-1189 -1267 0
-1190 -1268 0
-1191 -1269 0
-1192 -1687 0
-1193 -1688 0
-1194 -1689 0
-1192 -1213 0
-1193 -1214 0
-1194 -1215 0
-1192 -1771 0
-1193 -1772 0
-1194 -1773 0
-1192 -1690 0
-1193 -1691 0
-1194 -1692 0
-1192 -1384 0
-1193 -1385 0
-1194 -1386 0
-1192 -1300 0
-1193 -1301 0
-1194 -1302 0
-1195 -1255 0
-1196 -1256 0
-1197 -1257 0
-1198 -1255 0
-1199 -1256 0
-1200 -1257 0
-1198 -1810 0
-1199 -1811 0
-1200 -1812 0
-1198 -1267 0
-1199 -1268 0
-1200 -1269 0
-1198 -1792 0
-1199 -1793 0
-1200 -1794 0
-1201 -1240 0
-1202 -1241 0
-1203 -1242 0
-1204 -1525 0
-1205 -1526 0
-1206 -1527 0
-1204 -1531 0
-1205 -1532 0
-1206 -1533 0
-1204 -1924 0
-1205 -1925 0
-1206 -1926 0
-1204 -1222 0
-1205 -1223 0
-1206 -1224 0
-1204 -1486 0
-1205 -1487 0
-1206 -1488 0
-1207 -1972 0
-1208 -1973 0
-1209 -1974 0
-1207 -1225 0
-1208 -1226 0
-1209 -1227 0
-1210 -1930 0
-1211 -1931 0
-1212 -1932 0
-1210 -1231 0
-1211 -1232 0
-1212 -1233 0
-1213 -1264 0
-1214 -1265 0
-1215 -1266 0
-1213 -1216 0
-1214 -1217 0
-1215 -1218 0
-1216 -1546 0
-1217 -1547 0
-1218 -1548 0
-1216 -1549 0
-1217 -1550 0
-1218 -1551 0
-1222 -1267 0
-1223 -1268 0
-1224 -1269 0
-1225 -1261 0
-1226 -1262 0
-1227 -1263 0
-1228 -1798 0
-1229 -1799 0
-1230 -1800 0
-1228 -1804 0
-1229 -1805 0
-1230 -1806 0
-1228 -1231 0
-1229 -1232 0
-1230 -1233 0
-1234 -1255 0
-1235 -1256 0
-1236 -1257 0
-1237 -1255 0
-1238 -1256 0
-1239 -1257 0
-1240 -1258 0
-1241 -1259 0
-1242 -1260 0
-1240 -1477 0
-1241 -1478 0
-1242 -1479 0
-1243 -1945 0
-1244 -1946 0
-1245 -1947 0
-1243 -1258 0
-1244 -1259 0
-1245 -1260 0
-1243 -1411 0
-1244 -1412 0
-1245 -1413 0
-1246 -1459 0
-1247 -1460 0
-1248 -1461 0
-1246 -1900 0
-1247 -1901 0
-1248 -1902 0
-1246 -1480 0
-1247 -1481 0
-1248 -1482 0
-1249 -1618 0
-1250 -1619 0
-1251 -1620 0
-1258 -1384 0
-1259 -1385 0
-1260 -1386 0
-1258 -1300 0
-1259 -1301 0
-1260 -1302 0
-1264 -1606 0
-1265 -1607 0
-1266 -1608 0
-1264 -1828 0
-1265 -1829 0
-1266 -1830 0
-1267 -1945 0
-1268 -1946 0
-1269 -1947 0
-1267 -1645 0
-1268 -1646 0
-1269 -1647 0
-1273 -1897 0
-1274 -1898 0
-1275 -1899 0
-1276 -1615 0
-1277 -1616 0
-1278 -1617 0
-1276 -1555 0
-1277 -1556 0
-1278 -1557 0
-1279 -1555 0
-1280 -1556 0
-1281 -1557 0
-1285 -1348 0
-1286 -1349 0
-1287 -1350 0
-1285 -1327 0
-1286 -1328 0
-1287 -1329 0
-1288 -1306 0
-1289 -1307 0
-1290 -1308 0
-1288 -1411 0
-1289 -1412 0
-1290 -1413 0
-1291 -1336 0
-1292 -1337 0
-1293 -1338 0
-1291 -1630 0
-1292 -1631 0
-1293 -1632 0
-1297 -1528 0
-1298 -1529 0
-1299 -1530 0
-1306 -1936 0
-1307 -1937 0
-1308 -1938 0
-1306 -1555 0
-1307 -1556 0
-1308 -1557 0
-1309 -1705 0
-1310 -1706 0
-1311 -1707 0
-1312 -1675 0
-1313 -1676 0
-1314 -1677 0
-1315 -1756 0
-1316 -1757 0
-1317 -1758 0
-1318 -1756 0
-1319 -1757 0
-1320 -1758 0
-1318 -1528 0
-1319 -1529 0
-1320 -1530 0
-1318 -1708 0
-1319 -1709 0
-1320 -1710 0
-1318 -1387 0
-1319 -1388 0
-1320 -1389 0
-1318 -1390 0
-1319 -1391 0
-1320 -1392 0
-1321 -1564 0
-1322 -1565 0
-1323 -1566 0
-1324 -1726 0
-1325 -1727 0
-1326 -1728 0
-1327 -1813 0
-1328 -1814 0
-1329 -1815 0
-1330 -1669 0
-1331 -1670 0
-1332 -1671 0
-1333 -1657 0
-1334 -1658 0
-1335 -1659 0
-1333 -1351 0
-1334 -1352 0
-1335 -1353 0
-1333 -1363 0
-1334 -1364 0
-1335 -1365 0
-1333 -1675 0
-1334 -1676 0
-1335 -1677 0
-1336 -1672 0
-1337 -1673 0
-1338 -1674 0
-1336 -1354 0
-1337 -1355 0
-1338 -1356 0
-1336 -1360 0
-1337 -1361 0
-1338 -1362 0
-1339 -1651 0
-1340 -1652 0
-1341 -1653 0
-1339 -1495 0
-1340 -1496 0
-1341 -1497 0
-1339 -1534 0
-1340 -1535 0
-1341 -1536 0
-1339 -1540 0
-1340 -1541 0
-1341 -1542 0
-1342 -1654 0
-1343 -1655 0
-1344 -1656 0
-1342 -1510 0
-1343 -1511 0
-1344 -1512 0
-1342 -1504 0
-1343 -1505 0
-1344 -1506 0
-1345 -1468 0
-1346 -1469 0
-1347 -1470 0
-1345 -1960 0
-1346 -1961 0
-1347 -1962 0
-1348 -1813 0
-1349 -1814 0
-1350 -1815 0
-1348 -1660 0
-1349 -1661 0
-1350 -1662 0
-1357 -1465 0
-1358 -1466 0
-1359 -1467 0
-1357 -1366 0
-1358 -1367 0
-1359 -1368 0
-1357 -1372 0
-1358 -1373 0
-1359 -1374 0
-1360 -1375 0
-1361 -1376 0
-1362 -1377 0
-1360 -1369 0
-1361 -1370 0
-1362 -1371 0
-1363 -1375 0
-1364 -1376 0
-1365 -1377 0
-1366 -1381 0
-1367 -1382 0
-1368 -1383 0
-1372 -1378 0
-1373 -1379 0
-1374 -1380 0
-1375 -1582 0
-1376 -1583 0
-1377 -1584 0
-1378 -1597 0
-1379 -1598 0
-1380 -1599 0
-1381 -1408 0
-1382 -1409 0
-1383 -1410 0
-1381 -1648 0
-1382 -1649 0
-1383 -1650 0
-1384 -1477 0
-1385 -1478 0
-1386 -1479 0
-1393 -1711 0
-1394 -1712 0
-1395 -1713 0
-1393 -1648 0
-1394 -1649 0
-1395 -1650 0
-1399 -1459 0
-1400 -1460 0
-1401 -1461 0
-1399 -1480 0
-1400 -1481 0
-1401 -1482 0
-1402 -1516 0
-1403 -1517 0
-1404 -1518 0
-1402 -1474 0
-1403 -1475 0
-1404 -1476 0
-1402 -1483 0
-1403 -1484 0
-1404 -1485 0
-1411 -1597 0
-1412 -1598 0
-1413 -1599 0
-1417 -1954 0
-1418 -1955 0
-1419 -1956 0
-1417 -1582 0
-1418 -1583 0
-1419 -1584 0
-1420 -1552 0
-1421 -1553 0
-1422 -1554 0
-1420 -1555 0
-1421 -1556 0
-1422 -1557 0
-1426 -1756 0
-1427 -1757 0
-1428 -1758 0
-1426 -1708 0
-1427 -1709 0
-1428 -1710 0
-1426 -1600 0
-1427 -1601 0
-1428 -1602 0
-1429 -1642 0
-1430 -1643 0
-1431 -1644 0
-1432 -1651 0
-1433 -1652 0
-1434 -1653 0
-1432 -1654 0
-1433 -1655 0
-1434 -1656 0
-1435 -1582 0
-1436 -1583 0
-1437 -1584 0
-1441 -1612 0
-1442 -1613 0
-1443 -1614 0
-1441 -1819 0
-1442 -1820 0
-1443 -1821 0
-1444 -1582 0
-1445 -1583 0
-1446 -1584 0
-1450 -1714 0
-1451 -1715 0
-1452 -1716 0
-1450 -1720 0
-1451 -1721 0
-1452 -1722 0
-1456 -1657 0
-1457 -1658 0
-1458 -1659 0
-1456 -1786 0
-1457 -1787 0
-1458 -1788 0
-1459 -1468 0
-1460 -1469 0
-1461 -1470 0
-1459 -1462 0
-1460 -1463 0
-1461 -1464 0
-1459 -1465 0
-1460 -1466 0
-1461 -1467 0
-1462 -1900 0
-1463 -1901 0
-1464 -1902 0
-1462 -1747 0
-1463 -1748 0
-1464 -1749 0
-1462 -1897 0
-1463 -1898 0
-1464 -1899 0
-1468 -1678 0
-1469 -1679 0
-1470 -1680 0
-1471 -1831 0
-1472 -1832 0
-1473 -1833 0
-1471 -1966 0
-1472 -1967 0
-1473 -1968 0
-1474 -1963 0
-1475 -1964 0
-1476 -1965 0
-1477 -1687 0
-1478 -1688 0
-1479 -1689 0
-1477 -1588 0
-1478 -1589 0
-1479 -1590 0
-1477 -1594 0
-1478 -1595 0
-1479 -1596 0
-1480 -1606 0
-1481 -1607 0
-1482 -1608 0
-1483 -1618 0
-1484 -1619 0
-1485 -1620 0
-1483 -1486 0
-1484 -1487 0
-1485 -1488 0
-1486 -1567 0
-1487 -1568 0
-1488 -1569 0
-1486 -1555 0
-1487 -1556 0
-1488 -1557 0
-1486 -1561 0
-1487 -1562 0
-1488 -1563 0
-1489 -1702 0
-1490 -1703 0
-1491 -1704 0
-1492 -1507 0
-1493 -1508 0
-1494 -1509 0
-1492 -1855 0
-1493 -1856 0
-1494 -1857 0
-1492 -1498 0
-1493 -1499 0
-1494 -1500 0
-1492 -1501 0
-1493 -1502 0
-1494 -1503 0
-1498 -1729 0
-1499 -1730 0
-1500 -1731 0
-1498 -1621 0
-1499 -1622 0
-1500 -1623 0
-1498 -1786 0
-1499 -1787 0
-1500 -1788 0
-1501 -1786 0
-1502 -1787 0
-1503 -1788 0
-1504 -1609 0
-1505 -1610 0
-1506 -1611 0
-1504 -1864 0
-1505 -1865 0
-1506 -1866 0
-1507 -1573 0
-1508 -1574 0
-1509 -1575 0
-1510 -1612 0
-1511 -1613 0
-1512 -1614 0
-1510 -1573 0
-1511 -1574 0
-1512 -1575 0
-1510 -1603 0
-1511 -1604 0
-1512 -1605 0
-1513 -1537 0
-1514 -1538 0
-1515 -1539 0
-1516 -1519 0
-1517 -1520 0
-1518 -1521 0
-1525 -1570 0
-1526 -1571 0
-1527 -1572 0
-1525 -1561 0
-1526 -1562 0
-1527 -1563 0
-1528 -1822 0
-1529 -1823 0
-1530 -1824 0
-1528 -1636 0
-1529 -1637 0
-1530 -1638 0
-1528 -1639 0
-1529 -1640 0
-1530 -1641 0
-1528 -1645 0
-1529 -1646 0
-1530 -1647 0
-1528 -1555 0
-1529 -1556 0
-1530 -1557 0
-1528 -1552 0
-1529 -1553 0
-1530 -1554 0
-1528 -1696 0
-1529 -1697 0
-1530 -1698 0
-1528 -1699 0
-1529 -1700 0
-1530 -1701 0
-1528 -1597 0
-1529 -1598 0
-1530 -1599 0
-1534 -1579 0
-1535 -1580 0
-1536 -1581 0
-1534 -1867 0
-1535 -1868 0
-1536 -1869 0
-1537 -1567 0
-1538 -1568 0
-1539 -1569 0
-1540 -1573 0
-1541 -1574 0
-1542 -1575 0
-1543 -1918 0
-1544 -1919 0
-1545 -1920 0
-1543 -1561 0
-1544 -1562 0
-1545 -1563 0
-1546 -1609 0
-1547 -1610 0
-1548 -1611 0
-1549 -1579 0
-1550 -1580 0
-1551 -1581 0
-1549 -1591 0
-1550 -1592 0
-1551 -1593 0
-1555 -1606 0
-1556 -1607 0
-1557 -1608 0
-1555 -1921 0
-1556 -1922 0
-1557 -1923 0
-1555 -1924 0
-1556 -1925 0
-1557 -1926 0
-1555 -1708 0
-1556 -1709 0
-1557 -1710 0
-1555 -1897 0
-1556 -1898 0
-1557 -1899 0
-1555 -1909 0
-1556 -1910 0
-1557 -1911 0
-1558 -1678 0
-1559 -1679 0
-1560 -1680 0
-1558 -1585 0
-1559 -1586 0
-1560 -1587 0
-1558 -1615 0
-1559 -1616 0
-1560 -1617 0
-1561 -1813 0
-1562 -1814 0
-1563 -1815 0
-1564 -1684 0
-1565 -1685 0
-1566 -1686 0
-1567 -1708 0
-1568 -1709 0
-1569 -1710 0
-1570 -1816 0
-1571 -1817 0
-1572 -1818 0
-1576 -1618 0
-1577 -1619 0
-1578 -1620 0
-1582 -1879 0
-1583 -1880 0
-1584 -1881 0
-1585 -1624 0
-1586 -1625 0
-1587 -1626 0
-1591 -1690 0
-1592 -1691 0
-1593 -1692 0
-1594 -1633 0
-1595 -1634 0
-1596 -1635 0
-1597 -1957 0
-1598 -1958 0
-1599 -1959 0
-1597 -1627 0
-1598 -1628 0
-1599 -1629 0
-1597 -1600 0
-1598 -1601 0
-1599 -1602 0
-1621 -1666 0
-1622 -1667 0
-1623 -1668 0
-1624 -1693 0
-1625 -1694 0
-1626 -1695 0
-1627 -1684 0
-1628 -1685 0
-1629 -1686 0
-1630 -1660 0
-1631 -1661 0
-1632 -1662 0
-1633 -1723 0
-1634 -1724 0
-1635 -1725 0
-1636 -1831 0
-1637 -1832 0
-1638 -1833 0
-1639 -1702 0
-1640 -1703 0
-1641 -1704 0
-1651 -1867 0
-1652 -1868 0
-1653 -1869 0
-1654 -1864 0
-1655 -1865 0
-1656 -1866 0
-1657 -1744 0
-1658 -1745 0
-1659 -1746 0
-1657 -1768 0
-1658 -1769 0
-1659 -1770 0
-1660 -1816 0
-1661 -1817 0
-1662 -1818 0
-1663 -1735 0
-1664 -1736 0
-1665 -1737 0
-1666 -1735 0
-1667 -1736 0
-1668 -1737 0
-1672 -1765 0
-1673 -1766 0
-1674 -1767 0
-1678 -1960 0
-1679 -1961 0
-1680 -1962 0
-1681 -1705 0
-1682 -1706 0
-1683 -1707 0
-1687 -1849 0
-1688 -1850 0
-1689 -1851 0
-1690 -1783 0
-1691 -1784 0
-1692 -1785 0
-1693 -1861 0
-1694 -1862 0
-1695 -1863 0
-1696 -1957 0
-1697 -1958 0
-1698 -1959 0
-1702 -1780 0
-1703 -1781 0
-1704 -1782 0
-1705 -1873 0
-1706 -1874 0
-1707 -1875 0
-1708 -1744 0
-1709 -1745 0
-1710 -1746 0
-1711 -1747 0
-1712 -1748 0
-1713 -1749 0
-1714 -1741 0
-1715 -1742 0
-1716 -1743 0
-1717 -1732 0
-1718 -1733 0
-1719 -1734 0
-1717 -1942 0
-1718 -1943 0
-1719 -1944 0
-1717 -1750 0
-1718 -1751 0
-1719 -1752 0
-1720 -1732 0
-1721 -1733 0
-1722 -1734 0
-1720 -1753 0
-1721 -1754 0
-1722 -1755 0
-1723 -1885 0
-1724 -1886 0
-1725 -1887 0
-1723 -1876 0
-1724 -1877 0
-1725 -1878 0
-1729 -1777 0
-1730 -1778 0
-1731 -1779 0
-1732 -1762 0
-1733 -1763 0
-1734 -1764 0
-1732 -1789 0
-1733 -1790 0
-1734 -1791 0
-1735 -1834 0
-1736 -1835 0
-1737 -1836 0
-1738 -1795 0
-1739 -1796 0
-1740 -1797 0
-1738 -1804 0
-1739 -1805 0
-1740 -1806 0
-1738 -1798 0
-1739 -1799 0
-1740 -1800 0
-1741 -1807 0
-1742 -1808 0
-1743 -1809 0
-1741 -1783 0
-1742 -1784 0
-1743 -1785 0
-1744 -1786 0
-1745 -1787 0
-1746 -1788 0
-1750 -1801 0
-1751 -1802 0
-1752 -1803 0
-1753 -1780 0
-1754 -1781 0
-1755 -1782 0
-1759 -1870 0
-1760 -1871 0
-1761 -1872 0
-1759 -1810 0
-1760 -1811 0
-1761 -1812 0
-1759 -1792 0
-1760 -1793 0
-1761 -1794 0
-1762 -1837 0
-1763 -1838 0
-1764 -1839 0
-1762 -1840 0
-1763 -1841 0
-1764 -1842 0
-1771 -1795 0
-1772 -1796 0
-1773 -1797 0
-1771 -1783 0
-1772 -1784 0
-1773 -1785 0
-1774 -1972 0
-1775 -1973 0
-1776 -1974 0
-1774 -1948 0
-1775 -1949 0
-1776 -1950 0
-1789 -1855 0
-1790 -1856 0
-1791 -1857 0
-1795 -1834 0
-1796 -1835 0
-1797 -1836 0
-1795 -1894 0
-1796 -1895 0
-1797 -1896 0
-1798 -1942 0
-1799 -1943 0
-1800 -1944 0
-1801 -1966 0
-1802 -1967 0
-1803 -1968 0
-1804 -1972 0
-1805 -1973 0
-1806 -1974 0
-1804 -1900 0
-1805 -1901 0
-1806 -1902 0
-1804 -1930 0
-1805 -1931 0
-1806 -1932 0
-1804 -1906 0
-1805 -1907 0
-1806 -1908 0
-1807 -1906 0
-1808 -1907 0
-1809 -1908 0
-1810 -1825 0
-1811 -1826 0
-1812 -1827 0
-1816 -1975 0
-1817 -1976 0
-1818 -1977 0
-1831 -1861 0
-1832 -1862 0
-1833 -1863 0
-1837 -1963 0
-1838 -1964 0
-1839 -1965 0
-1840 -1915 0
-1841 -1916 0
-1842 -1917 0
-1840 -1912 0
-1841 -1913 0
-1842 -1914 0
-1846 -1858 0
-1847 -1859 0
-1848 -1860 0
-1846 -1885 0
-1847 -1886 0
-1848 -1887 0
-1855 -1912 0
-1856 -1913 0
-1857 -1914 0
-1858 -1951 0
-1859 -1952 0
-1860 -1953 0
-1864 -1936 0
-1865 -1937 0
-1866 -1938 0
-1864 -1894 0
-1865 -1895 0
-1866 -1896 0
-1867 -1936 0
-1868 -1937 0
-1869 -1938 0
-1885 -1954 0
-1886 -1955 0
-1887 -1956 0
-1888 -1927 0
-1889 -1928 0
-1890 -1929 0
-1891 -1969 0
-1892 -1970 0
-1893 -1971 0
-1903 -1951 0
-1904 -1952 0
-1905 -1953 0
-1906 -1969 0
-1907 -1970 0
-1908 -1971 0
-1927 -1951 0
-1928 -1952 0
-1929 -1953 0
-1936 -1948 0
-1937 -1949 0
-1938 -1950 0
1 0
1376 0
