p cnf 2136 6177
1 2 3 0
4 5 6 0
7 8 9 0
10 11 12 0
13 14 15 0
16 17 18 0
19 20 21 0
22 23 24 0
25 26 27 0
28 29 30 0
31 32 33 0
34 35 36 0
37 38 39 0
40 41 42 0
43 44 45 0
46 47 48 0
49 50 51 0
52 53 54 0
55 56 57 0
58 59 60 0
61 62 63 0
64 65 66 0
67 68 69 0
70 71 72 0
73 74 75 0
76 77 78 0
79 80 81 0
82 83 84 0
85 86 87 0
88 89 90 0
91 92 93 0
94 95 96 0
97 98 99 0
100 101 102 0
103 104 105 0
106 107 108 0
109 110 111 0
112 113 114 0
115 116 117 0
118 119 120 0
121 122 123 0
124 125 126 0
127 128 129 0
130 131 132 0
133 134 135 0
136 137 138 0
139 140 141 0
142 143 144 0
145 146 147 0
148 149 150 0
151 152 153 0
154 155 156 0
157 158 159 0
160 161 162 0
163 164 165 0
166 167 168 0
169 170 171 0
172 173 174 0
175 176 177 0
178 179 180 0
181 182 183 0
184 185 186 0
187 188 189 0
190 191 192 0
193 194 195 0
196 197 198 0
199 200 201 0
202 203 204 0
205 206 207 0
208 209 210 0
211 212 213 0
214 215 216 0
217 218 219 0
220 221 222 0
223 224 225 0
226 227 228 0
229 230 231 0
232 233 234 0
235 236 237 0
238 239 240 0
241 242 243 0
244 245 246 0
247 248 249 0
250 251 252 0
253 254 255 0
256 257 258 0
259 260 261 0
262 263 264 0
265 266 267 0
268 269 270 0
271 272 273 0
274 275 276 0
277 278 279 0
280 281 282 0
283 284 285 0
286 287 288 0
289 290 291 0
292 293 294 0
295 296 297 0
298 299 300 0
301 302 303 0
304 305 306 0
307 308 309 0
310 311 312 0
313 314 315 0
316 317 318 0
319 320 321 0
322 323 324 0
325 326 327 0
328 329 330 0
331 332 333 0
334 335 336 0
337 338 339 0
340 341 342 0
343 344 345 0
346 347 348 0
349 350 351 0
352 353 354 0
355 356 357 0
358 359 360 0
361 362 363 0
364 365 366 0
367 368 369 0
370 371 372 0
373 374 375 0
376 377 378 0
379 380 381 0
382 383 384 0
385 386 387 0
388 389 390 0
391 392 393 0
394 395 396 0
397 398 399 0
400 401 402 0
403 404 405 0
406 407 408 0
409 410 411 0
412 413 414 0
415 416 417 0
418 419 420 0
421 422 423 0
424 425 426 0
427 428 429 0
430 431 432 0
433 434 435 0
436 437 438 0
439 440 441 0
442 443 444 0
445 446 447 0
448 449 450 0
451 452 453 0
454 455 456 0
457 458 459 0
460 461 462 0
463 464 465 0
466 467 468 0
469 470 471 0
472 473 474 0
475 476 477 0
478 479 480 0
481 482 483 0
484 485 486 0
487 488 489 0
490 491 492 0
493 494 495 0
496 497 498 0
499 500 501 0
502 503 504 0
505 506 507 0
508 509 510 0
511 512 513 0
514 515 516 0
517 518 519 0
520 521 522 0
523 524 525 0
526 527 528 0
529 530 531 0
532 533 534 0
535 536 537 0
538 539 540 0
541 542 543 0
544 545 546 0
547 548 549 0
550 551 552 0
553 554 555 0
556 557 558 0
559 560 561 0
562 563 564 0
565 566 567 0
568 569 570 0
571 572 573 0
574 575 576 0
577 578 579 0
580 581 582 0
583 584 585 0
586 587 588 0
589 590 591 0
592 593 594 0
595 596 597 0
598 599 600 0
601 602 603 0
604 605 606 0
607 608 609 0
610 611 612 0
613 614 615 0
616 617 618 0
619 620 621 0
622 623 624 0
625 626 627 0
628 629 630 0
631 632 633 0
634 635 636 0
637 638 639 0
640 641 642 0
643 644 645 0
646 647 648 0
649 650 651 0
652 653 654 0
655 656 657 0
658 659 660 0
661 662 663 0
664 665 666 0
667 668 669 0
670 671 672 0
673 674 675 0
676 677 678 0
679 680 681 0
682 683 684 0
685 686 687 0
688 689 690 0
691 692 693 0
694 695 696 0
697 698 699 0
700 701 702 0
703 704 705 0
706 707 708 0
709 710 711 0
712 713 714 0
715 716 717 0
718 719 720 0
721 722 723 0
724 725 726 0
727 728 729 0
730 731 732 0
733 734 735 0
736 737 738 0
739 740 741 0
742 743 744 0
745 746 747 0
748 749 750 0
751 752 753 0
754 755 756 0
757 758 759 0
760 761 762 0
763 764 765 0
766 767 768 0
769 770 771 0
772 773 774 0
775 776 777 0
778 779 780 0
781 782 783 0
784 785 786 0
787 788 789 0
790 791 792 0
793 794 795 0
796 797 798 0
799 800 801 0
802 803 804 0
805 806 807 0
808 809 810 0
811 812 813 0
814 815 816 0
817 818 819 0
820 821 822 0
823 824 825 0
826 827 828 0
829 830 831 0
832 833 834 0
835 836 837 0
838 839 840 0
841 842 843 0
844 845 846 0
847 848 849 0
850 851 852 0
853 854 855 0
856 857 858 0
859 860 861 0
862 863 864 0
865 866 867 0
868 869 870 0
871 872 873 0
874 875 876 0
877 878 879 0
880 881 882 0
883 884 885 0
886 887 888 0
889 890 891 0
892 893 894 0
895 896 897 0
898 899 900 0
901 902 903 0
904 905 906 0
907 908 909 0
910 911 912 0
913 914 915 0
916 917 918 0
919 920 921 0
922 923 924 0
925 926 927 0
928 929 930 0
931 932 933 0
934 935 936 0
937 938 939 0
940 941 942 0
943 944 945 0
946 947 948 0
949 950 951 0
952 953 954 0
955 956 957 0
958 959 960 0
961 962 963 0
964 965 966 0
967 968 969 0
970 971 972 0
973 974 975 0
976 977 978 0
979 980 981 0
982 983 984 0
985 986 987 0
988 989 990 0
991 992 993 0
994 995 996 0
997 998 999 0
1000 1001 1002 0
1003 1004 1005 0
1006 1007 1008 0
1009 1010 1011 0
1012 1013 1014 0
1015 1016 1017 0
1018 1019 1020 0
1021 1022 1023 0
1024 1025 1026 0
1027 1028 1029 0
1030 1031 1032 0
1033 1034 1035 0
1036 1037 1038 0
1039 1040 1041 0
1042 1043 1044 0
1045 1046 1047 0
1048 1049 1050 0
1051 1052 1053 0
1054 1055 1056 0
1057 1058 1059 0
1060 1061 1062 0
1063 1064 1065 0
1066 1067 1068 0
1069 1070 1071 0
1072 1073 1074 0
1075 1076 1077 0
1078 1079 1080 0
1081 1082 1083 0
1084 1085 1086 0
1087 1088 1089 0
1090 1091 1092 0
1093 1094 1095 0
1096 1097 1098 0
1099 1100 1101 0
1102 1103 1104 0
1105 1106 1107 0
1108 1109 1110 0
1111 1112 1113 0
1114 1115 1116 0
1117 1118 1119 0
1120 1121 1122 0
1123 1124 1125 0
1126 1127 1128 0
1129 1130 1131 0
1132 1133 1134 0
1135 1136 1137 0
1138 1139 1140 0
1141 1142 1143 0
1144 1145 1146 0
1147 1148 1149 0
1150 1151 1152 0
1153 1154 1155 0
1156 1157 1158 0
1159 1160 1161 0
1162 1163 1164 0
1165 1166 1167 0
1168 1169 1170 0
1171 1172 1173 0
1174 1175 1176 0
1177 1178 1179 0
1180 1181 1182 0
1183 1184 1185 0
1186 1187 1188 0
1189 1190 1191 0
1192 1193 1194 0
1195 1196 1197 0
1198 1199 1200 0
1201 1202 1203 0
1204 1205 1206 0
1207 1208 1209 0
1210 1211 1212 0
1213 1214 1215 0
1216 1217 1218 0
1219 1220 1221 0
1222 1223 1224 0
1225 1226 1227 0
1228 1229 1230 0
1231 1232 1233 0
1234 1235 1236 0
1237 1238 1239 0
1240 1241 1242 0
1243 1244 1245 0
1246 1247 1248 0
1249 1250 1251 0
1252 1253 1254 0
1255 1256 1257 0
1258 1259 1260 0
1261 1262 1263 0
1264 1265 1266 0
1267 1268 1269 0
1270 1271 1272 0
1273 1274 1275 0
1276 1277 1278 0
1279 1280 1281 0
1282 1283 1284 0
1285 1286 1287 0
1288 1289 1290 0
1291 1292 1293 0
1294 1295 1296 0
1297 1298 1299 0
1300 1301 1302 0
1303 1304 1305 0
1306 1307 1308 0
1309 1310 1311 0
1312 1313 1314 0
1315 1316 1317 0
1318 1319 1320 0
1321 1322 1323 0
1324 1325 1326 0
1327 1328 1329 0
1330 1331 1332 0
1333 1334 1335 0
1336 1337 1338 0
1339 1340 1341 0
1342 1343 1344 0
1345 1346 1347 0
1348 1349 1350 0
1351 1352 1353 0
1354 1355 1356 0
1357 1358 1359 0
1360 1361 1362 0
1363 1364 1365 0
1366 1367 1368 0
1369 1370 1371 0
1372 1373 1374 0
1375 1376 1377 0
1378 1379 1380 0
1381 1382 1383 0
1384 1385 1386 0
1387 1388 1389 0
1390 1391 1392 0
1393 1394 1395 0
1396 1397 1398 0
1399 1400 1401 0
1402 1403 1404 0
1405 1406 1407 0
1408 1409 1410 0
1411 1412 1413 0
1414 1415 1416 0
1417 1418 1419 0
1420 1421 1422 0
1423 1424 1425 0
1426 1427 1428 0
1429 1430 1431 0
1432 1433 1434 0
1435 1436 1437 0
1438 1439 1440 0
1441 1442 1443 0
1444 1445 1446 0
1447 1448 1449 0
1450 1451 1452 0
1453 1454 1455 0
1456 1457 1458 0
1459 1460 1461 0
1462 1463 1464 0
1465 1466 1467 0
1468 1469 1470 0
1471 1472 1473 0
1474 1475 1476 0
1477 1478 1479 0
1480 1481 1482 0
1483 1484 1485 0
1486 1487 1488 0
1489 1490 1491 0
1492 1493 1494 0
1495 1496 1497 0
1498 1499 1500 0
1501 1502 1503 0
1504 1505 1506 0
1507 1508 1509 0
1510 1511 1512 0
1513 1514 1515 0
1516 1517 1518 0
1519 1520 1521 0
1522 1523 1524 0
1525 1526 1527 0
1528 1529 1530 0
1531 1532 1533 0
1534 1535 1536 0
1537 1538 1539 0
1540 1541 1542 0
1543 1544 1545 0
1546 1547 1548 0
1549 1550 1551 0
1552 1553 1554 0
1555 1556 1557 0
1558 1559 1560 0
1561 1562 1563 0
1564 1565 1566 0
1567 1568 1569 0
1570 1571 1572 0
1573 1574 1575 0
1576 1577 1578 0
1579 1580 1581 0
1582 1583 1584 0
1585 1586 1587 0
1588 1589 1590 0
1591 1592 1593 0
1594 1595 1596 0
1597 1598 1599 0
1600 1601 1602 0
1603 1604 1605 0
1606 1607 1608 0
1609 1610 1611 0
1612 1613 1614 0
1615 1616 1617 0
1618 1619 1620 0
1621 1622 1623 0
1624 1625 1626 0
1627 1628 1629 0
1630 1631 1632 0
1633 1634 1635 0
1636 1637 1638 0
1639 1640 1641 0
1642 1643 1644 0
1645 1646 1647 0
1648 1649 1650 0
1651 1652 1653 0
1654 1655 1656 0
1657 1658 1659 0
1660 1661 1662 0
1663 1664 1665 0
1666 1667 1668 0
1669 1670 1671 0
1672 1673 1674 0
1675 1676 1677 0
1678 1679 1680 0
1681 1682 1683 0
1684 1685 1686 0
1687 1688 1689 0
1690 1691 1692 0
1693 1694 1695 0
1696 1697 1698 0
1699 1700 1701 0
1702 1703 1704 0
1705 1706 1707 0
1708 1709 1710 0
1711 1712 1713 0
1714 1715 1716 0
1717 1718 1719 0
1720 1721 1722 0
1723 1724 1725 0
1726 1727 1728 0
1729 1730 1731 0
1732 1733 1734 0
1735 1736 1737 0
1738 1739 1740 0
1741 1742 1743 0
1744 1745 1746 0
1747 1748 1749 0
1750 1751 1752 0
1753 1754 1755 0
1756 1757 1758 0
1759 1760 1761 0
1762 1763 1764 0
1765 1766 1767 0
1768 1769 1770 0
1771 1772 1773 0
1774 1775 1776 0
1777 1778 1779 0
1780 1781 1782 0
1783 1784 1785 0
1786 1787 1788 0
1789 1790 1791 0
1792 1793 1794 0
1795 1796 1797 0
1798 1799 1800 0
1801 1802 1803 0
1804 1805 1806 0
1807 1808 1809 0
1810 1811 1812 0
1813 1814 1815 0
1816 1817 1818 0
1819 1820 1821 0
1822 1823 1824 0
1825 1826 1827 0
1828 1829 1830 0
1831 1832 1833 0
1834 1835 1836 0
1837 1838 1839 0
1840 1841 1842 0
1843 1844 1845 0
1846 1847 1848 0
1849 1850 1851 0
1852 1853 1854 0
1855 1856 1857 0
1858 1859 1860 0
1861 1862 1863 0
1864 1865 1866 0
1867 1868 1869 0
1870 1871 1872 0
1873 1874 1875 0
1876 1877 1878 0
1879 1880 1881 0
1882 1883 1884 0
1885 1886 1887 0
1888 1889 1890 0
1891 1892 1893 0
1894 1895 1896 0
1897 1898 1899 0
1900 1901 1902 0
1903 1904 1905 0
1906 1907 1908 0
1909 1910 1911 0
1912 1913 1914 0
1915 1916 1917 0
1918 1919 1920 0
1921 1922 1923 0
1924 1925 1926 0
1927 1928 1929 0
1930 1931 1932 0
1933 1934 1935 0
1936 1937 1938 0
1939 1940 1941 0
1942 1943 1944 0
1945 1946 1947 0
1948 1949 1950 0
1951 1952 1953 0
1954 1955 1956 0
1957 1958 1959 0
1960 1961 1962 0
1963 1964 1965 0
1966 1967 1968 0
1969 1970 1971 0
1972 1973 1974 0
1975 1976 1977 0
1978 1979 1980 0
1981 1982 1983 0
1984 1985 1986 0
1987 1988 1989 0
1990 1991 1992 0
1993 1994 1995 0
1996 1997 1998 0
1999 2000 2001 0
2002 2003 2004 0
2005 2006 2007 0
2008 2009 2010 0
2011 2012 2013 0
2014 2015 2016 0
2017 2018 2019 0
2020 2021 2022 0
2023 2024 2025 0
2026 2027 2028 0
2029 2030 2031 0
2032 2033 2034 0
2035 2036 2037 0
2038 2039 2040 0
2041 2042 2043 0
2044 2045 2046 0
2047 2048 2049 0
2050 2051 2052 0
2053 2054 2055 0
2056 2057 2058 0
2059 2060 2061 0
2062 2063 2064 0
2065 2066 2067 0
2068 2069 2070 0
2071 2072 2073 0
2074 2075 2076 0
2077 2078 2079 0
2080 2081 2082 0
2083 2084 2085 0
2086 2087 2088 0
2089 2090 2091 0
2092 2093 2094 0
2095 2096 2097 0
2098 2099 2100 0
2101 2102 2103 0
2104 2105 2106 0
2107 2108 2109 0
2110 2111 2112 0
2113 2114 2115 0
2116 2117 2118 0
2119 2120 2121 0
2122 2123 2124 0
2125 2126 2127 0
2128 2129 2130 0
2131 2132 2133 0
2134 2135 2136 0
-1 -85 0
-2 -86 0
-3 -87 0
-1 -88 0
-2 -89 0
-3 -90 0
-1 -1924 0
-2 -1925 0
-3 -1926 0
-1 -1645 0
-2 -1646 0
-3 -1647 0
-1 -2038 0
-2 -2039 0
-3 -2040 0
-4 -88 0
-5 -89 0
-6 -90 0
-4 -1930 0
-5 -1931 0
-6 -1932 0
-4 -1660 0
-5 -1661 0
-6 -1662 0
-4 -136 0
-5 -137 0
-6 -138 0
-7 -1564 0
-8 -1565 0
-9 -1566 0
-7 -1210 0
-8 -1211 0
-9 -1212 0
-7 -2074 0
-8 -2075 0
-9 -2076 0
-7 -1555 0
-8 -1556 0
-9 -1557 0
-7 -136 0
-8 -137 0
-9 -138 0
-7 -1519 0
-8 -1520 0
-9 -1521 0
-7 -142 0
-8 -143 0
-9 -144 0
-10 -1423 0
-11 -1424 0
-12 -1425 0
-10 -1249 0
-11 -1250 0
-12 -1251 0
-10 -1246 0
-11 -1247 0
-12 -1248 0
-10 -250 0
-11 -251 0
-12 -252 0
-10 -52 0
-11 -53 0
-12 -54 0
-10 -1978 0
-11 -1979 0
-12 -1980 0
-13 -1522 0
-14 -1523 0
-15 -1524 0
-13 -175 0
-14 -176 0
-15 -177 0
-13 -1972 0
-14 -1973 0
-15 -1974 0
-13 -2062 0
-14 -2063 0
-15 -2064 0
-13 -166 0
-14 -167 0
-15 -168 0
-16 -64 0
-17 -65 0
-18 -66 0
-16 -313 0
-17 -314 0
-18 -315 0
-16 -1585 0
-17 -1586 0
-18 -1587 0
-16 -1519 0
-17 -1520 0
-18 -1521 0
-19 -1492 0
-20 -1493 0
-21 -1494 0
-19 -271 0
-20 -272 0
-21 -273 0
-19 -1966 0
-20 -1967 0
-21 -1968 0
-19 -1969 0
-20 -1970 0
-21 -1971 0
-19 -142 0
-20 -143 0
-21 -144 0
-22 -88 0
-23 -89 0
-24 -90 0
-22 -298 0
-23 -299 0
-24 -300 0
-22 -2050 0
-23 -2051 0
-24 -2052 0
-22 -1936 0
-23 -1937 0
-24 -1938 0
-25 -1525 0
-26 -1526 0
-27 -1527 0
-25 -91 0
-26 -92 0
-27 -93 0
-25 -421 0
-26 -422 0
-27 -423 0
-25 -1855 0
-26 -1856 0
-27 -1857 0
-28 -1261 0
-29 -1262 0
-30 -1263 0
-28 -88 0
-29 -89 0
-30 -90 0
-28 -1231 0
-29 -1232 0
-30 -1233 0
-28 -1570 0
-29 -1571 0
-30 -1572 0
-28 -424 0
-29 -425 0
-30 -426 0
-28 -1294 0
-29 -1295 0
-30 -1296 0
-31 -1426 0
-32 -1427 0
-33 -1428 0
-31 -91 0
-32 -92 0
-33 -93 0
-31 -1264 0
-32 -1265 0
-33 -1266 0
-31 -1276 0
-32 -1277 0
-33 -1278 0
-31 -1297 0
-32 -1298 0
-33 -1299 0
-31 -427 0
-32 -428 0
-33 -429 0
-34 -430 0
-35 -431 0
-36 -432 0
-34 -88 0
-35 -89 0
-36 -90 0
-34 -1897 0
-35 -1898 0
-36 -1899 0
-34 -1567 0
-35 -1568 0
-36 -1569 0
-34 -1300 0
-35 -1301 0
-36 -1302 0
-37 -250 0
-38 -251 0
-39 -252 0
-37 -298 0
-38 -299 0
-39 -300 0
-37 -1651 0
-38 -1652 0
-39 -1653 0
-37 -1252 0
-38 -1253 0
-39 -1254 0
-37 -1762 0
-38 -1763 0
-39 -1764 0
-40 -178 0
-41 -179 0
-42 -180 0
-40 -1537 0
-41 -1538 0
-42 -1539 0
-40 -2107 0
-41 -2108 0
-42 -2109 0
-40 -2128 0
-41 -2129 0
-42 -2130 0
-43 -1231 0
-44 -1232 0
-45 -1233 0
-43 -271 0
-44 -272 0
-45 -273 0
-43 -298 0
-44 -299 0
-45 -300 0
-43 -1240 0
-44 -1241 0
-45 -1242 0
-46 -88 0
-47 -89 0
-48 -90 0
-46 -448 0
-47 -449 0
-48 -450 0
-46 -1405 0
-47 -1406 0
-48 -1407 0
-46 -1981 0
-47 -1982 0
-48 -1983 0
-46 -2038 0
-47 -2039 0
-48 -2040 0
-49 -1426 0
-50 -1427 0
-51 -1428 0
-49 -91 0
-50 -92 0
-51 -93 0
-49 -451 0
-50 -452 0
-51 -453 0
-49 -1339 0
-50 -1340 0
-51 -1341 0
-52 -280 0
-53 -281 0
-54 -282 0
-52 -283 0
-53 -284 0
-54 -285 0
-52 -118 0
-53 -119 0
-54 -120 0
-52 -121 0
-53 -122 0
-54 -123 0
-52 -124 0
-53 -125 0
-54 -126 0
-52 -565 0
-53 -566 0
-54 -567 0
-52 -73 0
-53 -74 0
-54 -75 0
-52 -76 0
-53 -77 0
-54 -78 0
-52 -616 0
-53 -617 0
-54 -618 0
-52 -469 0
-53 -470 0
-54 -471 0
-52 -385 0
-53 -386 0
-54 -387 0
-52 -406 0
-53 -407 0
-54 -408 0
-52 -415 0
-53 -416 0
-54 -417 0
-52 -55 0
-53 -56 0
-54 -57 0
-55 -1201 0
-56 -1202 0
-57 -1203 0
-55 -1204 0
-56 -1205 0
-57 -1206 0
-55 -2077 0
-56 -2078 0
-57 -2079 0
-55 -619 0
-56 -620 0
-57 -621 0
-58 -1324 0
-59 -1325 0
-60 -1326 0
-58 -424 0
-59 -425 0
-60 -426 0
-58 -136 0
-59 -137 0
-60 -138 0
-58 -2065 0
-59 -2066 0
-60 -2067 0
-61 -433 0
-62 -434 0
-63 -435 0
-61 -148 0
-62 -149 0
-63 -150 0
-61 -151 0
-62 -152 0
-63 -153 0
-61 -616 0
-62 -617 0
-63 -618 0
-61 -475 0
-62 -476 0
-63 -477 0
-61 -331 0
-62 -332 0
-63 -333 0
-64 -436 0
-65 -437 0
-66 -438 0
-64 -616 0
-65 -617 0
-66 -618 0
-64 -460 0
-65 -461 0
-66 -462 0
-64 -472 0
-65 -473 0
-66 -474 0
-64 -277 0
-65 -278 0
-66 -279 0
-64 -388 0
-65 -389 0
-66 -390 0
-67 -1198 0
-68 -1199 0
-69 -1200 0
-67 -178 0
-68 -179 0
-69 -180 0
-67 -421 0
-68 -422 0
-69 -423 0
-67 -1495 0
-68 -1496 0
-69 -1497 0
-67 -1219 0
-68 -1220 0
-69 -1221 0
-67 -1234 0
-68 -1235 0
-69 -1236 0
-70 -1198 0
-71 -1199 0
-72 -1200 0
-70 -2083 0
-71 -2084 0
-72 -2085 0
-70 -298 0
-71 -299 0
-72 -300 0
-70 -1234 0
-71 -1235 0
-72 -1236 0
-70 -1591 0
-71 -1592 0
-72 -1593 0
-73 -2086 0
-74 -2087 0
-75 -2088 0
-73 -742 0
-74 -743 0
-75 -744 0
-73 -1759 0
-74 -1760 0
-75 -1761 0
-73 -1669 0
-74 -1670 0
-75 -1671 0
-76 -760 0
-77 -761 0
-78 -762 0
-76 -1849 0
-77 -1850 0
-78 -1851 0
-76 -1429 0
-77 -1430 0
-78 -1431 0
-76 -1162 0
-77 -1163 0
-78 -1164 0
-79 -2068 0
-80 -2069 0
-81 -2070 0
-79 -448 0
-80 -449 0
-81 -450 0
-79 -175 0
-80 -176 0
-81 -177 0
-79 -1666 0
-80 -1667 0
-81 -1668 0
-82 -772 0
-83 -773 0
-84 -774 0
-82 -778 0
-83 -779 0
-84 -780 0
-82 -616 0
-83 -617 0
-84 -618 0
-85 -775 0
-86 -776 0
-87 -777 0
-85 -310 0
-86 -311 0
-87 -312 0
-85 -616 0
-86 -617 0
-87 -618 0
-88 -220 0
-89 -221 0
-90 -222 0
-88 -307 0
-89 -308 0
-90 -309 0
-88 -784 0
-89 -785 0
-90 -786 0
-88 -616 0
-89 -617 0
-90 -618 0
-88 -463 0
-89 -464 0
-90 -465 0
-88 -793 0
-89 -794 0
-90 -795 0
-88 -319 0
-89 -320 0
-90 -321 0
-88 -94 0
-89 -95 0
-90 -96 0
-91 -223 0
-92 -224 0
-93 -225 0
-91 -226 0
-92 -227 0
-93 -228 0
-91 -616 0
-92 -617 0
-93 -618 0
-91 -787 0
-92 -788 0
-93 -789 0
-91 -457 0
-92 -458 0
-93 -459 0
-91 -466 0
-92 -467 0
-93 -468 0
-91 -97 0
-92 -98 0
-93 -99 0
-94 -1837 0
-95 -1838 0
-96 -1839 0
-94 -1231 0
-95 -1232 0
-96 -1233 0
-94 -754 0
-95 -755 0
-96 -756 0
-94 -1240 0
-95 -1241 0
-96 -1242 0
-94 -1990 0
-95 -1991 0
-96 -1992 0
-97 -1840 0
-98 -1841 0
-99 -1842 0
-97 -1171 0
-98 -1172 0
-99 -1173 0
-100 -1561 0
-101 -1562 0
-102 -1563 0
-100 -175 0
-101 -176 0
-102 -177 0
-100 -493 0
-101 -494 0
-102 -495 0
-103 -178 0
-104 -179 0
-105 -180 0
-103 -496 0
-104 -497 0
-105 -498 0
-103 -2107 0
-104 -2108 0
-105 -2109 0
-106 -1204 0
-107 -1205 0
-108 -1206 0
-106 -178 0
-107 -179 0
-108 -180 0
-106 -502 0
-107 -503 0
-108 -504 0
-106 -1177 0
-107 -1178 0
-108 -1179 0
-109 -1243 0
-110 -1244 0
-111 -1245 0
-109 -559 0
-110 -560 0
-111 -561 0
-109 -136 0
-110 -137 0
-111 -138 0
-109 -2065 0
-110 -2066 0
-111 -2067 0
-112 -526 0
-113 -527 0
-114 -528 0
-112 -1663 0
-113 -1664 0
-114 -1665 0
-112 -166 0
-113 -167 0
-114 -168 0
-115 -178 0
-116 -179 0
-117 -180 0
-115 -532 0
-116 -533 0
-117 -534 0
-115 -1783 0
-116 -1784 0
-117 -1785 0
-115 -1309 0
-116 -1310 0
-117 -1311 0
-115 -2080 0
-116 -2081 0
-117 -2082 0
-118 -1423 0
-119 -1424 0
-120 -1425 0
-118 -1204 0
-119 -1205 0
-120 -1206 0
-118 -1531 0
-119 -1532 0
-120 -1533 0
-118 -1213 0
-119 -1214 0
-120 -1215 0
-118 -817 0
-119 -818 0
-120 -819 0
-118 -1708 0
-119 -1709 0
-120 -1710 0
-118 -1891 0
-119 -1892 0
-120 -1893 0
-121 -1483 0
-122 -1484 0
-123 -1485 0
-121 -1573 0
-122 -1574 0
-123 -1575 0
-121 -823 0
-122 -824 0
-123 -825 0
-121 -1984 0
-122 -1985 0
-123 -1986 0
-121 -1168 0
-122 -1169 0
-123 -1170 0
-124 -835 0
-125 -836 0
-126 -837 0
-124 -1207 0
-125 -1208 0
-126 -1209 0
-124 -1849 0
-125 -1850 0
-126 -1851 0
-124 -1756 0
-125 -1757 0
-126 -1758 0
-124 -1984 0
-125 -1985 0
-126 -1986 0
-124 -1891 0
-125 -1892 0
-126 -1893 0
-127 -1900 0
-128 -1901 0
-129 -1902 0
-127 -178 0
-128 -179 0
-129 -180 0
-127 -1435 0
-128 -1436 0
-129 -1437 0
-127 -538 0
-128 -539 0
-129 -540 0
-130 -2110 0
-131 -2111 0
-132 -2112 0
-130 -541 0
-131 -542 0
-132 -543 0
-130 -166 0
-131 -167 0
-132 -168 0
-133 -607 0
-134 -608 0
-135 -609 0
-133 -1285 0
-134 -1286 0
-135 -1287 0
-133 -142 0
-134 -143 0
-135 -144 0
-136 -139 0
-137 -140 0
-138 -141 0
-136 -811 0
-137 -812 0
-138 -813 0
-136 -157 0
-137 -158 0
-138 -159 0
-136 -160 0
-137 -161 0
-138 -162 0
-136 -841 0
-137 -842 0
-138 -843 0
-136 -187 0
-137 -188 0
-138 -189 0
-136 -616 0
-137 -617 0
-138 -618 0
-136 -367 0
-137 -368 0
-138 -369 0
-136 -412 0
-137 -413 0
-138 -414 0
-139 -1945 0
-140 -1946 0
-141 -1947 0
-139 -619 0
-140 -620 0
-141 -621 0
-139 -1978 0
-140 -1979 0
-141 -1980 0
-142 -145 0
-143 -146 0
-144 -147 0
-142 -814 0
-143 -815 0
-144 -816 0
-142 -238 0
-143 -239 0
-144 -240 0
-142 -850 0
-143 -851 0
-144 -852 0
-142 -616 0
-143 -617 0
-144 -618 0
-142 -370 0
-143 -371 0
-144 -372 0
-142 -409 0
-143 -410 0
-144 -411 0
-145 -1288 0
-146 -1289 0
-147 -1290 0
-145 -619 0
-146 -620 0
-147 -621 0
-145 -1726 0
-146 -1727 0
-147 -1728 0
-145 -1252 0
-146 -1253 0
-147 -1254 0
-145 -2131 0
-146 -2132 0
-147 -2133 0
-148 -823 0
-149 -824 0
-150 -825 0
-148 -1441 0
-149 -1442 0
-150 -1443 0
-148 -1453 0
-149 -1454 0
-150 -1455 0
-151 -835 0
-152 -836 0
-153 -837 0
-151 -1360 0
-152 -1361 0
-153 -1362 0
-151 -1441 0
-152 -1442 0
-153 -1443 0
-154 -169 0
-155 -170 0
-156 -171 0
-154 -1768 0
-155 -1769 0
-156 -1770 0
-154 -1648 0
-155 -1649 0
-156 -1650 0
-157 -685 0
-158 -686 0
-159 -687 0
-157 -1576 0
-158 -1577 0
-159 -1578 0
-160 -1579 0
-161 -1580 0
-162 -1581 0
-160 -691 0
-161 -692 0
-162 -693 0
-160 -1558 0
-161 -1559 0
-162 -1560 0
-160 -1954 0
-161 -1955 0
-162 -1956 0
-163 -169 0
-164 -170 0
-165 -171 0
-163 -1765 0
-164 -1766 0
-165 -1767 0
-163 -1768 0
-164 -1769 0
-165 -1770 0
-163 -610 0
-164 -611 0
-165 -612 0
-163 -1711 0
-164 -1712 0
-165 -1713 0
-163 -1450 0
-164 -1451 0
-165 -1452 0
-166 -343 0
-167 -344 0
-168 -345 0
-166 -439 0
-167 -440 0
-168 -441 0
-166 -172 0
-167 -173 0
-168 -174 0
-166 -862 0
-167 -863 0
-168 -864 0
-166 -616 0
-167 -617 0
-168 -618 0
-169 -208 0
-170 -209 0
-171 -210 0
-169 -781 0
-170 -782 0
-171 -783 0
-169 -616 0
-170 -617 0
-171 -618 0
-172 -1843 0
-173 -1844 0
-174 -1845 0
-172 -1849 0
-173 -1850 0
-174 -1851 0
-172 -1222 0
-173 -1223 0
-174 -1224 0
-172 -619 0
-173 -620 0
-174 -621 0
-175 -214 0
-176 -215 0
-177 -216 0
-175 -181 0
-176 -182 0
-177 -183 0
-175 -199 0
-176 -200 0
-177 -201 0
-175 -616 0
-176 -617 0
-177 -618 0
-175 -397 0
-176 -398 0
-177 -399 0
-178 -211 0
-179 -212 0
-180 -213 0
-178 -442 0
-179 -443 0
-180 -444 0
-178 -184 0
-179 -185 0
-180 -186 0
-178 -190 0
-179 -191 0
-180 -192 0
-178 -700 0
-179 -701 0
-180 -702 0
-178 -202 0
-179 -203 0
-180 -204 0
-178 -790 0
-179 -791 0
-180 -792 0
-178 -616 0
-179 -617 0
-180 -618 0
-178 -400 0
-179 -401 0
-180 -402 0
-181 -1483 0
-182 -1484 0
-183 -1485 0
-181 -1852 0
-182 -1853 0
-183 -1854 0
-181 -1225 0
-182 -1226 0
-183 -1227 0
-181 -619 0
-182 -620 0
-183 -621 0
-184 -1273 0
-185 -1274 0
-186 -1275 0
-184 -1432 0
-185 -1433 0
-186 -1434 0
-184 -1234 0
-185 -1235 0
-186 -1236 0
-184 -2128 0
-185 -2129 0
-186 -2130 0
-187 -1900 0
-188 -1901 0
-189 -1902 0
-187 -2071 0
-188 -2072 0
-189 -2073 0
-187 -724 0
-188 -725 0
-189 -726 0
-187 -1555 0
-188 -1556 0
-189 -1557 0
-190 -1399 0
-191 -1400 0
-192 -1401 0
-190 -1201 0
-191 -1202 0
-192 -1203 0
-190 -1204 0
-191 -1205 0
-192 -1206 0
-190 -658 0
-191 -659 0
-192 -660 0
-190 -1432 0
-191 -1433 0
-192 -1434 0
-190 -1267 0
-191 -1268 0
-192 -1269 0
-190 -1438 0
-191 -1439 0
-192 -1440 0
-193 -268 0
-194 -269 0
-195 -270 0
-193 -424 0
-194 -425 0
-195 -426 0
-193 -2020 0
-194 -2021 0
-195 -2022 0
-193 -1975 0
-194 -1976 0
-195 -1977 0
-196 -448 0
-197 -449 0
-198 -450 0
-196 -244 0
-197 -245 0
-198 -246 0
-196 -1801 0
-197 -1802 0
-198 -1803 0
-196 -1603 0
-197 -1604 0
-198 -1605 0
-199 -2068 0
-200 -2069 0
-201 -2070 0
-199 -739 0
-200 -740 0
-201 -741 0
-199 -2056 0
-200 -2057 0
-201 -2058 0
-202 -742 0
-203 -743 0
-204 -744 0
-202 -1309 0
-203 -1310 0
-204 -1311 0
-202 -1270 0
-203 -1271 0
-204 -1272 0
-205 -217 0
-206 -218 0
-207 -219 0
-205 -229 0
-206 -230 0
-207 -231 0
-205 -616 0
-206 -617 0
-207 -618 0
-208 -2008 0
-209 -2009 0
-210 -2010 0
-208 -799 0
-209 -800 0
-210 -801 0
-208 -1396 0
-209 -1397 0
-210 -1398 0
-208 -1321 0
-209 -1322 0
-210 -1323 0
-211 -799 0
-212 -800 0
-213 -801 0
-211 -1396 0
-212 -1397 0
-213 -1398 0
-214 -802 0
-215 -803 0
-216 -804 0
-214 -2062 0
-215 -2063 0
-216 -2064 0
-217 -1210 0
-218 -1211 0
-219 -1212 0
-217 -1699 0
-218 -1700 0
-219 -1701 0
-217 -688 0
-218 -689 0
-219 -690 0
-220 -1837 0
-221 -1838 0
-222 -1839 0
-220 -1567 0
-221 -1568 0
-222 -1569 0
-220 -1255 0
-221 -1256 0
-222 -1257 0
-223 -1840 0
-224 -1841 0
-225 -1842 0
-223 -874 0
-224 -875 0
-225 -876 0
-223 -1732 0
-224 -1733 0
-225 -1734 0
-226 -1525 0
-227 -1526 0
-228 -1527 0
-226 -2041 0
-227 -2042 0
-228 -2043 0
-226 -880 0
-227 -881 0
-228 -882 0
-226 -1258 0
-227 -1259 0
-228 -1260 0
-229 -1210 0
-230 -1211 0
-231 -1212 0
-229 -691 0
-230 -692 0
-231 -693 0
-229 -1558 0
-230 -1559 0
-231 -1560 0
-232 -1264 0
-233 -1265 0
-234 -1266 0
-232 -1180 0
-233 -1181 0
-234 -1182 0
-232 -271 0
-233 -272 0
-234 -273 0
-232 -496 0
-233 -497 0
-234 -498 0
-232 -2113 0
-233 -2114 0
-234 -2115 0
-232 -1501 0
-233 -1502 0
-234 -1503 0
-232 -1444 0
-233 -1445 0
-234 -1446 0
-232 -1258 0
-233 -1259 0
-234 -1260 0
-235 -1261 0
-236 -1262 0
-237 -1263 0
-235 -271 0
-236 -272 0
-237 -273 0
-235 -1966 0
-236 -1967 0
-237 -1968 0
-235 -502 0
-236 -503 0
-237 -504 0
-235 -1771 0
-236 -1772 0
-237 -1773 0
-235 -1237 0
-236 -1238 0
-237 -1239 0
-235 -1255 0
-236 -1256 0
-237 -1257 0
-238 -829 0
-239 -830 0
-240 -831 0
-238 -2131 0
-239 -2132 0
-240 -2133 0
-238 -1894 0
-239 -1895 0
-240 -1896 0
-241 -271 0
-242 -272 0
-243 -273 0
-241 -1912 0
-242 -1913 0
-243 -1914 0
-241 -2113 0
-242 -2114 0
-243 -2115 0
-241 -511 0
-242 -512 0
-243 -513 0
-241 -2059 0
-242 -2060 0
-243 -2061 0
-244 -844 0
-245 -845 0
-246 -846 0
-244 -919 0
-245 -920 0
-246 -921 0
-244 -616 0
-245 -617 0
-246 -618 0
-244 -325 0
-245 -326 0
-246 -327 0
-247 -2098 0
-248 -2099 0
-249 -2100 0
-247 -250 0
-248 -251 0
-249 -252 0
-247 -1216 0
-248 -1217 0
-249 -1218 0
-247 -613 0
-248 -614 0
-249 -615 0
-247 -1774 0
-248 -1775 0
-249 -1776 0
-250 -847 0
-251 -848 0
-252 -849 0
-250 -253 0
-251 -254 0
-252 -255 0
-250 -928 0
-251 -929 0
-252 -930 0
-250 -520 0
-251 -521 0
-252 -522 0
-250 -616 0
-251 -617 0
-252 -618 0
-250 -622 0
-251 -623 0
-252 -624 0
-250 -322 0
-251 -323 0
-252 -324 0
-250 -328 0
-251 -329 0
-252 -330 0
-253 -2134 0
-254 -2135 0
-255 -2136 0
-253 -694 0
-254 -695 0
-255 -696 0
-253 -1774 0
-254 -1775 0
-255 -1776 0
-256 -271 0
-257 -272 0
-258 -273 0
-256 -1606 0
-257 -1607 0
-258 -1608 0
-256 -556 0
-257 -557 0
-258 -558 0
-259 -1837 0
-260 -1838 0
-261 -1839 0
-259 -568 0
-260 -569 0
-261 -570 0
-259 -1846 0
-260 -1847 0
-261 -1848 0
-259 -271 0
-260 -272 0
-261 -273 0
-259 -1294 0
-260 -1295 0
-261 -1296 0
-259 -2011 0
-260 -2012 0
-261 -2013 0
-259 -2050 0
-260 -2051 0
-261 -2052 0
-259 -1969 0
-260 -1970 0
-261 -1971 0
-259 -1183 0
-260 -1184 0
-261 -1185 0
-259 -1255 0
-260 -1256 0
-261 -1257 0
-262 -583 0
-263 -584 0
-264 -585 0
-262 -2041 0
-263 -2042 0
-264 -2043 0
-262 -271 0
-263 -272 0
-264 -273 0
-262 -1297 0
-263 -1298 0
-264 -1299 0
-262 -1186 0
-263 -1187 0
-264 -1188 0
-262 -1927 0
-263 -1928 0
-264 -1929 0
-262 -1258 0
-263 -1259 0
-264 -1260 0
-265 -1261 0
-266 -1262 0
-267 -1263 0
-265 -607 0
-266 -608 0
-267 -609 0
-265 -1231 0
-266 -1232 0
-267 -1233 0
-265 -271 0
-266 -272 0
-267 -273 0
-268 -349 0
-269 -350 0
-270 -351 0
-268 -910 0
-269 -911 0
-270 -912 0
-268 -913 0
-269 -914 0
-270 -915 0
-268 -274 0
-269 -275 0
-270 -276 0
-268 -616 0
-269 -617 0
-270 -618 0
-271 -916 0
-272 -917 0
-273 -918 0
-271 -859 0
-272 -860 0
-273 -861 0
-271 -616 0
-272 -617 0
-273 -618 0
-271 -733 0
-272 -734 0
-273 -735 0
-274 -1840 0
-275 -1841 0
-276 -1842 0
-274 -1897 0
-275 -1898 0
-276 -1899 0
-274 -619 0
-275 -620 0
-276 -621 0
-277 -1960 0
-278 -1961 0
-279 -1962 0
-277 -1405 0
-278 -1406 0
-279 -1407 0
-277 -1936 0
-278 -1937 0
-279 -1938 0
-277 -946 0
-278 -947 0
-279 -948 0
-280 -1162 0
-281 -1163 0
-282 -1164 0
-280 -1864 0
-281 -1865 0
-282 -1866 0
-280 -1168 0
-281 -1169 0
-282 -1170 0
-280 -1348 0
-281 -1349 0
-282 -1350 0
-280 -964 0
-281 -965 0
-282 -966 0
-280 -1180 0
-281 -1181 0
-282 -1182 0
-283 -1495 0
-284 -1496 0
-285 -1497 0
-283 -1864 0
-284 -1865 0
-285 -1866 0
-283 -1165 0
-284 -1166 0
-285 -1167 0
-286 -304 0
-287 -305 0
-288 -306 0
-286 -616 0
-287 -617 0
-288 -618 0
-286 -334 0
-287 -335 0
-288 -336 0
-289 -610 0
-290 -611 0
-291 -612 0
-289 -295 0
-290 -296 0
-291 -297 0
-289 -1219 0
-290 -1220 0
-291 -1221 0
-289 -1165 0
-290 -1166 0
-291 -1167 0
-289 -1171 0
-290 -1172 0
-291 -1173 0
-292 -1198 0
-293 -1199 0
-294 -1200 0
-292 -607 0
-293 -608 0
-294 -609 0
-292 -1231 0
-293 -1232 0
-294 -1233 0
-292 -1540 0
-293 -1541 0
-294 -1542 0
-292 -298 0
-293 -299 0
-294 -300 0
-292 -1183 0
-293 -1184 0
-294 -1185 0
-295 -901 0
-296 -902 0
-297 -903 0
-295 -616 0
-296 -617 0
-297 -618 0
-298 -898 0
-299 -899 0
-300 -900 0
-298 -487 0
-299 -488 0
-300 -489 0
-298 -904 0
-299 -905 0
-300 -906 0
-298 -352 0
-299 -353 0
-300 -354 0
-298 -355 0
-299 -356 0
-300 -357 0
-298 -973 0
-299 -974 0
-300 -975 0
-298 -616 0
-299 -617 0
-300 -618 0
-298 -934 0
-299 -935 0
-300 -936 0
-301 -2068 0
-302 -2069 0
-303 -2070 0
-301 -1666 0
-302 -1667 0
-303 -1668 0
-301 -721 0
-302 -722 0
-303 -723 0
-304 -724 0
-305 -725 0
-306 -726 0
-304 -1270 0
-305 -1271 0
-306 -1272 0
-307 -1363 0
-308 -1364 0
-309 -1365 0
-307 -2101 0
-308 -2102 0
-309 -2103 0
-307 -1981 0
-308 -1982 0
-309 -1983 0
-307 -931 0
-308 -932 0
-309 -933 0
-307 -1990 0
-308 -1991 0
-309 -1992 0
-310 -2101 0
-311 -2102 0
-312 -2103 0
-310 -1477 0
-311 -1478 0
-312 -1479 0
-310 -946 0
-311 -947 0
-312 -948 0
-313 -958 0
-314 -959 0
-315 -960 0
-313 -361 0
-314 -362 0
-315 -363 0
-313 -616 0
-314 -617 0
-315 -618 0
-313 -937 0
-314 -938 0
-315 -939 0
-316 -358 0
-317 -359 0
-318 -360 0
-316 -616 0
-317 -617 0
-318 -618 0
-316 -379 0
-317 -380 0
-318 -381 0
-316 -796 0
-317 -797 0
-318 -798 0
-319 -1261 0
-320 -1262 0
-321 -1263 0
-319 -1621 0
-320 -1622 0
-321 -1623 0
-319 -1363 0
-320 -1364 0
-321 -1365 0
-319 -946 0
-320 -947 0
-321 -948 0
-319 -1279 0
-320 -1280 0
-321 -1281 0
-322 -1423 0
-323 -1424 0
-324 -1425 0
-322 -1723 0
-323 -1724 0
-324 -1725 0
-322 -1690 0
-323 -1691 0
-324 -1692 0
-322 -817 0
-323 -818 0
-324 -819 0
-322 -1411 0
-323 -1412 0
-324 -1413 0
-322 -1762 0
-323 -1763 0
-324 -1764 0
-325 -835 0
-326 -836 0
-327 -837 0
-325 -1756 0
-326 -1757 0
-327 -1758 0
-325 -1414 0
-326 -1415 0
-327 -1416 0
-325 -1669 0
-326 -1670 0
-327 -1671 0
-328 -829 0
-329 -830 0
-330 -831 0
-328 -1723 0
-329 -1724 0
-330 -1725 0
-328 -1546 0
-329 -1547 0
-330 -1548 0
-331 -1453 0
-332 -1454 0
-333 -1455 0
-331 -1006 0
-332 -1007 0
-333 -1008 0
-331 -1993 0
-332 -1994 0
-333 -1995 0
-334 -799 0
-335 -800 0
-336 -801 0
-334 -1309 0
-335 -1310 0
-336 -1311 0
-334 -1270 0
-335 -1271 0
-336 -1272 0
-337 -2044 0
-338 -2045 0
-339 -2046 0
-337 -496 0
-338 -497 0
-339 -498 0
-337 -2107 0
-338 -2108 0
-339 -2109 0
-337 -1168 0
-338 -1169 0
-339 -1170 0
-340 -1843 0
-341 -1844 0
-342 -1845 0
-340 -1561 0
-341 -1562 0
-342 -1563 0
-340 -1204 0
-341 -1205 0
-342 -1206 0
-340 -493 0
-341 -494 0
-342 -495 0
-340 -1507 0
-341 -1508 0
-342 -1509 0
-343 -1843 0
-344 -1844 0
-345 -1845 0
-343 -1918 0
-344 -1919 0
-345 -1920 0
-343 -1972 0
-344 -1973 0
-345 -1974 0
-343 -946 0
-344 -947 0
-345 -948 0
-346 -1852 0
-347 -1853 0
-348 -1854 0
-346 -1915 0
-347 -1916 0
-348 -1917 0
-346 -502 0
-347 -503 0
-348 -504 0
-346 -1237 0
-347 -1238 0
-348 -1239 0
-349 -874 0
-350 -875 0
-351 -876 0
-349 -1291 0
-350 -1292 0
-351 -1293 0
-349 -1855 0
-350 -1856 0
-351 -1857 0
-352 -817 0
-353 -818 0
-354 -819 0
-352 -1504 0
-353 -1505 0
-354 -1506 0
-352 -1174 0
-353 -1175 0
-354 -1176 0
-352 -1762 0
-353 -1763 0
-354 -1764 0
-355 -829 0
-356 -830 0
-357 -831 0
-355 -1498 0
-356 -1499 0
-357 -1500 0
-355 -1615 0
-356 -1616 0
-357 -1617 0
-355 -1240 0
-356 -1241 0
-357 -1242 0
-358 -1402 0
-359 -1403 0
-360 -1404 0
-358 -799 0
-359 -800 0
-360 -801 0
-358 -1543 0
-359 -1544 0
-360 -1545 0
-358 -1657 0
-359 -1658 0
-360 -1659 0
-358 -1309 0
-359 -1310 0
-360 -1311 0
-358 -1312 0
-359 -1313 0
-360 -1314 0
-361 -802 0
-362 -803 0
-363 -804 0
-361 -1651 0
-362 -1652 0
-363 -1653 0
-361 -2056 0
-362 -2057 0
-363 -2058 0
-361 -1663 0
-362 -1664 0
-363 -1665 0
-364 -1909 0
-365 -1910 0
-366 -1911 0
-364 -1165 0
-365 -1166 0
-366 -1167 0
-364 -1171 0
-365 -1172 0
-366 -1173 0
-364 -619 0
-365 -620 0
-366 -621 0
-367 -982 0
-368 -983 0
-369 -984 0
-367 -1900 0
-368 -1901 0
-369 -1902 0
-367 -2080 0
-368 -2081 0
-369 -2082 0
-370 -985 0
-371 -986 0
-372 -987 0
-370 -1564 0
-371 -1565 0
-372 -1566 0
-373 -421 0
-374 -422 0
-375 -423 0
-373 -1285 0
-374 -1286 0
-375 -1287 0
-373 -514 0
-374 -515 0
-375 -516 0
-376 -424 0
-377 -425 0
-378 -426 0
-376 -1315 0
-377 -1316 0
-378 -1317 0
-376 -517 0
-377 -518 0
-378 -519 0
-379 -1402 0
-380 -1403 0
-381 -1404 0
-379 -835 0
-380 -836 0
-381 -837 0
-379 -1534 0
-380 -1535 0
-381 -1536 0
-382 -421 0
-383 -422 0
-384 -423 0
-382 -1375 0
-383 -1376 0
-384 -1377 0
-382 -532 0
-383 -533 0
-384 -534 0
-382 -1996 0
-383 -1997 0
-384 -1998 0
-385 -1786 0
-386 -1787 0
-387 -1788 0
-385 -1213 0
-386 -1214 0
-387 -1215 0
-385 -1054 0
-386 -1055 0
-387 -1056 0
-388 -1054 0
-389 -1055 0
-390 -1056 0
-388 -1630 0
-389 -1631 0
-390 -1632 0
-388 -2014 0
-389 -2015 0
-390 -2016 0
-391 -421 0
-392 -422 0
-393 -423 0
-391 -1636 0
-392 -1637 0
-393 -1638 0
-391 -556 0
-392 -557 0
-393 -558 0
-394 -424 0
-395 -425 0
-396 -426 0
-394 -1861 0
-395 -1862 0
-396 -1863 0
-394 -553 0
-395 -554 0
-396 -555 0
-397 -985 0
-398 -986 0
-399 -987 0
-397 -1588 0
-398 -1589 0
-399 -1590 0
-400 -1399 0
-401 -1400 0
-402 -1401 0
-400 -982 0
-401 -983 0
-402 -984 0
-400 -1783 0
-401 -1784 0
-402 -1785 0
-403 -430 0
-404 -431 0
-405 -432 0
-403 -568 0
-404 -569 0
-405 -570 0
-403 -1846 0
-404 -1847 0
-405 -1848 0
-403 -1858 0
-404 -1859 0
-405 -1860 0
-403 -1282 0
-404 -1283 0
-405 -1284 0
-403 -1912 0
-404 -1913 0
-405 -1914 0
-406 -1243 0
-407 -1244 0
-408 -1245 0
-406 -2086 0
-407 -2087 0
-408 -2088 0
-406 -1246 0
-407 -1247 0
-408 -1248 0
-406 -1078 0
-407 -1079 0
-408 -1080 0
-406 -1633 0
-407 -1634 0
-408 -1635 0
-406 -1828 0
-407 -1829 0
-408 -1830 0
-409 -1006 0
-410 -1007 0
-411 -1008 0
-409 -1285 0
-410 -1286 0
-411 -1287 0
-409 -1288 0
-410 -1289 0
-411 -1290 0
-409 -1879 0
-410 -1880 0
-411 -1881 0
-409 -1888 0
-410 -1889 0
-411 -1890 0
-409 -1492 0
-410 -1493 0
-411 -1494 0
-412 -1675 0
-413 -1676 0
-414 -1677 0
-412 -1015 0
-413 -1016 0
-414 -1017 0
-412 -1687 0
-413 -1688 0
-414 -1689 0
-412 -1648 0
-413 -1649 0
-414 -1650 0
-412 -1660 0
-413 -1661 0
-414 -1662 0
-412 -1882 0
-413 -1883 0
-414 -1884 0
-412 -1672 0
-413 -1673 0
-414 -1674 0
-412 -1315 0
-413 -1316 0
-414 -1317 0
-415 -2098 0
-416 -2099 0
-417 -2100 0
-415 -1945 0
-416 -1946 0
-417 -1947 0
-415 -1645 0
-416 -1646 0
-417 -1647 0
-415 -1081 0
-416 -1082 0
-417 -1083 0
-415 -1828 0
-416 -1829 0
-417 -1830 0
-415 -1978 0
-416 -1979 0
-417 -1980 0
-418 -1198 0
-419 -1199 0
-420 -1200 0
-418 -421 0
-419 -422 0
-420 -423 0
-418 -1858 0
-419 -1859 0
-420 -1860 0
-421 -1087 0
-422 -1088 0
-423 -1089 0
-421 -616 0
-422 -617 0
-423 -618 0
-421 -889 0
-422 -890 0
-423 -891 0
-424 -1024 0
-425 -1025 0
-426 -1026 0
-424 -1069 0
-425 -1070 0
-426 -1071 0
-424 -1090 0
-425 -1091 0
-426 -1092 0
-424 -616 0
-425 -617 0
-426 -618 0
-427 -1093 0
-428 -1094 0
-429 -1095 0
-427 -616 0
-428 -617 0
-429 -618 0
-427 -895 0
-428 -896 0
-429 -897 0
-430 -1072 0
-431 -1073 0
-432 -1074 0
-430 -1096 0
-431 -1097 0
-432 -1098 0
-430 -445 0
-431 -446 0
-432 -447 0
-430 -616 0
-431 -617 0
-432 -618 0
-433 -1360 0
-434 -1361 0
-435 -1362 0
-433 -1078 0
-434 -1079 0
-435 -1080 0
-433 -2074 0
-434 -2075 0
-435 -2076 0
-433 -2002 0
-434 -2003 0
-435 -2004 0
-433 -1378 0
-434 -1379 0
-435 -1380 0
-436 -1081 0
-437 -1082 0
-438 -1083 0
-436 -1924 0
-437 -1925 0
-438 -1926 0
-439 -1522 0
-440 -1523 0
-441 -1524 0
-439 -1006 0
-440 -1007 0
-441 -1008 0
-439 -2032 0
-440 -2033 0
-441 -2034 0
-439 -2053 0
-440 -2054 0
-441 -2055 0
-442 -1006 0
-443 -1007 0
-444 -1008 0
-442 -1900 0
-443 -1901 0
-444 -1902 0
-442 -2071 0
-443 -2072 0
-444 -2073 0
-442 -2080 0
-443 -2081 0
-444 -2082 0
-445 -730 0
-446 -731 0
-447 -732 0
-445 -1675 0
-446 -1676 0
-447 -1677 0
-448 -1033 0
-449 -1034 0
-450 -1035 0
-448 -1036 0
-449 -1037 0
-450 -1038 0
-448 -454 0
-449 -455 0
-450 -456 0
-448 -616 0
-449 -617 0
-450 -618 0
-448 -883 0
-449 -884 0
-450 -885 0
-451 -616 0
-452 -617 0
-453 -618 0
-451 -886 0
-452 -887 0
-453 -888 0
-454 -2095 0
-455 -2096 0
-456 -2097 0
-454 -745 0
-455 -746 0
-456 -747 0
-457 -1291 0
-458 -1292 0
-459 -1293 0
-457 -1045 0
-458 -1046 0
-459 -1047 0
-457 -1855 0
-458 -1856 0
-459 -1857 0
-460 -1960 0
-461 -1961 0
-462 -1962 0
-460 -1102 0
-461 -1103 0
-462 -1104 0
-460 -1882 0
-461 -1883 0
-462 -1884 0
-460 -1585 0
-461 -1586 0
-462 -1587 0
-460 -1279 0
-461 -1280 0
-462 -1281 0
-463 -1897 0
-464 -1898 0
-465 -1899 0
-463 -1054 0
-464 -1055 0
-465 -1056 0
-463 -1870 0
-464 -1871 0
-465 -1872 0
-466 -1732 0
-467 -1733 0
-468 -1734 0
-466 -1276 0
-467 -1277 0
-468 -1278 0
-466 -1501 0
-467 -1502 0
-468 -1503 0
-466 -1192 0
-467 -1193 0
-468 -1194 0
-469 -1930 0
-470 -1931 0
-471 -1932 0
-469 -1105 0
-470 -1106 0
-471 -1107 0
-469 -1660 0
-470 -1661 0
-471 -1662 0
-472 -1105 0
-473 -1106 0
-474 -1107 0
-472 -1627 0
-473 -1628 0
-474 -1629 0
-472 -1630 0
-473 -1631 0
-474 -1632 0
-472 -1882 0
-473 -1883 0
-474 -1884 0
-472 -1660 0
-473 -1661 0
-474 -1662 0
-472 -1513 0
-473 -1514 0
-474 -1515 0
-475 -1867 0
-476 -1868 0
-477 -1869 0
-475 -1879 0
-476 -1880 0
-477 -1881 0
-475 -1888 0
-476 -1889 0
-477 -1890 0
-478 -502 0
-479 -503 0
-480 -504 0
-478 -526 0
-479 -527 0
-480 -528 0
-478 -1771 0
-479 -1772 0
-480 -1773 0
-478 -1318 0
-479 -1319 0
-480 -1320 0
-481 -496 0
-482 -497 0
-483 -498 0
-481 -1345 0
-482 -1346 0
-483 -1347 0
-481 -532 0
-482 -533 0
-483 -534 0
-481 -1318 0
-482 -1319 0
-483 -1320 0
-484 -583 0
-485 -584 0
-486 -585 0
-484 -496 0
-485 -497 0
-486 -498 0
-484 -1948 0
-485 -1949 0
-486 -1950 0
-484 -1351 0
-485 -1352 0
-486 -1353 0
-484 -1825 0
-485 -1826 0
-486 -1827 0
-484 -1258 0
-485 -1259 0
-486 -1260 0
-487 -1540 0
-488 -1541 0
-489 -1542 0
-487 -1288 0
-488 -1289 0
-489 -1290 0
-487 -1252 0
-488 -1253 0
-489 -1254 0
-487 -931 0
-488 -932 0
-489 -933 0
-490 -1261 0
-491 -1262 0
-492 -1263 0
-490 -607 0
-491 -608 0
-492 -609 0
-490 -1486 0
-491 -1487 0
-492 -1488 0
-490 -1852 0
-491 -1853 0
-492 -1854 0
-490 -1462 0
-491 -1463 0
-492 -1464 0
-490 -1942 0
-491 -1943 0
-492 -1944 0
-490 -502 0
-491 -503 0
-492 -504 0
-493 -1111 0
-494 -1112 0
-495 -1113 0
-493 -508 0
-494 -509 0
-495 -510 0
-493 -616 0
-494 -617 0
-495 -618 0
-496 -1114 0
-497 -1115 0
-498 -1116 0
-496 -589 0
-497 -590 0
-498 -591 0
-496 -499 0
-497 -500 0
-498 -501 0
-496 -505 0
-497 -506 0
-498 -507 0
-496 -601 0
-497 -602 0
-498 -603 0
-496 -616 0
-497 -617 0
-498 -618 0
-496 -1000 0
-497 -1001 0
-498 -1002 0
-499 -1168 0
-500 -1169 0
-501 -1170 0
-499 -619 0
-500 -620 0
-501 -621 0
-502 -562 0
-503 -563 0
-504 -564 0
-502 -604 0
-503 -605 0
-504 -606 0
-502 -616 0
-503 -617 0
-504 -618 0
-505 -1213 0
-506 -1214 0
-507 -1215 0
-505 -625 0
-506 -626 0
-507 -627 0
-505 -1390 0
-506 -1391 0
-507 -1392 0
-505 -1354 0
-506 -1355 0
-507 -1356 0
-508 -1843 0
-509 -1844 0
-510 -1845 0
-508 -631 0
-509 -632 0
-510 -633 0
-508 -1885 0
-509 -1886 0
-510 -1887 0
-511 -598 0
-512 -599 0
-513 -600 0
-511 -616 0
-512 -617 0
-513 -618 0
-514 -595 0
-515 -596 0
-516 -597 0
-514 -616 0
-515 -617 0
-516 -618 0
-514 -976 0
-515 -977 0
-516 -978 0
-514 -628 0
-515 -629 0
-516 -630 0
-514 -634 0
-515 -635 0
-516 -636 0
-517 -592 0
-518 -593 0
-519 -594 0
-517 -616 0
-518 -617 0
-519 -618 0
-517 -637 0
-518 -638 0
-519 -639 0
-520 -982 0
-521 -983 0
-522 -984 0
-520 -1384 0
-521 -1385 0
-522 -1386 0
-523 -616 0
-524 -617 0
-525 -618 0
-523 -640 0
-524 -641 0
-525 -642 0
-523 -808 0
-524 -809 0
-525 -810 0
-526 -616 0
-527 -617 0
-528 -618 0
-526 -643 0
-527 -644 0
-528 -645 0
-526 -547 0
-527 -548 0
-528 -549 0
-529 -1243 0
-530 -1244 0
-531 -1245 0
-529 -559 0
-530 -560 0
-531 -561 0
-529 -556 0
-530 -557 0
-531 -558 0
-529 -1828 0
-530 -1829 0
-531 -1830 0
-532 -616 0
-533 -617 0
-534 -618 0
-532 -646 0
-533 -647 0
-534 -648 0
-535 -616 0
-536 -617 0
-537 -618 0
-535 -544 0
-536 -545 0
-537 -546 0
-535 -649 0
-536 -650 0
-537 -651 0
-538 -679 0
-539 -680 0
-540 -681 0
-538 -580 0
-539 -581 0
-540 -582 0
-538 -616 0
-539 -617 0
-540 -618 0
-538 -1039 0
-539 -1040 0
-540 -1041 0
-538 -988 0
-539 -989 0
-540 -990 0
-538 -550 0
-539 -551 0
-540 -552 0
-541 -682 0
-542 -683 0
-543 -684 0
-541 -577 0
-542 -578 0
-543 -579 0
-541 -616 0
-542 -617 0
-543 -618 0
-544 -1327 0
-545 -1328 0
-546 -1329 0
-544 -1795 0
-545 -1796 0
-546 -1797 0
-544 -655 0
-545 -656 0
-546 -657 0
-547 -1324 0
-548 -1325 0
-549 -1326 0
-547 -673 0
-548 -674 0
-549 -675 0
-547 -1798 0
-548 -1799 0
-549 -1800 0
-547 -1465 0
-548 -1466 0
-549 -1467 0
-547 -2029 0
-548 -2030 0
-549 -2031 0
-547 -1951 0
-548 -1952 0
-549 -1953 0
-547 -1447 0
-548 -1448 0
-549 -1449 0
-547 -2065 0
-548 -2066 0
-549 -2067 0
-550 -1330 0
-551 -1331 0
-552 -1332 0
-550 -658 0
-551 -659 0
-552 -660 0
-550 -1459 0
-551 -1460 0
-552 -1461 0
-553 -664 0
-554 -665 0
-555 -666 0
-553 -616 0
-554 -617 0
-555 -618 0
-556 -1027 0
-557 -1028 0
-558 -1029 0
-556 -616 0
-557 -617 0
-558 -618 0
-559 -670 0
-560 -671 0
-561 -672 0
-559 -1030 0
-560 -1031 0
-561 -1032 0
-559 -1126 0
-560 -1127 0
-561 -1128 0
-559 -616 0
-560 -617 0
-561 -618 0
-562 -1678 0
-563 -1679 0
-564 -1680 0
-562 -1456 0
-563 -1457 0
-564 -1458 0
-562 -1462 0
-563 -1463 0
-564 -1464 0
-562 -703 0
-563 -704 0
-564 -705 0
-565 -1129 0
-566 -1130 0
-567 -1131 0
-565 -1999 0
-566 -2000 0
-567 -2001 0
-565 -1633 0
-566 -1634 0
-567 -1635 0
-568 -1123 0
-569 -1124 0
-570 -1125 0
-568 -961 0
-569 -962 0
-570 -963 0
-568 -718 0
-569 -719 0
-570 -720 0
-568 -616 0
-569 -617 0
-570 -618 0
-571 -1840 0
-572 -1841 0
-573 -1842 0
-571 -1171 0
-572 -1172 0
-573 -1173 0
-571 -1876 0
-572 -1877 0
-573 -1878 0
-571 -619 0
-572 -620 0
-573 -621 0
-574 -685 0
-575 -686 0
-576 -687 0
-574 -1867 0
-575 -1868 0
-576 -1869 0
-574 -1306 0
-575 -1307 0
-576 -1308 0
-577 -688 0
-578 -689 0
-579 -690 0
-577 -1513 0
-578 -1514 0
-579 -1515 0
-577 -1384 0
-578 -1385 0
-579 -1386 0
-580 -1330 0
-581 -1331 0
-582 -1332 0
-580 -1933 0
-581 -1934 0
-582 -1935 0
-580 -1408 0
-581 -1409 0
-582 -1410 0
-580 -1468 0
-581 -1469 0
-582 -1470 0
-580 -691 0
-581 -692 0
-582 -693 0
-580 -1381 0
-581 -1382 0
-582 -1383 0
-583 -586 0
-584 -587 0
-585 -588 0
-583 -616 0
-584 -617 0
-585 -618 0
-586 -2041 0
-587 -2042 0
-588 -2043 0
-586 -1282 0
-587 -1283 0
-588 -1284 0
-586 -1177 0
-587 -1178 0
-588 -1179 0
-586 -619 0
-587 -620 0
-588 -621 0
-589 -1342 0
-590 -1343 0
-591 -1344 0
-589 -1345 0
-590 -1346 0
-591 -1347 0
-589 -730 0
-590 -731 0
-591 -732 0
-592 -1315 0
-593 -1316 0
-594 -1317 0
-592 -1654 0
-593 -1655 0
-594 -1656 0
-592 -1666 0
-593 -1667 0
-594 -1668 0
-592 -721 0
-593 -722 0
-594 -723 0
-592 -1693 0
-593 -1694 0
-594 -1695 0
-595 -1342 0
-596 -1343 0
-597 -1344 0
-595 -724 0
-596 -725 0
-597 -726 0
-595 -1285 0
-596 -1286 0
-597 -1287 0
-595 -1366 0
-596 -1367 0
-597 -1368 0
-598 -1342 0
-599 -1343 0
-600 -1344 0
-598 -2047 0
-599 -2048 0
-600 -2049 0
-598 -2059 0
-599 -2060 0
-600 -2061 0
-598 -1366 0
-599 -1367 0
-600 -1368 0
-598 -730 0
-599 -731 0
-600 -732 0
-598 -1675 0
-599 -1676 0
-600 -1677 0
-601 -1681 0
-602 -1682 0
-603 -1683 0
-601 -742 0
-602 -743 0
-603 -744 0
-601 -1759 0
-602 -1760 0
-603 -1761 0
-601 -1351 0
-602 -1352 0
-603 -1353 0
-601 -1444 0
-602 -1445 0
-603 -1446 0
-601 -1318 0
-602 -1319 0
-603 -1320 0
-604 -1678 0
-605 -1679 0
-606 -1680 0
-604 -1345 0
-605 -1346 0
-606 -1347 0
-604 -745 0
-605 -746 0
-606 -747 0
-604 -1318 0
-605 -1319 0
-606 -1320 0
-607 -616 0
-608 -617 0
-609 -618 0
-607 -748 0
-608 -749 0
-609 -750 0
-607 -943 0
-608 -944 0
-609 -945 0
-610 -1075 0
-611 -1076 0
-612 -1077 0
-610 -712 0
-611 -713 0
-612 -714 0
-610 -616 0
-611 -617 0
-612 -618 0
-610 -979 0
-611 -980 0
-612 -981 0
-610 -736 0
-611 -737 0
-612 -738 0
-610 -751 0
-611 -752 0
-612 -753 0
-610 -940 0
-611 -941 0
-612 -942 0
-613 -1009 0
-614 -1010 0
-615 -1011 0
-613 -652 0
-614 -653 0
-615 -654 0
-613 -832 0
-614 -833 0
-615 -834 0
-613 -616 0
-614 -617 0
-615 -618 0
-613 -871 0
-614 -872 0
-615 -873 0
-613 -877 0
-614 -878 0
-615 -879 0
-613 -1042 0
-614 -1043 0
-615 -1044 0
-613 -1051 0
-614 -1052 0
-615 -1053 0
-616 -1006 0
-617 -1007 0
-618 -1008 0
-616 -952 0
-617 -953 0
-618 -954 0
-616 -1015 0
-617 -1016 0
-618 -1017 0
-616 -655 0
-617 -656 0
-618 -657 0
-616 -658 0
-617 -659 0
-618 -660 0
-616 -673 0
-617 -674 0
-618 -675 0
-616 -1078 0
-617 -1079 0
-618 -1080 0
-616 -1081 0
-617 -1082 0
-618 -1083 0
-616 -1129 0
-617 -1130 0
-618 -1131 0
-616 -1132 0
-617 -1133 0
-618 -1134 0
-616 -685 0
-617 -686 0
-618 -687 0
-616 -688 0
-617 -689 0
-618 -690 0
-616 -817 0
-617 -818 0
-618 -819 0
-616 -823 0
-617 -824 0
-618 -825 0
-616 -964 0
-617 -965 0
-618 -966 0
-616 -829 0
-617 -830 0
-618 -831 0
-616 -835 0
-617 -836 0
-618 -837 0
-616 -691 0
-617 -692 0
-618 -693 0
-616 -694 0
-617 -695 0
-618 -696 0
-616 -1135 0
-617 -1136 0
-618 -1137 0
-616 -703 0
-617 -704 0
-618 -705 0
-616 -715 0
-617 -716 0
-618 -717 0
-616 -931 0
-617 -932 0
-618 -933 0
-616 -1099 0
-617 -1100 0
-618 -1101 0
-616 -1102 0
-617 -1103 0
-618 -1104 0
-616 -721 0
-617 -722 0
-618 -723 0
-616 -619 0
-617 -620 0
-618 -621 0
-616 -724 0
-617 -725 0
-618 -726 0
-616 -625 0
-617 -626 0
-618 -627 0
-616 -730 0
-617 -731 0
-618 -732 0
-616 -982 0
-617 -983 0
-618 -984 0
-616 -985 0
-617 -986 0
-618 -987 0
-616 -631 0
-617 -632 0
-618 -633 0
-616 -1105 0
-617 -1106 0
-618 -1107 0
-616 -874 0
-617 -875 0
-618 -876 0
-616 -799 0
-617 -800 0
-618 -801 0
-616 -802 0
-617 -803 0
-618 -804 0
-616 -739 0
-617 -740 0
-618 -741 0
-616 -742 0
-617 -743 0
-618 -744 0
-616 -880 0
-617 -881 0
-618 -882 0
-616 -745 0
-617 -746 0
-618 -747 0
-616 -754 0
-617 -755 0
-618 -756 0
-616 -760 0
-617 -761 0
-618 -762 0
-616 -763 0
-617 -764 0
-618 -765 0
-616 -1045 0
-617 -1046 0
-618 -1047 0
-616 -1048 0
-617 -1049 0
-618 -1050 0
-616 -1054 0
-617 -1055 0
-618 -1056 0
-616 -946 0
-617 -947 0
-618 -948 0
-619 -949 0
-620 -950 0
-621 -951 0
-619 -1012 0
-620 -1013 0
-621 -1014 0
-619 -661 0
-620 -662 0
-621 -663 0
-619 -676 0
-620 -677 0
-621 -678 0
-619 -1084 0
-620 -1085 0
-621 -1086 0
-619 -820 0
-620 -821 0
-621 -822 0
-619 -1138 0
-620 -1139 0
-621 -1140 0
-619 -805 0
-620 -806 0
-621 -807 0
-619 -757 0
-620 -758 0
-621 -759 0
-619 -1057 0
-620 -1058 0
-621 -1059 0
-622 -1789 0
-623 -1790 0
-624 -1791 0
-622 -1015 0
-623 -1016 0
-624 -1017 0
-622 -1216 0
-623 -1217 0
-624 -1218 0
-625 -838 0
-626 -839 0
-627 -840 0
-628 -1216 0
-629 -1217 0
-630 -1218 0
-628 -1345 0
-629 -1346 0
-630 -1347 0
-628 -1804 0
-629 -1805 0
-630 -1806 0
-628 -1600 0
-629 -1601 0
-630 -1602 0
-628 -745 0
-629 -746 0
-630 -747 0
-628 -1369 0
-629 -1370 0
-630 -1371 0
-628 -1822 0
-629 -1823 0
-630 -1824 0
-631 -826 0
-632 -827 0
-633 -828 0
-634 -760 0
-635 -761 0
-636 -762 0
-634 -1366 0
-635 -1367 0
-636 -1368 0
-634 -1369 0
-635 -1370 0
-636 -1371 0
-634 -2089 0
-635 -2090 0
-636 -2091 0
-634 -1321 0
-635 -1322 0
-636 -1323 0
-637 -763 0
-638 -764 0
-639 -765 0
-637 -2053 0
-638 -2054 0
-639 -2055 0
-637 -1654 0
-638 -1655 0
-639 -1656 0
-640 -1303 0
-641 -1304 0
-642 -1305 0
-640 -1516 0
-641 -1517 0
-642 -1518 0
-643 -1684 0
-644 -1685 0
-645 -1686 0
-643 -1798 0
-644 -1799 0
-645 -1800 0
-643 -745 0
-644 -746 0
-645 -747 0
-643 -1780 0
-644 -1781 0
-645 -1782 0
-643 -1663 0
-644 -1664 0
-645 -1665 0
-643 -1618 0
-644 -1619 0
-645 -1620 0
-643 -1318 0
-644 -1319 0
-645 -1320 0
-646 -742 0
-647 -743 0
-648 -744 0
-646 -1819 0
-647 -1820 0
-648 -1821 0
-646 -1309 0
-647 -1310 0
-648 -1311 0
-646 -1318 0
-647 -1319 0
-648 -1320 0
-646 -2092 0
-647 -2093 0
-648 -2094 0
-649 -1357 0
-650 -1358 0
-651 -1359 0
-649 -1795 0
-650 -1796 0
-651 -1797 0
-649 -739 0
-650 -740 0
-651 -741 0
-649 -2056 0
-650 -2057 0
-651 -2058 0
-649 -1303 0
-650 -1304 0
-651 -1305 0
-649 -1741 0
-650 -1742 0
-651 -1743 0
-652 -1387 0
-653 -1388 0
-654 -1389 0
-652 -1180 0
-653 -1181 0
-654 -1182 0
-652 -658 0
-653 -659 0
-654 -660 0
-652 -2044 0
-653 -2045 0
-654 -2046 0
-655 -661 0
-656 -662 0
-657 -663 0
-655 -706 0
-656 -707 0
-657 -708 0
-655 -991 0
-656 -992 0
-657 -993 0
-658 -667 0
-659 -668 0
-660 -669 0
-658 -709 0
-659 -710 0
-660 -711 0
-658 -994 0
-659 -995 0
-660 -996 0
-661 -1483 0
-662 -1484 0
-663 -1485 0
-661 -1507 0
-662 -1508 0
-663 -1509 0
-664 -1306 0
-665 -1307 0
-666 -1308 0
-664 -1861 0
-665 -1862 0
-666 -1863 0
-664 -715 0
-665 -716 0
-666 -717 0
-667 -2116 0
-668 -2117 0
-669 -2118 0
-667 -1333 0
-668 -1334 0
-669 -1335 0
-667 -1459 0
-668 -1460 0
-669 -1461 0
-667 -1162 0
-668 -1163 0
-669 -1164 0
-667 -1432 0
-668 -1433 0
-669 -1434 0
-667 -1348 0
-668 -1349 0
-669 -1350 0
-670 -1330 0
-671 -1331 0
-672 -1332 0
-670 -1639 0
-671 -1640 0
-672 -1641 0
-670 -1492 0
-671 -1493 0
-672 -1494 0
-670 -1456 0
-671 -1457 0
-672 -1458 0
-670 -1702 0
-671 -1703 0
-672 -1704 0
-670 -703 0
-671 -704 0
-672 -705 0
-670 -1738 0
-671 -1739 0
-672 -1740 0
-673 -676 0
-674 -677 0
-675 -678 0
-673 -1141 0
-674 -1142 0
-675 -1143 0
-676 -1849 0
-677 -1850 0
-678 -1851 0
-676 -1906 0
-677 -1907 0
-678 -1908 0
-676 -1915 0
-677 -1916 0
-678 -1917 0
-676 -1237 0
-677 -1238 0
-678 -1239 0
-679 -760 0
-680 -761 0
-681 -762 0
-679 -1435 0
-680 -1436 0
-681 -1437 0
-679 -1408 0
-680 -1409 0
-681 -1410 0
-679 -1471 0
-680 -1472 0
-681 -1473 0
-679 -1321 0
-680 -1322 0
-681 -1323 0
-682 -1465 0
-683 -1466 0
-684 -1467 0
-682 -2110 0
-683 -2111 0
-684 -2112 0
-682 -754 0
-683 -755 0
-684 -756 0
-685 -856 0
-686 -857 0
-687 -858 0
-685 -727 0
-686 -728 0
-687 -729 0
-688 -1060 0
-689 -1061 0
-690 -1062 0
-688 -853 0
-689 -854 0
-690 -855 0
-688 -997 0
-689 -998 0
-690 -999 0
-691 -1063 0
-692 -1064 0
-693 -1065 0
-691 -766 0
-692 -767 0
-693 -768 0
-691 -709 0
-692 -710 0
-693 -711 0
-694 -706 0
-695 -707 0
-696 -708 0
-694 -727 0
-695 -728 0
-696 -729 0
-697 -715 0
-698 -716 0
-699 -717 0
-697 -1474 0
-698 -1475 0
-699 -1476 0
-697 -1306 0
-698 -1307 0
-699 -1308 0
-700 -1933 0
-701 -1934 0
-702 -1935 0
-700 -1081 0
-701 -1082 0
-702 -1083 0
-706 -2134 0
-707 -2135 0
-708 -2136 0
-706 -1327 0
-707 -1328 0
-708 -1329 0
-709 -1330 0
-710 -1331 0
-711 -1332 0
-709 -1351 0
-710 -1352 0
-711 -1353 0
-712 -1894 0
-713 -1895 0
-714 -1896 0
-712 -715 0
-713 -716 0
-714 -717 0
-712 -1474 0
-713 -1475 0
-714 -1476 0
-718 -1690 0
-719 -1691 0
-720 -1692 0
-718 -745 0
-719 -746 0
-720 -747 0
-727 -1210 0
-728 -1211 0
-729 -1212 0
-727 -1576 0
-728 -1577 0
-729 -1578 0
-730 -769 0
-731 -770 0
-732 -771 0
-733 -1006 0
-734 -1007 0
-735 -1008 0
-733 -1492 0
-734 -1493 0
-735 -1494 0
-733 -2071 0
-734 -2072 0
-735 -2073 0
-733 -2011 0
-734 -2012 0
-735 -2013 0
-736 -739 0
-737 -740 0
-738 -741 0
-736 -1357 0
-737 -1358 0
-738 -1359 0
-742 -1018 0
-743 -1019 0
-744 -1020 0
-745 -1021 0
-746 -1022 0
-747 -1023 0
-745 -865 0
-746 -866 0
-747 -867 0
-748 -760 0
-749 -761 0
-750 -762 0
-748 -1705 0
-749 -1706 0
-750 -1707 0
-748 -1471 0
-749 -1472 0
-750 -1473 0
-748 -1372 0
-749 -1373 0
-750 -1374 0
-751 -763 0
-752 -764 0
-753 -765 0
-751 -2119 0
-752 -2120 0
-753 -2121 0
-754 -769 0
-755 -770 0
-756 -771 0
-754 -757 0
-755 -758 0
-756 -759 0
-757 -1201 0
-758 -1202 0
-759 -1203 0
-757 -1183 0
-758 -1184 0
-759 -1185 0
-760 -907 0
-761 -908 0
-762 -909 0
-760 -766 0
-761 -767 0
-762 -768 0
-766 -1429 0
-767 -1430 0
-768 -1431 0
-766 -1408 0
-767 -1409 0
-768 -1410 0
-766 -2089 0
-767 -2090 0
-768 -2091 0
-769 -1366 0
-770 -1367 0
-771 -1368 0
-769 -1369 0
-770 -1370 0
-771 -1371 0
-772 -1132 0
-773 -1133 0
-774 -1134 0
-772 -1249 0
-773 -1250 0
-774 -1251 0
-772 -1246 0
-773 -1247 0
-774 -1248 0
-772 -1510 0
-773 -1511 0
-774 -1512 0
-775 -1129 0
-776 -1130 0
-777 -1131 0
-775 -1861 0
-776 -1862 0
-777 -1863 0
-775 -1645 0
-776 -1646 0
-777 -1647 0
-775 -1729 0
-776 -1730 0
-777 -1731 0
-778 -1135 0
-779 -1136 0
-780 -1137 0
-778 -1510 0
-779 -1511 0
-780 -1512 0
-778 -1378 0
-779 -1379 0
-780 -1380 0
-781 -1333 0
-782 -1334 0
-783 -1335 0
-781 -1099 0
-782 -1100 0
-783 -1101 0
-781 -1162 0
-782 -1163 0
-783 -1164 0
-784 -1930 0
-785 -1931 0
-786 -1932 0
-784 -1129 0
-785 -1130 0
-786 -1131 0
-784 -1405 0
-785 -1406 0
-786 -1407 0
-784 -1936 0
-785 -1937 0
-786 -1938 0
-784 -1645 0
-785 -1646 0
-786 -1647 0
-787 -1132 0
-788 -1133 0
-789 -1134 0
-787 -1246 0
-788 -1247 0
-789 -1248 0
-790 -1336 0
-791 -1337 0
-792 -1338 0
-790 -1099 0
-791 -1100 0
-792 -1101 0
-790 -1537 0
-791 -1538 0
-792 -1539 0
-790 -1909 0
-791 -1910 0
-792 -1911 0
-790 -1165 0
-791 -1166 0
-792 -1167 0
-793 -1621 0
-794 -1622 0
-795 -1623 0
-793 -1294 0
-794 -1295 0
-795 -1296 0
-793 -1300 0
-794 -1301 0
-795 -1302 0
-793 -1135 0
-794 -1136 0
-795 -1137 0
-793 -1924 0
-794 -1925 0
-795 -1926 0
-796 -982 0
-797 -983 0
-798 -984 0
-796 -1543 0
-797 -1544 0
-798 -1545 0
-802 -805 0
-803 -806 0
-804 -807 0
-805 -1651 0
-806 -1652 0
-807 -1653 0
-805 -1252 0
-806 -1253 0
-807 -1254 0
-808 -823 0
-809 -824 0
-810 -825 0
-808 -1516 0
-809 -1517 0
-810 -1518 0
-811 -1930 0
-812 -1931 0
-813 -1932 0
-811 -1324 0
-812 -1325 0
-813 -1326 0
-811 -1327 0
-812 -1328 0
-813 -1329 0
-811 -1129 0
-812 -1130 0
-813 -1131 0
-814 -1132 0
-815 -1133 0
-816 -1134 0
-814 -1249 0
-815 -1250 0
-816 -1251 0
-814 -2074 0
-815 -2075 0
-816 -2076 0
-817 -1117 0
-818 -1118 0
-819 -1119 0
-817 -820 0
-818 -821 0
-819 -822 0
-817 -826 0
-818 -827 0
-819 -828 0
-817 -853 0
-818 -854 0
-819 -855 0
-817 -922 0
-818 -923 0
-819 -924 0
-817 -865 0
-818 -866 0
-819 -867 0
-820 -1204 0
-821 -1205 0
-822 -1206 0
-820 -1903 0
-821 -1904 0
-822 -1905 0
-820 -1906 0
-821 -1907 0
-822 -1908 0
-820 -1177 0
-821 -1178 0
-822 -1179 0
-823 -1066 0
-824 -1067 0
-825 -1068 0
-823 -856 0
-824 -857 0
-825 -858 0
-823 -925 0
-824 -926 0
-825 -927 0
-823 -868 0
-824 -869 0
-825 -870 0
-826 -1903 0
-827 -1904 0
-828 -1905 0
-826 -1918 0
-827 -1919 0
-828 -1920 0
-826 -1174 0
-827 -1175 0
-828 -1176 0
-832 -835 0
-833 -836 0
-834 -837 0
-832 -1207 0
-833 -1208 0
-834 -1209 0
-832 -1534 0
-833 -1535 0
-834 -1536 0
-835 -838 0
-836 -839 0
-837 -840 0
-835 -922 0
-836 -923 0
-837 -924 0
-835 -925 0
-836 -926 0
-837 -927 0
-838 -1273 0
-839 -1274 0
-840 -1275 0
-838 -1906 0
-839 -1907 0
-840 -1908 0
-838 -1177 0
-839 -1178 0
-840 -1179 0
-841 -1210 0
-842 -1211 0
-843 -1212 0
-841 -1135 0
-842 -1136 0
-843 -1137 0
-841 -2077 0
-842 -2078 0
-843 -2079 0
-841 -1987 0
-842 -1988 0
-843 -1989 0
-841 -1882 0
-842 -1883 0
-843 -1884 0
-844 -1414 0
-845 -1415 0
-846 -1416 0
-844 -1801 0
-845 -1802 0
-846 -1803 0
-844 -1312 0
-845 -1313 0
-846 -1314 0
-844 -1924 0
-845 -1925 0
-846 -1926 0
-844 -1381 0
-845 -1382 0
-846 -1383 0
-844 -1933 0
-845 -1934 0
-846 -1935 0
-844 -1645 0
-845 -1646 0
-846 -1647 0
-844 -1081 0
-845 -1082 0
-846 -1083 0
-844 -1657 0
-845 -1658 0
-846 -1659 0
-844 -1957 0
-845 -1958 0
-846 -1959 0
-844 -1684 0
-845 -1685 0
-846 -1686 0
-844 -1357 0
-845 -1358 0
-846 -1359 0
-844 -1714 0
-845 -1715 0
-846 -1716 0
-847 -1546 0
-848 -1547 0
-849 -1548 0
-847 -1411 0
-848 -1412 0
-849 -1413 0
-847 -1582 0
-848 -1583 0
-849 -1584 0
-847 -1384 0
-848 -1385 0
-849 -1386 0
-847 -1078 0
-848 -1079 0
-849 -1080 0
-847 -1651 0
-848 -1652 0
-849 -1653 0
-847 -1246 0
-848 -1247 0
-849 -1248 0
-847 -1510 0
-848 -1511 0
-849 -1512 0
-847 -1717 0
-848 -1718 0
-849 -1719 0
-847 -1516 0
-848 -1517 0
-849 -1518 0
-847 -2092 0
-848 -2093 0
-849 -2094 0
-850 -2005 0
-851 -2006 0
-852 -2007 0
-850 -1210 0
-851 -1211 0
-852 -1212 0
-850 -1747 0
-851 -1748 0
-852 -1749 0
-850 -1777 0
-851 -1778 0
-852 -1779 0
-850 -1135 0
-851 -1136 0
-852 -1137 0
-850 -1879 0
-851 -1880 0
-852 -1881 0
-853 -1513 0
-854 -1514 0
-855 -1515 0
-856 -1573 0
-857 -1574 0
-858 -1575 0
-856 -1867 0
-857 -1868 0
-858 -1869 0
-859 -1045 0
-860 -1046 0
-861 -1047 0
-859 -1957 0
-860 -1958 0
-861 -1959 0
-862 -2032 0
-863 -2033 0
-864 -2034 0
-862 -1222 0
-863 -1223 0
-864 -1224 0
-862 -1918 0
-863 -1919 0
-864 -1920 0
-862 -1135 0
-863 -1136 0
-864 -1137 0
-862 -1174 0
-863 -1175 0
-864 -1176 0
-862 -1987 0
-863 -1988 0
-864 -1989 0
-865 -1684 0
-866 -1685 0
-867 -1686 0
-865 -1804 0
-866 -1805 0
-867 -1806 0
-868 -1921 0
-869 -1922 0
-870 -1923 0
-868 -1516 0
-869 -1517 0
-870 -1518 0
-871 -874 0
-872 -875 0
-873 -876 0
-871 -1855 0
-872 -1856 0
-873 -1857 0
-877 -1180 0
-878 -1181 0
-879 -1182 0
-877 -1276 0
-878 -1277 0
-879 -1278 0
-877 -880 0
-878 -881 0
-879 -882 0
-877 -1186 0
-878 -1187 0
-879 -1188 0
-877 -1192 0
-878 -1193 0
-879 -1194 0
-877 -1258 0
-878 -1259 0
-879 -1260 0
-880 -907 0
-881 -908 0
-882 -909 0
-883 -2095 0
-884 -2096 0
-885 -2097 0
-883 -1528 0
-884 -1529 0
-885 -1530 0
-883 -1981 0
-884 -1982 0
-885 -1983 0
-883 -1288 0
-884 -1289 0
-885 -1290 0
-883 -2047 0
-884 -2048 0
-885 -2049 0
-883 -931 0
-884 -932 0
-885 -933 0
-883 -2017 0
-884 -2018 0
-885 -2019 0
-883 -1666 0
-884 -1667 0
-885 -1668 0
-883 -2122 0
-884 -2123 0
-885 -2124 0
-883 -1693 0
-884 -1694 0
-885 -1695 0
-886 -1687 0
-887 -1688 0
-888 -1689 0
-886 -1339 0
-887 -1340 0
-888 -1341 0
-886 -1672 0
-887 -1673 0
-888 -1674 0
-889 -952 0
-890 -953 0
-891 -954 0
-889 -1744 0
-890 -1745 0
-891 -1746 0
-889 -1495 0
-890 -1496 0
-891 -1497 0
-892 -2095 0
-893 -2096 0
-894 -2097 0
-892 -1054 0
-893 -1055 0
-894 -1056 0
-892 -1591 0
-893 -1592 0
-894 -1593 0
-895 -1264 0
-896 -1265 0
-897 -1266 0
-895 -952 0
-896 -953 0
-897 -954 0
-895 -1180 0
-896 -1181 0
-897 -1182 0
-898 -1048 0
-899 -1049 0
-900 -1050 0
-898 -1642 0
-899 -1643 0
-900 -1644 0
-898 -2050 0
-899 -2051 0
-900 -2052 0
-898 -1183 0
-899 -1184 0
-900 -1185 0
-898 -1594 0
-899 -1595 0
-900 -1596 0
-901 -1372 0
-902 -1373 0
-903 -1374 0
-901 -1186 0
-902 -1187 0
-903 -1188 0
-904 -1054 0
-905 -1055 0
-906 -1056 0
-904 -1504 0
-905 -1505 0
-906 -1506 0
-904 -1549 0
-905 -1550 0
-906 -1551 0
-904 -1591 0
-905 -1592 0
-906 -1593 0
-904 -1189 0
-905 -1190 0
-906 -1191 0
-904 -1615 0
-905 -1616 0
-906 -1617 0
-907 -2041 0
-908 -2042 0
-909 -2043 0
-907 -1228 0
-908 -1229 0
-909 -1230 0
-907 -1372 0
-908 -1373 0
-909 -1374 0
-907 -1186 0
-908 -1187 0
-909 -1188 0
-910 -1099 0
-911 -1100 0
-912 -1101 0
-910 -1165 0
-911 -1166 0
-912 -1167 0
-913 -1102 0
-914 -1103 0
-915 -1104 0
-913 -1939 0
-914 -1940 0
-915 -1941 0
-913 -2026 0
-914 -2027 0
-915 -2028 0
-913 -1189 0
-914 -1190 0
-915 -1191 0
-913 -1825 0
-914 -1826 0
-915 -1827 0
-916 -1102 0
-917 -1103 0
-918 -1104 0
-916 -1939 0
-917 -1940 0
-918 -1941 0
-916 -1831 0
-917 -1832 0
-918 -1833 0
-916 -1183 0
-917 -1184 0
-918 -1185 0
-916 -1195 0
-917 -1196 0
-918 -1197 0
-919 -1480 0
-920 -1481 0
-921 -1482 0
-919 -1129 0
-920 -1130 0
-921 -1131 0
-922 -1807 0
-923 -1808 0
-924 -1809 0
-922 -1891 0
-923 -1892 0
-924 -1893 0
-925 -1984 0
-926 -1985 0
-927 -1986 0
-925 -1441 0
-926 -1442 0
-927 -1443 0
-928 -1810 0
-929 -1811 0
-930 -1812 0
-928 -1690 0
-929 -1691 0
-930 -1692 0
-928 -2098 0
-929 -2099 0
-930 -2100 0
-928 -1696 0
-929 -1697 0
-930 -1698 0
-928 -1777 0
-929 -1778 0
-930 -1779 0
-928 -1135 0
-929 -1136 0
-930 -1137 0
-928 -2077 0
-929 -2078 0
-930 -2079 0
-934 -1642 0
-935 -1643 0
-936 -1644 0
-934 -1363 0
-935 -1364 0
-936 -1365 0
-934 -1105 0
-935 -1106 0
-936 -1107 0
-937 -1102 0
-938 -1103 0
-939 -1104 0
-937 -1585 0
-938 -1586 0
-939 -1587 0
-937 -1477 0
-938 -1478 0
-939 -1479 0
-937 -1420 0
-938 -1421 0
-939 -1422 0
-940 -1213 0
-941 -1214 0
-942 -1215 0
-940 -1612 0
-941 -1613 0
-942 -1614 0
-940 -946 0
-941 -947 0
-942 -948 0
-943 -952 0
-944 -953 0
-945 -954 0
-943 -1168 0
-944 -1169 0
-945 -1170 0
-943 -1180 0
-944 -1181 0
-945 -1182 0
-943 -1192 0
-944 -1193 0
-945 -1194 0
-946 -949 0
-947 -950 0
-948 -951 0
-946 -955 0
-947 -956 0
-948 -957 0
-946 -1147 0
-947 -1148 0
-948 -1149 0
-946 -1108 0
-947 -1109 0
-948 -1110 0
-949 -1843 0
-950 -1844 0
-951 -1845 0
-949 -1852 0
-950 -1853 0
-951 -1854 0
-952 -1120 0
-953 -1121 0
-954 -1122 0
-955 -1273 0
-956 -1274 0
-957 -1275 0
-955 -1612 0
-956 -1613 0
-957 -1614 0
-955 -1195 0
-956 -1196 0
-957 -1197 0
-958 -1363 0
-959 -1364 0
-960 -1365 0
-958 -1105 0
-959 -1106 0
-960 -1107 0
-958 -1420 0
-959 -1421 0
-960 -1422 0
-961 -1720 0
-962 -1721 0
-963 -1722 0
-961 -1486 0
-962 -1487 0
-963 -1488 0
-961 -1294 0
-962 -1295 0
-963 -1296 0
-961 -1753 0
-962 -1754 0
-963 -1755 0
-961 -1225 0
-962 -1226 0
-963 -1227 0
-964 -1120 0
-965 -1121 0
-966 -1122 0
-967 -2023 0
-968 -2024 0
-969 -2025 0
-967 -1864 0
-968 -1865 0
-969 -1866 0
-967 -1135 0
-968 -1136 0
-969 -1137 0
-967 -1183 0
-968 -1184 0
-969 -1185 0
-967 -1195 0
-968 -1196 0
-969 -1197 0
-970 -1864 0
-971 -1865 0
-972 -1866 0
-970 -1504 0
-971 -1505 0
-972 -1506 0
-970 -1174 0
-971 -1175 0
-972 -1176 0
-970 -1135 0
-971 -1136 0
-972 -1137 0
-970 -1189 0
-971 -1190 0
-972 -1191 0
-973 -1960 0
-974 -1961 0
-975 -1962 0
-973 -1129 0
-974 -1130 0
-975 -1131 0
-973 -1936 0
-974 -1937 0
-975 -1938 0
-976 -1822 0
-977 -1823 0
-978 -1824 0
-976 -1015 0
-977 -1016 0
-978 -1017 0
-979 -985 0
-980 -986 0
-981 -987 0
-979 -1336 0
-980 -1337 0
-981 -1338 0
-979 -1750 0
-980 -1751 0
-981 -1752 0
-979 -1450 0
-980 -1451 0
-981 -1452 0
-982 -1018 0
-983 -1019 0
-984 -1020 0
-982 -1021 0
-983 -1022 0
-984 -1023 0
-982 -994 0
-983 -995 0
-984 -996 0
-982 -997 0
-983 -998 0
-984 -999 0
-982 -1150 0
-983 -1151 0
-984 -1152 0
-982 -1003 0
-983 -1004 0
-984 -1005 0
-985 -991 0
-986 -992 0
-987 -993 0
-988 -1006 0
-989 -1007 0
-990 -1008 0
-988 -1900 0
-989 -1901 0
-990 -1902 0
-988 -1375 0
-989 -1376 0
-990 -1377 0
-991 -1507 0
-992 -1508 0
-993 -1509 0
-991 -1588 0
-992 -1589 0
-993 -1590 0
-994 -1399 0
-995 -1400 0
-996 -1401 0
-994 -1333 0
-995 -1334 0
-996 -1335 0
-994 -2044 0
-995 -2045 0
-996 -2046 0
-994 -1168 0
-995 -1169 0
-996 -1170 0
-997 -1624 0
-998 -1625 0
-999 -1626 0
-997 -1699 0
-998 -1700 0
-999 -1701 0
-1000 -1387 0
-1001 -1388 0
-1002 -1389 0
-1000 -1825 0
-1001 -1826 0
-1002 -1827 0
-1003 -1624 0
-1004 -1625 0
-1005 -1626 0
-1003 -1963 0
-1004 -1964 0
-1005 -1965 0
-1003 -1954 0
-1004 -1955 0
-1005 -1956 0
-1003 -2080 0
-1004 -2081 0
-1005 -2082 0
-1006 -1012 0
-1007 -1013 0
-1008 -1014 0
-1006 -1066 0
-1007 -1067 0
-1008 -1068 0
-1006 -1153 0
-1007 -1154 0
-1008 -1155 0
-1009 -1015 0
-1010 -1016 0
-1011 -1017 0
-1009 -1747 0
-1010 -1748 0
-1011 -1749 0
-1009 -1216 0
-1010 -1217 0
-1011 -1218 0
-1009 -1552 0
-1010 -1553 0
-1011 -1554 0
-1009 -1672 0
-1010 -1673 0
-1011 -1674 0
-1012 -1696 0
-1013 -1697 0
-1014 -1698 0
-1012 -1945 0
-1013 -1946 0
-1014 -1947 0
-1012 -1288 0
-1013 -1289 0
-1014 -1290 0
-1012 -2077 0
-1013 -2078 0
-1014 -2079 0
-1012 -1993 0
-1013 -1994 0
-1014 -1995 0
-1018 -1819 0
-1019 -1820 0
-1020 -1821 0
-1018 -1669 0
-1019 -1670 0
-1020 -1671 0
-1021 -1690 0
-1022 -1691 0
-1023 -1692 0
-1021 -1792 0
-1022 -1793 0
-1023 -1794 0
-1021 -1618 0
-1022 -1619 0
-1023 -1620 0
-1024 -1081 0
-1025 -1082 0
-1026 -1083 0
-1024 -1357 0
-1025 -1358 0
-1026 -1359 0
-1027 -1606 0
-1028 -1607 0
-1029 -1608 0
-1027 -1828 0
-1028 -1829 0
-1029 -1830 0
-1030 -1609 0
-1031 -1610 0
-1032 -1611 0
-1030 -1828 0
-1031 -1829 0
-1032 -1830 0
-1033 -1678 0
-1034 -1679 0
-1035 -1680 0
-1033 -1048 0
-1034 -1049 0
-1035 -1050 0
-1033 -2104 0
-1034 -2105 0
-1035 -2106 0
-1033 -1603 0
-1034 -1604 0
-1035 -1605 0
-1036 -1102 0
-1037 -1103 0
-1038 -1104 0
-1036 -1279 0
-1037 -1280 0
-1038 -1281 0
-1039 -1045 0
-1040 -1046 0
-1041 -1047 0
-1039 -1957 0
-1040 -1958 0
-1041 -1959 0
-1039 -1381 0
-1040 -1382 0
-1041 -1383 0
-1042 -1048 0
-1043 -1049 0
-1044 -1050 0
-1042 -1195 0
-1043 -1196 0
-1044 -1197 0
-1042 -1831 0
-1043 -1832 0
-1044 -1833 0
-1045 -1063 0
-1046 -1064 0
-1047 -1065 0
-1048 -1156 0
-1049 -1157 0
-1050 -1158 0
-1051 -1387 0
-1052 -1388 0
-1053 -1389 0
-1051 -1054 0
-1052 -1055 0
-1053 -1056 0
-1051 -1834 0
-1052 -1835 0
-1053 -1836 0
-1051 -1825 0
-1052 -1826 0
-1053 -1827 0
-1051 -1354 0
-1052 -1355 0
-1053 -1356 0
-1054 -1060 0
-1055 -1061 0
-1056 -1062 0
-1054 -1117 0
-1055 -1118 0
-1056 -1119 0
-1054 -1144 0
-1055 -1145 0
-1056 -1146 0
-1057 -1876 0
-1058 -1877 0
-1059 -1878 0
-1057 -1372 0
-1058 -1373 0
-1059 -1374 0
-1060 -1786 0
-1061 -1787 0
-1062 -1788 0
-1060 -1384 0
-1061 -1385 0
-1062 -1386 0
-1063 -1963 0
-1064 -1964 0
-1065 -1965 0
-1063 -1954 0
-1064 -1955 0
-1065 -1956 0
-1063 -1381 0
-1064 -1382 0
-1065 -1383 0
-1066 -1921 0
-1067 -1922 0
-1068 -1923 0
-1066 -1453 0
-1067 -1454 0
-1068 -1455 0
-1069 -1324 0
-1070 -1325 0
-1071 -1326 0
-1069 -1480 0
-1070 -1481 0
-1071 -1482 0
-1069 -1129 0
-1070 -1130 0
-1071 -1131 0
-1069 -1999 0
-1070 -2000 0
-1071 -2001 0
-1069 -1417 0
-1070 -1418 0
-1071 -1419 0
-1072 -1327 0
-1073 -1328 0
-1074 -1329 0
-1072 -1129 0
-1073 -1130 0
-1074 -1131 0
-1072 -1417 0
-1073 -1418 0
-1074 -1419 0
-1075 -1750 0
-1076 -1751 0
-1077 -1752 0
-1075 -1078 0
-1076 -1079 0
-1077 -1080 0
-1075 -1921 0
-1076 -1922 0
-1077 -1923 0
-1075 -2002 0
-1076 -2003 0
-1077 -2004 0
-1075 -2119 0
-1076 -2120 0
-1077 -2121 0
-1075 -1516 0
-1076 -1517 0
-1077 -1518 0
-1078 -1159 0
-1079 -1160 0
-1080 -1161 0
-1081 -1084 0
-1082 -1085 0
-1083 -1086 0
-1081 -1150 0
-1082 -1151 0
-1083 -1152 0
-1084 -1696 0
-1085 -1697 0
-1086 -1698 0
-1084 -1726 0
-1085 -1727 0
-1086 -1728 0
-1084 -1657 0
-1085 -1658 0
-1086 -1659 0
-1087 -1219 0
-1088 -1220 0
-1089 -1221 0
-1087 -1135 0
-1088 -1136 0
-1089 -1137 0
-1087 -1873 0
-1088 -1874 0
-1089 -1875 0
-1087 -1636 0
-1088 -1637 0
-1089 -1638 0
-1087 -1834 0
-1088 -1835 0
-1089 -1836 0
-1090 -2005 0
-1091 -2006 0
-1092 -2007 0
-1090 -1294 0
-1091 -1295 0
-1092 -1296 0
-1090 -2035 0
-1091 -2036 0
-1092 -2037 0
-1090 -1135 0
-1091 -1136 0
-1092 -1137 0
-1090 -1876 0
-1091 -1877 0
-1092 -1878 0
-1090 -1183 0
-1091 -1184 0
-1092 -1185 0
-1090 -2020 0
-1091 -2021 0
-1092 -2022 0
-1093 -1297 0
-1094 -1298 0
-1095 -1299 0
-1093 -1228 0
-1094 -1229 0
-1095 -1230 0
-1093 -1135 0
-1094 -1136 0
-1095 -1137 0
-1093 -1186 0
-1094 -1187 0
-1095 -1188 0
-1096 -1300 0
-1097 -1301 0
-1098 -1302 0
-1096 -1135 0
-1097 -1136 0
-1098 -1137 0
-1096 -1873 0
-1097 -1874 0
-1098 -1875 0
-1096 -1189 0
-1097 -1190 0
-1098 -1191 0
-1099 -1159 0
-1100 -1160 0
-1101 -1161 0
-1102 -1147 0
-1103 -1148 0
-1104 -1149 0
-1105 -1156 0
-1106 -1157 0
-1107 -1158 0
-1108 -1420 0
-1109 -1421 0
-1110 -1422 0
-1108 -1477 0
-1109 -1478 0
-1110 -1479 0
-1108 -1405 0
-1109 -1406 0
-1110 -1407 0
-1111 -1870 0
-1112 -1871 0
-1113 -1872 0
-1111 -1135 0
-1112 -1136 0
-1113 -1137 0
-1111 -1876 0
-1112 -1877 0
-1113 -1878 0
-1111 -1885 0
-1112 -1886 0
-1113 -1887 0
-1114 -1489 0
-1115 -1490 0
-1116 -1491 0
-1114 -1501 0
-1115 -1502 0
-1116 -1503 0
-1114 -1135 0
-1115 -1136 0
-1116 -1137 0
-1114 -1390 0
-1115 -1391 0
-1116 -1392 0
-1114 -1192 0
-1115 -1193 0
-1116 -1194 0
-1114 -1834 0
-1115 -1835 0
-1116 -1836 0
-1117 -1213 0
-1118 -1214 0
-1119 -1215 0
-1117 -1504 0
-1118 -1505 0
-1119 -1506 0
-1117 -1390 0
-1118 -1391 0
-1119 -1392 0
-1117 -1393 0
-1118 -1394 0
-1119 -1395 0
-1120 -1744 0
-1121 -1745 0
-1122 -1746 0
-1120 -1489 0
-1121 -1490 0
-1122 -1491 0
-1120 -1348 0
-1121 -1349 0
-1122 -1350 0
-1120 -1393 0
-1121 -1394 0
-1122 -1395 0
-1123 -1129 0
-1124 -1130 0
-1125 -1131 0
-1123 -1753 0
-1124 -1754 0
-1125 -1755 0
-1123 -1729 0
-1124 -1730 0
-1125 -1731 0
-1126 -1639 0
-1127 -1640 0
-1128 -1641 0
-1126 -1135 0
-1127 -1136 0
-1128 -1137 0
-1135 -1153 0
-1136 -1154 0
-1137 -1155 0
-1135 -1138 0
-1136 -1139 0
-1137 -1140 0
-1135 -1141 0
-1136 -1142 0
-1137 -1143 0
-1138 -1222 0
-1139 -1223 0
-1140 -1224 0
-1138 -1225 0
-1139 -1226 0
-1140 -1227 0
-1138 -1228 0
-1139 -1229 0
-1140 -1230 0
-1141 -1195 0
-1142 -1196 0
-1143 -1197 0
-1144 -2014 0
-1145 -2015 0
-1146 -2016 0
-1144 -1549 0
-1145 -1550 0
-1146 -1551 0
-1147 -1960 0
-1148 -1961 0
-1149 -1962 0
-1147 -2101 0
-1148 -2102 0
-1149 -2103 0
-1150 -1963 0
-1151 -1964 0
-1152 -1965 0
-1150 -1381 0
-1151 -1382 0
-1152 -1383 0
-1153 -2032 0
-1154 -2033 0
-1155 -2034 0
-1153 -2035 0
-1154 -2036 0
-1155 -2037 0
-1153 -1879 0
-1154 -1880 0
-1155 -1881 0
-1153 -1378 0
-1154 -1379 0
-1155 -1380 0
-1156 -1642 0
-1157 -1643 0
-1158 -1644 0
-1156 -1627 0
-1157 -1628 0
-1158 -1629 0
-1159 -1510 0
-1160 -1511 0
-1161 -1512 0
-1159 -1378 0
-1160 -1379 0
-1161 -1380 0
-1183 -1780 0
-1184 -1781 0
-1185 -1782 0
-1189 -1741 0
-1190 -1742 0
-1191 -1743 0
-1195 -1738 0
-1196 -1739 0
-1197 -1740 0
-1204 -1981 0
-1205 -1982 0
-1206 -1983 0
-1204 -2017 0
-1205 -2018 0
-1206 -2019 0
-1207 -1426 0
-1208 -1427 0
-1209 -1428 0
-1207 -1339 0
-1208 -1340 0
-1209 -1341 0
-1210 -1444 0
-1211 -1445 0
-1212 -1446 0
-1210 -2062 0
-1211 -2063 0
-1212 -2064 0
-1210 -1303 0
-1211 -1304 0
-1212 -1305 0
-1210 -1318 0
-1211 -1319 0
-1212 -1320 0
-1210 -1771 0
-1211 -1772 0
-1212 -1773 0
-1210 -1396 0
-1211 -1397 0
-1212 -1398 0
-1213 -1456 0
-1214 -1457 0
-1215 -1458 0
-1213 -1462 0
-1214 -1463 0
-1215 -1464 0
-1213 -1702 0
-1214 -1703 0
-1215 -1704 0
-1216 -1417 0
-1217 -1418 0
-1218 -1419 0
-1216 -1441 0
-1217 -1442 0
-1218 -1443 0
-1216 -1306 0
-1217 -1307 0
-1218 -1308 0
-1216 -1453 0
-1217 -1454 0
-1218 -1455 0
-1216 -1330 0
-1217 -1331 0
-1218 -1332 0
-1216 -1459 0
-1217 -1460 0
-1218 -1461 0
-1216 -1474 0
-1217 -1475 0
-1218 -1476 0
-1216 -1480 0
-1217 -1481 0
-1218 -1482 0
-1216 -1813 0
-1217 -1814 0
-1218 -1815 0
-1216 -1816 0
-1217 -1817 0
-1218 -1818 0
-1219 -1408 0
-1220 -1409 0
-1221 -1410 0
-1219 -1468 0
-1220 -1469 0
-1221 -1470 0
-1219 -1471 0
-1220 -1472 0
-1221 -1473 0
-1222 -1642 0
-1223 -1643 0
-1224 -1644 0
-1222 -1627 0
-1223 -1628 0
-1224 -1629 0
-1225 -1630 0
-1226 -1631 0
-1227 -1632 0
-1228 -1402 0
-1229 -1403 0
-1230 -1404 0
-1231 -1438 0
-1232 -1439 0
-1233 -1440 0
-1234 -1429 0
-1235 -1430 0
-1236 -1431 0
-1234 -1408 0
-1235 -1409 0
-1236 -1410 0
-1240 -1714 0
-1241 -1715 0
-1242 -1716 0
-1246 -1261 0
-1247 -1262 0
-1248 -1263 0
-1246 -1321 0
-1247 -1322 0
-1248 -1323 0
-1246 -1942 0
-1247 -1943 0
-1248 -1944 0
-1246 -1435 0
-1247 -1436 0
-1248 -1437 0
-1246 -1396 0
-1247 -1397 0
-1248 -1398 0
-1246 -1975 0
-1247 -1976 0
-1248 -1977 0
-1258 -1798 0
-1259 -1799 0
-1260 -1800 0
-1261 -1423 0
-1262 -1424 0
-1263 -1425 0
-1261 -1411 0
-1262 -1412 0
-1263 -1413 0
-1264 -1756 0
-1265 -1757 0
-1266 -1758 0
-1264 -1645 0
-1265 -1646 0
-1266 -1647 0
-1264 -1414 0
-1265 -1415 0
-1266 -1416 0
-1267 -1981 0
-1268 -1982 0
-1269 -1983 0
-1267 -1990 0
-1268 -1991 0
-1269 -1992 0
-1273 -1528 0
-1274 -1529 0
-1275 -1530 0
-1276 -1303 0
-1277 -1304 0
-1278 -1305 0
-1282 -1543 0
-1283 -1544 0
-1284 -1545 0
-1282 -1819 0
-1283 -1820 0
-1284 -1821 0
-1282 -1783 0
-1283 -1784 0
-1284 -1785 0
-1282 -1309 0
-1283 -1310 0
-1284 -1311 0
-1285 -1399 0
-1286 -1400 0
-1287 -1401 0
-1285 -1531 0
-1286 -1532 0
-1287 -1533 0
-1285 -1537 0
-1286 -1538 0
-1287 -1539 0
-1285 -2044 0
-1286 -2045 0
-1287 -2046 0
-1285 -2107 0
-1286 -2108 0
-1287 -2109 0
-1288 -1399 0
-1289 -1400 0
-1290 -1401 0
-1288 -1324 0
-1289 -1325 0
-1290 -1326 0
-1288 -1327 0
-1289 -1328 0
-1290 -1329 0
-1288 -1333 0
-1289 -1334 0
-1290 -1335 0
-1288 -1336 0
-1289 -1337 0
-1290 -1338 0
-1288 -1432 0
-1289 -1433 0
-1290 -1434 0
-1288 -1417 0
-1289 -1418 0
-1290 -1419 0
-1288 -1447 0
-1289 -1448 0
-1290 -1449 0
-1288 -1450 0
-1289 -1451 0
-1290 -1452 0
-1291 -1717 0
-1292 -1718 0
-1293 -1719 0
-1294 -1651 0
-1295 -1652 0
-1296 -1653 0
-1294 -1411 0
-1295 -1412 0
-1296 -1413 0
-1294 -1762 0
-1295 -1763 0
-1296 -1764 0
-1297 -1402 0
-1298 -1403 0
-1299 -1404 0
-1297 -1534 0
-1298 -1535 0
-1299 -1536 0
-1297 -1312 0
-1298 -1313 0
-1299 -1314 0
-1297 -1414 0
-1298 -1415 0
-1299 -1416 0
-1300 -1546 0
-1301 -1547 0
-1302 -1548 0
-1300 -1651 0
-1301 -1652 0
-1302 -1653 0
-1303 -1732 0
-1304 -1733 0
-1305 -1734 0
-1303 -1564 0
-1304 -1565 0
-1305 -1566 0
-1303 -1570 0
-1304 -1571 0
-1305 -1572 0
-1306 -1864 0
-1307 -1865 0
-1308 -1866 0
-1306 -1594 0
-1307 -1595 0
-1308 -1596 0
-1309 -1525 0
-1310 -1526 0
-1311 -1527 0
-1309 -1846 0
-1310 -1847 0
-1311 -1848 0
-1309 -2041 0
-1310 -2042 0
-1311 -2043 0
-1309 -1927 0
-1310 -1928 0
-1311 -1929 0
-1312 -1927 0
-1313 -1928 0
-1314 -1929 0
-1315 -1561 0
-1316 -1562 0
-1317 -1563 0
-1315 -1483 0
-1316 -1484 0
-1317 -1485 0
-1315 -1588 0
-1316 -1589 0
-1317 -1590 0
-1315 -1507 0
-1316 -1508 0
-1317 -1509 0
-1318 -1525 0
-1319 -1526 0
-1320 -1527 0
-1318 -1897 0
-1319 -1898 0
-1320 -1899 0
-1318 -1567 0
-1319 -1568 0
-1320 -1569 0
-1318 -1855 0
-1319 -1856 0
-1320 -1857 0
-1318 -1699 0
-1319 -1700 0
-1320 -1701 0
-1321 -1624 0
-1322 -1625 0
-1323 -1626 0
-1321 -1699 0
-1322 -1700 0
-1323 -1701 0
-1327 -2131 0
-1328 -2132 0
-1329 -2133 0
-1330 -1744 0
-1331 -1745 0
-1332 -1746 0
-1330 -1495 0
-1331 -1496 0
-1332 -1497 0
-1330 -1864 0
-1331 -1865 0
-1332 -1866 0
-1330 -2023 0
-1331 -2024 0
-1332 -2025 0
-1330 -1504 0
-1331 -1505 0
-1332 -1506 0
-1330 -1591 0
-1331 -1592 0
-1332 -1593 0
-1339 -1984 0
-1340 -1985 0
-1341 -1986 0
-1342 -1531 0
-1343 -1532 0
-1344 -1533 0
-1342 -1891 0
-1343 -1892 0
-1344 -1893 0
-1348 -1456 0
-1349 -1457 0
-1350 -1458 0
-1354 -1702 0
-1355 -1703 0
-1356 -1704 0
-1354 -1468 0
-1355 -1469 0
-1356 -1470 0
-1357 -1549 0
-1358 -1550 0
-1359 -1551 0
-1360 -1657 0
-1361 -1658 0
-1362 -1659 0
-1366 -1606 0
-1367 -1607 0
-1368 -1608 0
-1366 -1609 0
-1367 -1610 0
-1368 -1611 0
-1366 -1537 0
-1367 -1538 0
-1368 -1539 0
-1366 -1828 0
-1367 -1829 0
-1368 -1830 0
-1366 -1909 0
-1367 -1910 0
-1368 -1911 0
-1372 -1510 0
-1373 -1511 0
-1374 -1512 0
-1372 -1582 0
-1373 -1583 0
-1374 -1584 0
-1375 -1552 0
-1376 -1553 0
-1377 -1554 0
-1381 -1744 0
-1382 -1745 0
-1383 -1746 0
-1381 -1489 0
-1382 -1490 0
-1383 -1491 0
-1381 -1498 0
-1382 -1499 0
-1383 -1500 0
-1381 -1549 0
-1382 -1550 0
-1383 -1551 0
-1381 -1615 0
-1382 -1616 0
-1383 -1617 0
-1381 -1834 0
-1382 -1835 0
-1383 -1836 0
-1384 -1486 0
-1385 -1487 0
-1386 -1488 0
-1384 -1942 0
-1385 -1943 0
-1386 -1944 0
-1387 -1702 0
-1388 -1703 0
-1389 -1704 0
-1393 -1813 0
-1394 -1814 0
-1395 -1815 0
-1393 -1639 0
-1394 -1640 0
-1395 -1641 0
-1393 -1456 0
-1394 -1457 0
-1395 -1458 0
-1393 -1816 0
-1394 -1817 0
-1395 -1818 0
-1396 -1576 0
-1397 -1577 0
-1398 -1578 0
-1396 -1579 0
-1397 -1580 0
-1398 -1581 0
-1396 -1558 0
-1397 -1559 0
-1398 -1560 0
-1396 -1519 0
-1397 -1520 0
-1398 -1521 0
-1399 -1540 0
-1400 -1541 0
-1401 -1542 0
-1402 -2041 0
-1403 -2042 0
-1404 -2043 0
-1405 -1522 0
-1406 -1523 0
-1407 -1524 0
-1411 -1621 0
-1412 -1622 0
-1413 -1623 0
-1411 -1486 0
-1412 -1487 0
-1413 -1488 0
-1414 -1489 0
-1415 -1490 0
-1416 -1491 0
-1414 -1501 0
-1415 -1502 0
-1416 -1503 0
-1417 -2122 0
-1418 -2123 0
-1419 -2124 0
-1417 -1747 0
-1418 -1748 0
-1419 -1749 0
-1417 -1696 0
-1418 -1697 0
-1419 -1698 0
-1417 -1777 0
-1418 -1778 0
-1419 -1779 0
-1417 -1726 0
-1418 -1727 0
-1419 -1728 0
-1417 -1822 0
-1418 -1823 0
-1419 -1824 0
-1423 -1966 0
-1424 -1967 0
-1425 -1968 0
-1426 -1534 0
-1427 -1535 0
-1428 -1536 0
-1432 -1528 0
-1433 -1529 0
-1434 -1530 0
-1432 -1492 0
-1433 -1493 0
-1434 -1494 0
-1435 -2086 0
-1436 -2087 0
-1437 -2088 0
-1438 -1540 0
-1439 -1541 0
-1440 -1542 0
-1438 -1990 0
-1439 -1991 0
-1440 -1992 0
-1441 -1726 0
-1442 -1727 0
-1443 -1728 0
-1441 -1657 0
-1442 -1658 0
-1443 -1659 0
-1444 -1555 0
-1445 -1556 0
-1446 -1557 0
-1447 -1810 0
-1448 -1811 0
-1449 -1812 0
-1453 -1597 0
-1454 -1598 0
-1455 -1599 0
-1453 -1789 0
-1454 -1790 0
-1455 -1791 0
-1456 -2116 0
-1457 -2117 0
-1458 -2118 0
-1456 -1612 0
-1457 -1613 0
-1458 -1614 0
-1456 -1708 0
-1457 -1709 0
-1458 -1710 0
-1456 -1585 0
-1457 -1586 0
-1458 -1587 0
-1459 -1600 0
-1460 -1601 0
-1461 -1602 0
-1462 -1786 0
-1463 -1787 0
-1464 -1788 0
-1465 -1792 0
-1466 -1793 0
-1467 -1794 0
-1468 -1834 0
-1469 -1835 0
-1470 -1836 0
-1471 -1636 0
-1472 -1637 0
-1473 -1638 0
-1474 -1774 0
-1475 -1775 0
-1476 -1776 0
-1477 -1522 0
-1478 -1523 0
-1479 -1524 0
-1480 -1804 0
-1481 -1805 0
-1482 -1806 0
-1483 -1768 0
-1484 -1769 0
-1485 -1770 0
-1483 -1648 0
-1484 -1649 0
-1485 -1650 0
-1483 -1711 0
-1484 -1712 0
-1485 -1713 0
-1486 -1630 0
-1487 -1631 0
-1488 -1632 0
-1486 -2014 0
-1487 -2015 0
-1488 -2016 0
-1486 -1513 0
-1487 -1514 0
-1488 -1515 0
-1492 -1708 0
-1493 -1709 0
-1494 -1710 0
-1492 -1735 0
-1493 -1736 0
-1494 -1737 0
-1498 -1714 0
-1499 -1715 0
-1500 -1716 0
-1501 -1684 0
-1502 -1685 0
-1503 -1686 0
-1501 -1807 0
-1502 -1808 0
-1503 -1809 0
-1504 -1816 0
-1505 -1817 0
-1506 -1818 0
-1507 -1693 0
-1508 -1694 0
-1509 -1695 0
-1507 -2017 0
-1508 -2018 0
-1509 -2019 0
-1510 -1705 0
-1511 -1706 0
-1512 -1707 0
-1513 -1705 0
-1514 -1706 0
-1515 -1707 0
-1516 -1840 0
-1517 -1841 0
-1518 -1842 0
-1516 -1732 0
-1517 -1733 0
-1518 -1734 0
-1516 -1975 0
-1517 -1976 0
-1518 -1977 0
-1516 -1870 0
-1517 -1871 0
-1518 -1872 0
-1516 -1876 0
-1517 -1877 0
-1518 -1878 0
-1516 -2020 0
-1517 -2021 0
-1518 -2022 0
-1519 -2125 0
-1520 -2126 0
-1521 -2127 0
-1522 -1801 0
-1523 -1802 0
-1524 -1803 0
-1522 -1645 0
-1523 -1646 0
-1524 -1647 0
-1522 -1585 0
-1523 -1586 0
-1524 -1587 0
-1522 -2038 0
-1523 -2039 0
-1524 -2040 0
-1528 -1906 0
-1529 -1907 0
-1530 -1908 0
-1531 -1666 0
-1532 -1667 0
-1533 -1668 0
-1546 -1621 0
-1547 -1622 0
-1548 -1623 0
-1546 -1870 0
-1547 -1871 0
-1548 -1872 0
-1546 -1885 0
-1547 -1886 0
-1548 -1887 0
-1549 -1720 0
-1550 -1721 0
-1551 -1722 0
-1549 -1753 0
-1550 -1754 0
-1551 -1755 0
-1549 -1729 0
-1550 -1730 0
-1551 -1731 0
-1549 -1741 0
-1550 -1742 0
-1551 -1743 0
-1552 -1996 0
-1553 -1997 0
-1554 -1998 0
-1555 -1759 0
-1556 -1760 0
-1557 -1761 0
-1561 -1660 0
-1562 -1661 0
-1563 -1662 0
-1567 -1663 0
-1568 -1664 0
-1569 -1665 0
-1570 -2056 0
-1571 -2057 0
-1572 -2058 0
-1573 -1765 0
-1574 -1766 0
-1575 -1767 0
-1573 -1711 0
-1574 -1712 0
-1575 -1713 0
-1579 -2008 0
-1580 -2009 0
-1581 -2010 0
-1582 -2041 0
-1583 -2042 0
-1584 -2043 0
-1585 -1813 0
-1586 -1814 0
-1587 -1815 0
-1585 -2125 0
-1586 -2126 0
-1587 -2127 0
-1588 -1672 0
-1589 -1673 0
-1590 -1674 0
-1591 -1729 0
-1592 -1730 0
-1593 -1731 0
-1594 -1861 0
-1595 -1862 0
-1596 -1863 0
-1597 -1921 0
-1598 -1922 0
-1599 -1923 0
-1597 -2002 0
-1598 -2003 0
-1599 -2004 0
-1600 -2116 0
-1601 -2117 0
-1602 -2118 0
-1603 -2032 0
-1604 -2033 0
-1605 -2034 0
-1603 -1987 0
-1604 -1988 0
-1605 -1989 0
-1606 -1678 0
-1607 -1679 0
-1608 -1680 0
-1609 -1681 0
-1610 -1682 0
-1611 -1683 0
-1609 -2089 0
-1610 -2090 0
-1611 -2091 0
-1612 -1738 0
-1613 -1739 0
-1614 -1740 0
-1618 -1858 0
-1619 -1859 0
-1620 -1860 0
-1618 -1948 0
-1619 -1949 0
-1620 -1950 0
-1618 -1873 0
-1619 -1874 0
-1620 -1875 0
-1618 -1825 0
-1619 -1826 0
-1620 -1827 0
-1618 -1834 0
-1619 -1835 0
-1620 -1836 0
-1621 -1723 0
-1622 -1724 0
-1623 -1725 0
-1624 -2008 0
-1625 -2009 0
-1626 -2010 0
-1627 -1843 0
-1628 -1844 0
-1629 -1845 0
-1627 -1903 0
-1628 -1904 0
-1629 -1905 0
-1627 -1918 0
-1628 -1919 0
-1629 -1920 0
-1627 -1885 0
-1628 -1886 0
-1629 -1887 0
-1630 -1852 0
-1631 -1853 0
-1632 -1854 0
-1633 -1723 0
-1634 -1724 0
-1635 -1725 0
-1633 -1690 0
-1634 -1691 0
-1635 -1692 0
-1636 -1705 0
-1637 -1706 0
-1638 -1707 0
-1639 -1735 0
-1640 -1736 0
-1641 -1737 0
-1645 -2110 0
-1646 -2111 0
-1647 -2112 0
-1645 -2053 0
-1646 -2054 0
-1647 -2055 0
-1645 -2062 0
-1646 -2063 0
-1647 -2064 0
-1651 -1846 0
-1652 -1847 0
-1653 -1848 0
-1654 -1828 0
-1655 -1829 0
-1656 -1830 0
-1657 -2050 0
-1658 -2051 0
-1659 -2052 0
-1660 -1843 0
-1661 -1844 0
-1662 -1845 0
-1660 -1852 0
-1661 -1853 0
-1662 -1854 0
-1660 -1972 0
-1661 -1973 0
-1662 -1974 0
-1663 -1837 0
-1664 -1838 0
-1665 -1839 0
-1663 -1846 0
-1664 -1847 0
-1665 -1848 0
-1663 -1858 0
-1664 -1859 0
-1665 -1860 0
-1663 -1927 0
-1664 -1928 0
-1665 -1929 0
-1672 -1996 0
-1673 -1997 0
-1674 -1998 0
-1672 -1972 0
-1673 -1973 0
-1674 -1974 0
-1675 -1849 0
-1676 -1850 0
-1677 -1851 0
-1675 -1915 0
-1676 -1916 0
-1677 -1917 0
-1678 -1987 0
-1679 -1988 0
-1680 -1989 0
-1678 -1882 0
-1679 -1883 0
-1680 -1884 0
-1681 -1879 0
-1682 -1880 0
-1683 -1881 0
-1684 -1837 0
-1685 -1838 0
-1686 -1839 0
-1684 -1834 0
-1685 -1835 0
-1686 -1836 0
-1687 -1984 0
-1688 -1985 0
-1689 -1986 0
-1690 -1999 0
-1691 -2000 0
-1692 -2001 0
-1690 -2029 0
-1691 -2030 0
-1692 -2031 0
-1690 -1951 0
-1691 -1952 0
-1692 -1953 0
-1708 -1966 0
-1709 -1967 0
-1710 -1968 0
-1714 -1837 0
-1715 -1838 0
-1716 -1839 0
-1714 -2050 0
-1715 -2051 0
-1716 -2052 0
-1717 -1840 0
-1718 -1841 0
-1719 -1842 0
-1720 -2014 0
-1721 -2015 0
-1722 -2016 0
-1735 -1879 0
-1736 -1880 0
-1737 -1881 0
-1738 -2023 0
-1739 -2024 0
-1740 -2025 0
-1741 -2026 0
-1742 -2027 0
-1743 -2028 0
-1750 -2035 0
-1751 -2036 0
-1752 -2037 0
-1750 -1876 0
-1751 -1877 0
-1752 -1878 0
-1759 -1900 0
-1760 -1901 0
-1761 -1902 0
-1762 -2005 0
-1763 -2006 0
-1764 -2007 0
-1762 -1969 0
-1763 -1970 0
-1764 -1971 0
-1765 -1861 0
-1766 -1862 0
-1767 -1863 0
-1765 -1867 0
-1766 -1868 0
-1767 -1869 0
-1765 -1888 0
-1766 -1889 0
-1767 -1890 0
-1774 -1894 0
-1775 -1895 0
-1776 -1896 0
-1777 -1999 0
-1778 -2000 0
-1779 -2001 0
-1780 -1939 0
-1781 -1940 0
-1782 -1941 0
-1780 -2020 0
-1781 -2021 0
-1782 -2022 0
-1786 -1942 0
-1787 -1943 0
-1788 -1944 0
-1789 -1993 0
-1790 -1994 0
-1791 -1995 0
-1792 -1948 0
-1793 -1949 0
-1794 -1950 0
-1792 -1951 0
-1793 -1952 0
-1794 -1953 0
-1795 -1939 0
-1796 -1940 0
-1797 -1941 0
-1795 -2026 0
-1796 -2027 0
-1797 -2028 0
-1795 -1831 0
-1796 -1832 0
-1797 -1833 0
-1798 -1939 0
-1799 -1940 0
-1800 -1941 0
-1798 -1825 0
-1799 -1826 0
-1800 -1827 0
-1801 -2032 0
-1802 -2033 0
-1803 -2034 0
-1801 -1813 0
-1802 -1814 0
-1803 -1815 0
-1807 -1912 0
-1808 -1913 0
-1809 -1914 0
-1807 -2113 0
-1808 -2114 0
-1809 -2115 0
-1810 -2029 0
-1811 -2030 0
-1812 -2031 0
-1813 -2122 0
-1814 -2123 0
-1815 -2124 0
-1819 -1873 0
-1820 -1874 0
-1821 -1875 0
-1828 -2104 0
-1829 -2105 0
-1830 -2106 0
-1846 -2083 0
-1847 -2084 0
-1848 -2085 0
-1849 -2059 0
-1850 -2060 0
-1851 -2061 0
-1882 -2104 0
-1883 -2105 0
-1884 -2106 0
-1888 -2107 0
-1889 -2108 0
-1890 -2109 0
-1888 -2128 0
-1889 -2129 0
-1890 -2130 0
-1891 -2113 0
-1892 -2114 0
-1893 -2115 0
-1891 -2059 0
-1892 -2060 0
-1893 -2061 0
-1894 -2134 0
-1895 -2135 0
-1896 -2136 0
-1900 -2086 0
-1901 -2087 0
-1902 -2088 0
-1906 -2047 0
-1907 -2048 0
-1908 -2049 0
-1906 -2059 0
-1907 -2060 0
-1908 -2061 0
-1912 -2083 0
-1913 -2084 0
-1914 -2085 0
-1915 -2047 0
-1916 -2048 0
-1917 -2049 0
-1954 -2008 0
-1955 -2009 0
-1956 -2010 0
-1978 -2062 0
-1979 -2063 0
-1980 -2064 0
-1981 -2125 0
-1982 -2126 0
-1983 -2127 0
-2011 -2083 0
-2012 -2084 0
-2013 -2085 0
-2020 -2119 0
-2021 -2120 0
-2022 -2121 0
-2035 -2119 0
-2036 -2120 0
-2037 -2121 0
-2038 -2125 0
-2039 -2126 0
-2040 -2127 0
-2041 -2092 0
-2042 -2093 0
-2043 -2094 0
-2131 -2134 0
-2132 -2135 0
-2133 -2136 0
1 0
86 0
