p cnf 2022 5887
1 2 3 0
4 5 6 0
7 8 9 0
10 11 12 0
13 14 15 0
16 17 18 0
19 20 21 0
22 23 24 0
25 26 27 0
28 29 30 0
31 32 33 0
34 35 36 0
37 38 39 0
40 41 42 0
43 44 45 0
46 47 48 0
49 50 51 0
52 53 54 0
55 56 57 0
58 59 60 0
61 62 63 0
64 65 66 0
67 68 69 0
70 71 72 0
73 74 75 0
76 77 78 0
79 80 81 0
82 83 84 0
85 86 87 0
88 89 90 0
91 92 93 0
94 95 96 0
97 98 99 0
100 101 102 0
103 104 105 0
106 107 108 0
109 110 111 0
112 113 114 0
115 116 117 0
118 119 120 0
121 122 123 0
124 125 126 0
127 128 129 0
130 131 132 0
133 134 135 0
136 137 138 0
139 140 141 0
142 143 144 0
145 146 147 0
148 149 150 0
151 152 153 0
154 155 156 0
157 158 159 0
160 161 162 0
163 164 165 0
166 167 168 0
169 170 171 0
172 173 174 0
175 176 177 0
178 179 180 0
181 182 183 0
184 185 186 0
187 188 189 0
190 191 192 0
193 194 195 0
196 197 198 0
199 200 201 0
202 203 204 0
205 206 207 0
208 209 210 0
211 212 213 0
214 215 216 0
217 218 219 0
220 221 222 0
223 224 225 0
226 227 228 0
229 230 231 0
232 233 234 0
235 236 237 0
238 239 240 0
241 242 243 0
244 245 246 0
247 248 249 0
250 251 252 0
253 254 255 0
256 257 258 0
259 260 261 0
262 263 264 0
265 266 267 0
268 269 270 0
271 272 273 0
274 275 276 0
277 278 279 0
280 281 282 0
283 284 285 0
286 287 288 0
289 290 291 0
292 293 294 0
295 296 297 0
298 299 300 0
301 302 303 0
304 305 306 0
307 308 309 0
310 311 312 0
313 314 315 0
316 317 318 0
319 320 321 0
322 323 324 0
325 326 327 0
328 329 330 0
331 332 333 0
334 335 336 0
337 338 339 0
340 341 342 0
343 344 345 0
346 347 348 0
349 350 351 0
352 353 354 0
355 356 357 0
358 359 360 0
361 362 363 0
364 365 366 0
367 368 369 0
370 371 372 0
373 374 375 0
376 377 378 0
379 380 381 0
382 383 384 0
385 386 387 0
388 389 390 0
391 392 393 0
394 395 396 0
397 398 399 0
400 401 402 0
403 404 405 0
406 407 408 0
409 410 411 0
412 413 414 0
415 416 417 0
418 419 420 0
421 422 423 0
424 425 426 0
427 428 429 0
430 431 432 0
433 434 435 0
436 437 438 0
439 440 441 0
442 443 444 0
445 446 447 0
448 449 450 0
451 452 453 0
454 455 456 0
457 458 459 0
460 461 462 0
463 464 465 0
466 467 468 0
469 470 471 0
472 473 474 0
475 476 477 0
478 479 480 0
481 482 483 0
484 485 486 0
487 488 489 0
490 491 492 0
493 494 495 0
496 497 498 0
499 500 501 0
502 503 504 0
505 506 507 0
508 509 510 0
511 512 513 0
514 515 516 0
517 518 519 0
520 521 522 0
523 524 525 0
526 527 528 0
529 530 531 0
532 533 534 0
535 536 537 0
538 539 540 0
541 542 543 0
544 545 546 0
547 548 549 0
550 551 552 0
553 554 555 0
556 557 558 0
559 560 561 0
562 563 564 0
565 566 567 0
568 569 570 0
571 572 573 0
574 575 576 0
577 578 579 0
580 581 582 0
583 584 585 0
586 587 588 0
589 590 591 0
592 593 594 0
595 596 597 0
598 599 600 0
601 602 603 0
604 605 606 0
607 608 609 0
610 611 612 0
613 614 615 0
616 617 618 0
619 620 621 0
622 623 624 0
625 626 627 0
628 629 630 0
631 632 633 0
634 635 636 0
637 638 639 0
640 641 642 0
643 644 645 0
646 647 648 0
649 650 651 0
652 653 654 0
655 656 657 0
658 659 660 0
661 662 663 0
664 665 666 0
667 668 669 0
670 671 672 0
673 674 675 0
676 677 678 0
679 680 681 0
682 683 684 0
685 686 687 0
688 689 690 0
691 692 693 0
694 695 696 0
697 698 699 0
700 701 702 0
703 704 705 0
706 707 708 0
709 710 711 0
712 713 714 0
715 716 717 0
718 719 720 0
721 722 723 0
724 725 726 0
727 728 729 0
730 731 732 0
733 734 735 0
736 737 738 0
739 740 741 0
742 743 744 0
745 746 747 0
748 749 750 0
751 752 753 0
754 755 756 0
757 758 759 0
760 761 762 0
763 764 765 0
766 767 768 0
769 770 771 0
772 773 774 0
775 776 777 0
778 779 780 0
781 782 783 0
784 785 786 0
787 788 789 0
790 791 792 0
793 794 795 0
796 797 798 0
799 800 801 0
802 803 804 0
805 806 807 0
808 809 810 0
811 812 813 0
814 815 816 0
817 818 819 0
820 821 822 0
823 824 825 0
826 827 828 0
829 830 831 0
832 833 834 0
835 836 837 0
838 839 840 0
841 842 843 0
844 845 846 0
847 848 849 0
850 851 852 0
853 854 855 0
856 857 858 0
859 860 861 0
862 863 864 0
865 866 867 0
868 869 870 0
871 872 873 0
874 875 876 0
877 878 879 0
880 881 882 0
883 884 885 0
886 887 888 0
889 890 891 0
892 893 894 0
895 896 897 0
898 899 900 0
901 902 903 0
904 905 906 0
907 908 909 0
910 911 912 0
913 914 915 0
916 917 918 0
919 920 921 0
922 923 924 0
925 926 927 0
928 929 930 0
931 932 933 0
934 935 936 0
937 938 939 0
940 941 942 0
943 944 945 0
946 947 948 0
949 950 951 0
952 953 954 0
955 956 957 0
958 959 960 0
961 962 963 0
964 965 966 0
967 968 969 0
970 971 972 0
973 974 975 0
976 977 978 0
979 980 981 0
982 983 984 0
985 986 987 0
988 989 990 0
991 992 993 0
994 995 996 0
997 998 999 0
1000 1001 1002 0
1003 1004 1005 0
1006 1007 1008 0
1009 1010 1011 0
1012 1013 1014 0
1015 1016 1017 0
1018 1019 1020 0
1021 1022 1023 0
1024 1025 1026 0
1027 1028 1029 0
1030 1031 1032 0
1033 1034 1035 0
1036 1037 1038 0
1039 1040 1041 0
1042 1043 1044 0
1045 1046 1047 0
1048 1049 1050 0
1051 1052 1053 0
1054 1055 1056 0
1057 1058 1059 0
1060 1061 1062 0
1063 1064 1065 0
1066 1067 1068 0
1069 1070 1071 0
1072 1073 1074 0
1075 1076 1077 0
1078 1079 1080 0
1081 1082 1083 0
1084 1085 1086 0
1087 1088 1089 0
1090 1091 1092 0
1093 1094 1095 0
1096 1097 1098 0
1099 1100 1101 0
1102 1103 1104 0
1105 1106 1107 0
1108 1109 1110 0
1111 1112 1113 0
1114 1115 1116 0
1117 1118 1119 0
1120 1121 1122 0
1123 1124 1125 0
1126 1127 1128 0
1129 1130 1131 0
1132 1133 1134 0
1135 1136 1137 0
1138 1139 1140 0
1141 1142 1143 0
1144 1145 1146 0
1147 1148 1149 0
1150 1151 1152 0
1153 1154 1155 0
1156 1157 1158 0
1159 1160 1161 0
1162 1163 1164 0
1165 1166 1167 0
1168 1169 1170 0
1171 1172 1173 0
1174 1175 1176 0
1177 1178 1179 0
1180 1181 1182 0
1183 1184 1185 0
1186 1187 1188 0
1189 1190 1191 0
1192 1193 1194 0
1195 1196 1197 0
1198 1199 1200 0
1201 1202 1203 0
1204 1205 1206 0
1207 1208 1209 0
1210 1211 1212 0
1213 1214 1215 0
1216 1217 1218 0
1219 1220 1221 0
1222 1223 1224 0
1225 1226 1227 0
1228 1229 1230 0
1231 1232 1233 0
1234 1235 1236 0
1237 1238 1239 0
1240 1241 1242 0
1243 1244 1245 0
1246 1247 1248 0
1249 1250 1251 0
1252 1253 1254 0
1255 1256 1257 0
1258 1259 1260 0
1261 1262 1263 0
1264 1265 1266 0
1267 1268 1269 0
1270 1271 1272 0
1273 1274 1275 0
1276 1277 1278 0
1279 1280 1281 0
1282 1283 1284 0
1285 1286 1287 0
1288 1289 1290 0
1291 1292 1293 0
1294 1295 1296 0
1297 1298 1299 0
1300 1301 1302 0
1303 1304 1305 0
1306 1307 1308 0
1309 1310 1311 0
1312 1313 1314 0
1315 1316 1317 0
1318 1319 1320 0
1321 1322 1323 0
1324 1325 1326 0
1327 1328 1329 0
1330 1331 1332 0
1333 1334 1335 0
1336 1337 1338 0
1339 1340 1341 0
1342 1343 1344 0
1345 1346 1347 0
1348 1349 1350 0
1351 1352 1353 0
1354 1355 1356 0
1357 1358 1359 0
1360 1361 1362 0
1363 1364 1365 0
1366 1367 1368 0
1369 1370 1371 0
1372 1373 1374 0
1375 1376 1377 0
1378 1379 1380 0
1381 1382 1383 0
1384 1385 1386 0
1387 1388 1389 0
1390 1391 1392 0
1393 1394 1395 0
1396 1397 1398 0
1399 1400 1401 0
1402 1403 1404 0
1405 1406 1407 0
1408 1409 1410 0
1411 1412 1413 0
1414 1415 1416 0
1417 1418 1419 0
1420 1421 1422 0
1423 1424 1425 0
1426 1427 1428 0
1429 1430 1431 0
1432 1433 1434 0
1435 1436 1437 0
1438 1439 1440 0
1441 1442 1443 0
1444 1445 1446 0
1447 1448 1449 0
1450 1451 1452 0
1453 1454 1455 0
1456 1457 1458 0
1459 1460 1461 0
1462 1463 1464 0
1465 1466 1467 0
1468 1469 1470 0
1471 1472 1473 0
1474 1475 1476 0
1477 1478 1479 0
1480 1481 1482 0
1483 1484 1485 0
1486 1487 1488 0
1489 1490 1491 0
1492 1493 1494 0
1495 1496 1497 0
1498 1499 1500 0
1501 1502 1503 0
1504 1505 1506 0
1507 1508 1509 0
1510 1511 1512 0
1513 1514 1515 0
1516 1517 1518 0
1519 1520 1521 0
1522 1523 1524 0
1525 1526 1527 0
1528 1529 1530 0
1531 1532 1533 0
1534 1535 1536 0
1537 1538 1539 0
1540 1541 1542 0
1543 1544 1545 0
1546 1547 1548 0
1549 1550 1551 0
1552 1553 1554 0
1555 1556 1557 0
1558 1559 1560 0
1561 1562 1563 0
1564 1565 1566 0
1567 1568 1569 0
1570 1571 1572 0
1573 1574 1575 0
1576 1577 1578 0
1579 1580 1581 0
1582 1583 1584 0
1585 1586 1587 0
1588 1589 1590 0
1591 1592 1593 0
1594 1595 1596 0
1597 1598 1599 0
1600 1601 1602 0
1603 1604 1605 0
1606 1607 1608 0
1609 1610 1611 0
1612 1613 1614 0
1615 1616 1617 0
1618 1619 1620 0
1621 1622 1623 0
1624 1625 1626 0
1627 1628 1629 0
1630 1631 1632 0
1633 1634 1635 0
1636 1637 1638 0
1639 1640 1641 0
1642 1643 1644 0
1645 1646 1647 0
1648 1649 1650 0
1651 1652 1653 0
1654 1655 1656 0
1657 1658 1659 0
1660 1661 1662 0
1663 1664 1665 0
1666 1667 1668 0
1669 1670 1671 0
1672 1673 1674 0
1675 1676 1677 0
1678 1679 1680 0
1681 1682 1683 0
1684 1685 1686 0
1687 1688 1689 0
1690 1691 1692 0
1693 1694 1695 0
1696 1697 1698 0
1699 1700 1701 0
1702 1703 1704 0
1705 1706 1707 0
1708 1709 1710 0
1711 1712 1713 0
1714 1715 1716 0
1717 1718 1719 0
1720 1721 1722 0
1723 1724 1725 0
1726 1727 1728 0
1729 1730 1731 0
1732 1733 1734 0
1735 1736 1737 0
1738 1739 1740 0
1741 1742 1743 0
1744 1745 1746 0
1747 1748 1749 0
1750 1751 1752 0
1753 1754 1755 0
1756 1757 1758 0
1759 1760 1761 0
1762 1763 1764 0
1765 1766 1767 0
1768 1769 1770 0
1771 1772 1773 0
1774 1775 1776 0
1777 1778 1779 0
1780 1781 1782 0
1783 1784 1785 0
1786 1787 1788 0
1789 1790 1791 0
1792 1793 1794 0
1795 1796 1797 0
1798 1799 1800 0
1801 1802 1803 0
1804 1805 1806 0
1807 1808 1809 0
1810 1811 1812 0
1813 1814 1815 0
1816 1817 1818 0
1819 1820 1821 0
1822 1823 1824 0
1825 1826 1827 0
1828 1829 1830 0
1831 1832 1833 0
1834 1835 1836 0
1837 1838 1839 0
1840 1841 1842 0
1843 1844 1845 0
1846 1847 1848 0
1849 1850 1851 0
1852 1853 1854 0
1855 1856 1857 0
1858 1859 1860 0
1861 1862 1863 0
1864 1865 1866 0
1867 1868 1869 0
1870 1871 1872 0
1873 1874 1875 0
1876 1877 1878 0
1879 1880 1881 0
1882 1883 1884 0
1885 1886 1887 0
1888 1889 1890 0
1891 1892 1893 0
1894 1895 1896 0
1897 1898 1899 0
1900 1901 1902 0
1903 1904 1905 0
1906 1907 1908 0
1909 1910 1911 0
1912 1913 1914 0
1915 1916 1917 0
1918 1919 1920 0
1921 1922 1923 0
1924 1925 1926 0
1927 1928 1929 0
1930 1931 1932 0
1933 1934 1935 0
1936 1937 1938 0
1939 1940 1941 0
1942 1943 1944 0
1945 1946 1947 0
1948 1949 1950 0
1951 1952 1953 0
1954 1955 1956 0
1957 1958 1959 0
1960 1961 1962 0
1963 1964 1965 0
1966 1967 1968 0
1969 1970 1971 0
1972 1973 1974 0
1975 1976 1977 0
1978 1979 1980 0
1981 1982 1983 0
1984 1985 1986 0
1987 1988 1989 0
1990 1991 1992 0
1993 1994 1995 0
1996 1997 1998 0
1999 2000 2001 0
2002 2003 2004 0
2005 2006 2007 0
2008 2009 2010 0
2011 2012 2013 0
2014 2015 2016 0
2017 2018 2019 0
2020 2021 2022 0
-1 -124 0
-2 -125 0
-3 -126 0
-1 -151 0
-2 -152 0
-3 -153 0
-1 -1993 0
-2 -1994 0
-3 -1995 0
-1 -1552 0
-2 -1553 0
-3 -1554 0
-1 -1933 0
-2 -1934 0
-3 -1935 0
-4 -235 0
-5 -236 0
-6 -237 0
-4 -76 0
-5 -77 0
-6 -78 0
-4 -1216 0
-5 -1217 0
-6 -1218 0
-7 -124 0
-8 -125 0
-9 -126 0
-7 -1741 0
-8 -1742 0
-9 -1743 0
-7 -196 0
-8 -197 0
-9 -198 0
-7 -1732 0
-8 -1733 0
-9 -1734 0
-10 -1939 0
-11 -1940 0
-12 -1941 0
-10 -154 0
-11 -155 0
-12 -156 0
-10 -1738 0
-11 -1739 0
-12 -1740 0
-10 -1273 0
-11 -1274 0
-12 -1275 0
-10 -232 0
-11 -233 0
-12 -234 0
-13 -256 0
-14 -257 0
-15 -258 0
-13 -1249 0
-14 -1250 0
-15 -1251 0
-13 -1252 0
-14 -1253 0
-15 -1254 0
-13 -118 0
-14 -119 0
-15 -120 0
-13 -262 0
-14 -263 0
-15 -264 0
-16 -1882 0
-17 -1883 0
-18 -1884 0
-16 -1306 0
-17 -1307 0
-18 -1308 0
-16 -115 0
-17 -116 0
-18 -117 0
-16 -259 0
-17 -260 0
-18 -261 0
-16 -265 0
-17 -266 0
-18 -267 0
-16 -124 0
-17 -125 0
-18 -126 0
-16 -19 0
-17 -20 0
-18 -21 0
-19 -274 0
-20 -275 0
-21 -276 0
-19 -268 0
-20 -269 0
-21 -270 0
-19 -127 0
-20 -128 0
-21 -129 0
-19 -1375 0
-20 -1376 0
-21 -1377 0
-22 -1936 0
-23 -1937 0
-24 -1938 0
-22 -2002 0
-23 -2003 0
-24 -2004 0
-22 -154 0
-23 -155 0
-24 -156 0
-22 -262 0
-23 -263 0
-24 -264 0
-25 -2005 0
-26 -2006 0
-27 -2007 0
-25 -154 0
-26 -155 0
-27 -156 0
-25 -271 0
-26 -272 0
-27 -273 0
-28 -1840 0
-29 -1841 0
-30 -1842 0
-28 -193 0
-29 -194 0
-30 -195 0
-28 -232 0
-29 -233 0
-30 -234 0
-28 -1906 0
-29 -1907 0
-30 -1908 0
-31 -181 0
-32 -182 0
-33 -183 0
-31 -232 0
-32 -233 0
-33 -234 0
-31 -235 0
-32 -236 0
-33 -237 0
-31 -58 0
-32 -59 0
-33 -60 0
-31 -61 0
-32 -62 0
-33 -63 0
-34 -1573 0
-35 -1574 0
-36 -1575 0
-34 -193 0
-35 -194 0
-36 -195 0
-34 -259 0
-35 -260 0
-36 -261 0
-37 -1942 0
-38 -1943 0
-39 -1944 0
-37 -1888 0
-38 -1889 0
-39 -1890 0
-37 -190 0
-38 -191 0
-39 -192 0
-37 -271 0
-38 -272 0
-39 -273 0
-37 -1555 0
-38 -1556 0
-39 -1557 0
-40 -1894 0
-41 -1895 0
-42 -1896 0
-40 -1885 0
-41 -1886 0
-42 -1887 0
-40 -403 0
-41 -404 0
-42 -405 0
-40 -91 0
-41 -92 0
-42 -93 0
-43 -1474 0
-44 -1475 0
-45 -1476 0
-43 -1480 0
-44 -1481 0
-45 -1482 0
-43 -388 0
-44 -389 0
-45 -390 0
-43 -1456 0
-44 -1457 0
-45 -1458 0
-46 -1630 0
-47 -1631 0
-48 -1632 0
-46 -1840 0
-47 -1841 0
-48 -1842 0
-46 -469 0
-47 -470 0
-48 -471 0
-46 -1897 0
-47 -1898 0
-48 -1899 0
-46 -1765 0
-47 -1766 0
-48 -1767 0
-46 -76 0
-47 -77 0
-48 -78 0
-46 -1186 0
-47 -1187 0
-48 -1188 0
-49 -1291 0
-50 -1292 0
-51 -1293 0
-49 -124 0
-50 -125 0
-51 -126 0
-49 -1951 0
-50 -1952 0
-51 -1953 0
-49 -397 0
-50 -398 0
-51 -399 0
-49 -1825 0
-50 -1826 0
-51 -1827 0
-52 -1231 0
-53 -1232 0
-54 -1233 0
-52 -1327 0
-53 -1328 0
-54 -1329 0
-52 -406 0
-53 -407 0
-54 -408 0
-52 -1369 0
-53 -1370 0
-54 -1371 0
-55 -1696 0
-56 -1697 0
-57 -1698 0
-55 -124 0
-56 -125 0
-57 -126 0
-55 -1903 0
-56 -1904 0
-57 -1905 0
-55 -1315 0
-56 -1316 0
-57 -1317 0
-55 -406 0
-56 -407 0
-57 -408 0
-58 -310 0
-59 -311 0
-60 -312 0
-58 -316 0
-59 -317 0
-60 -318 0
-58 -271 0
-59 -272 0
-60 -273 0
-58 -262 0
-59 -263 0
-60 -264 0
-58 -1813 0
-59 -1814 0
-60 -1815 0
-61 -313 0
-62 -314 0
-63 -315 0
-61 -274 0
-62 -275 0
-63 -276 0
-61 -259 0
-62 -260 0
-63 -261 0
-61 -1996 0
-62 -1997 0
-63 -1998 0
-64 -487 0
-65 -488 0
-66 -489 0
-64 -1570 0
-65 -1571 0
-66 -1572 0
-64 -103 0
-65 -104 0
-66 -105 0
-67 -496 0
-68 -497 0
-69 -498 0
-67 -100 0
-68 -101 0
-69 -102 0
-67 -97 0
-68 -98 0
-69 -99 0
-67 -538 0
-68 -539 0
-69 -540 0
-70 -1231 0
-71 -1232 0
-72 -1233 0
-70 -385 0
-71 -386 0
-72 -387 0
-70 -193 0
-71 -194 0
-72 -195 0
-70 -1366 0
-71 -1367 0
-72 -1368 0
-70 -1336 0
-71 -1337 0
-72 -1338 0
-73 -1990 0
-74 -1991 0
-75 -1992 0
-73 -76 0
-74 -77 0
-75 -78 0
-73 -2020 0
-74 -2021 0
-75 -2022 0
-76 -82 0
-77 -83 0
-78 -84 0
-76 -367 0
-77 -368 0
-78 -369 0
-76 -649 0
-77 -650 0
-78 -651 0
-76 -322 0
-77 -323 0
-78 -324 0
-76 -586 0
-77 -587 0
-78 -588 0
-79 -508 0
-80 -509 0
-81 -510 0
-79 -370 0
-80 -371 0
-81 -372 0
-79 -307 0
-80 -308 0
-81 -309 0
-79 -649 0
-80 -650 0
-81 -651 0
-82 -1990 0
-83 -1991 0
-84 -1992 0
-82 -664 0
-83 -665 0
-84 -666 0
-85 -1627 0
-86 -1628 0
-87 -1629 0
-85 -232 0
-86 -233 0
-87 -234 0
-85 -391 0
-86 -392 0
-87 -393 0
-85 -1624 0
-86 -1625 0
-87 -1626 0
-88 -1423 0
-89 -1424 0
-90 -1425 0
-88 -1522 0
-89 -1523 0
-90 -1524 0
-88 -640 0
-89 -641 0
-90 -642 0
-91 -244 0
-92 -245 0
-93 -246 0
-91 -649 0
-92 -650 0
-93 -651 0
-94 -97 0
-95 -98 0
-96 -99 0
-94 -445 0
-95 -446 0
-96 -447 0
-94 -649 0
-95 -650 0
-96 -651 0
-97 -667 0
-98 -668 0
-99 -669 0
-97 -1897 0
-98 -1898 0
-99 -1899 0
-97 -169 0
-98 -170 0
-99 -171 0
-100 -352 0
-101 -353 0
-102 -354 0
-100 -169 0
-101 -170 0
-102 -171 0
-100 -649 0
-101 -650 0
-102 -651 0
-103 -649 0
-104 -650 0
-105 -651 0
-103 -589 0
-104 -590 0
-105 -591 0
-106 -493 0
-107 -494 0
-108 -495 0
-106 -193 0
-107 -194 0
-108 -195 0
-106 -1717 0
-107 -1718 0
-108 -1719 0
-109 -598 0
-110 -599 0
-111 -600 0
-109 -1819 0
-110 -1820 0
-111 -1821 0
-109 -1579 0
-110 -1580 0
-111 -1581 0
-112 -1438 0
-113 -1439 0
-114 -1440 0
-112 -385 0
-113 -386 0
-114 -387 0
-112 -1366 0
-113 -1367 0
-114 -1368 0
-112 -274 0
-113 -275 0
-114 -276 0
-112 -1435 0
-113 -1436 0
-114 -1437 0
-115 -628 0
-116 -629 0
-117 -630 0
-115 -412 0
-116 -413 0
-117 -414 0
-115 -634 0
-116 -635 0
-117 -636 0
-115 -1231 0
-116 -1232 0
-117 -1233 0
-115 -1351 0
-116 -1352 0
-117 -1353 0
-115 -1237 0
-116 -1238 0
-117 -1239 0
-115 -1336 0
-116 -1337 0
-117 -1338 0
-118 -631 0
-119 -632 0
-120 -633 0
-118 -124 0
-119 -125 0
-120 -126 0
-118 -409 0
-119 -410 0
-120 -411 0
-118 -1201 0
-119 -1202 0
-120 -1203 0
-118 -1204 0
-119 -1205 0
-120 -1206 0
-121 -124 0
-122 -125 0
-123 -126 0
-121 -1708 0
-122 -1709 0
-123 -1710 0
-121 -640 0
-122 -641 0
-123 -642 0
-124 -283 0
-125 -284 0
-126 -285 0
-124 -505 0
-125 -506 0
-126 -507 0
-124 -511 0
-125 -512 0
-126 -513 0
-124 -649 0
-125 -650 0
-126 -651 0
-124 -652 0
-125 -653 0
-126 -654 0
-124 -412 0
-125 -413 0
-126 -414 0
-124 -418 0
-125 -419 0
-126 -420 0
-124 -127 0
-125 -128 0
-126 -129 0
-127 -1291 0
-128 -1292 0
-129 -1293 0
-127 -1297 0
-128 -1298 0
-129 -1299 0
-127 -415 0
-128 -416 0
-129 -417 0
-127 -673 0
-128 -674 0
-129 -675 0
-127 -676 0
-128 -677 0
-129 -678 0
-127 -1933 0
-128 -1934 0
-129 -1935 0
-130 -526 0
-131 -527 0
-132 -528 0
-130 -157 0
-131 -158 0
-132 -159 0
-130 -190 0
-131 -191 0
-132 -192 0
-130 -1201 0
-131 -1202 0
-132 -1203 0
-130 -1204 0
-131 -1205 0
-132 -1206 0
-133 -523 0
-134 -524 0
-135 -525 0
-133 -1231 0
-134 -1232 0
-135 -1233 0
-133 -1237 0
-134 -1238 0
-135 -1239 0
-133 -160 0
-134 -161 0
-135 -162 0
-133 -193 0
-134 -194 0
-135 -195 0
-133 -1354 0
-134 -1355 0
-135 -1356 0
-133 -1330 0
-134 -1331 0
-135 -1332 0
-133 -604 0
-134 -605 0
-135 -606 0
-136 -142 0
-137 -143 0
-138 -144 0
-136 -1291 0
-137 -1292 0
-138 -1293 0
-136 -1297 0
-137 -1298 0
-138 -1299 0
-136 -532 0
-137 -533 0
-138 -534 0
-136 -196 0
-137 -197 0
-138 -198 0
-136 -1822 0
-137 -1823 0
-138 -1824 0
-136 -610 0
-137 -611 0
-138 -612 0
-136 -145 0
-137 -146 0
-138 -147 0
-139 -148 0
-140 -149 0
-141 -150 0
-139 -529 0
-140 -530 0
-141 -531 0
-139 -199 0
-140 -200 0
-141 -201 0
-142 -1747 0
-143 -1748 0
-144 -1749 0
-142 -202 0
-143 -203 0
-144 -204 0
-142 -619 0
-143 -620 0
-144 -621 0
-142 -154 0
-143 -155 0
-144 -156 0
-145 -154 0
-146 -155 0
-147 -156 0
-145 -541 0
-146 -542 0
-147 -543 0
-145 -1507 0
-146 -1508 0
-147 -1509 0
-145 -1846 0
-146 -1847 0
-147 -1848 0
-145 -1849 0
-146 -1850 0
-147 -1851 0
-145 -637 0
-146 -638 0
-147 -639 0
-145 -1489 0
-146 -1490 0
-147 -1491 0
-145 -208 0
-146 -209 0
-147 -210 0
-148 -151 0
-149 -152 0
-150 -153 0
-148 -544 0
-149 -545 0
-150 -546 0
-148 -1714 0
-149 -1715 0
-150 -1716 0
-148 -640 0
-149 -641 0
-150 -642 0
-151 -343 0
-152 -344 0
-153 -345 0
-151 -157 0
-152 -158 0
-153 -159 0
-151 -358 0
-152 -359 0
-153 -360 0
-151 -547 0
-152 -548 0
-153 -549 0
-151 -550 0
-152 -551 0
-153 -552 0
-151 -556 0
-152 -557 0
-153 -558 0
-151 -649 0
-152 -650 0
-153 -651 0
-151 -475 0
-152 -476 0
-153 -477 0
-151 -220 0
-152 -221 0
-153 -222 0
-154 -280 0
-155 -281 0
-156 -282 0
-154 -223 0
-155 -224 0
-156 -225 0
-154 -160 0
-155 -161 0
-156 -162 0
-154 -703 0
-155 -704 0
-156 -705 0
-154 -286 0
-155 -287 0
-156 -288 0
-154 -289 0
-155 -290 0
-156 -291 0
-154 -553 0
-155 -554 0
-156 -555 0
-154 -649 0
-155 -650 0
-156 -651 0
-157 -1312 0
-158 -1313 0
-159 -1314 0
-157 -214 0
-158 -215 0
-159 -216 0
-157 -661 0
-158 -662 0
-159 -663 0
-157 -559 0
-158 -560 0
-159 -561 0
-160 -1831 0
-161 -1832 0
-162 -1833 0
-160 -1558 0
-161 -1559 0
-162 -1560 0
-160 -1936 0
-161 -1937 0
-162 -1938 0
-160 -1273 0
-161 -1274 0
-162 -1275 0
-160 -1279 0
-161 -1280 0
-162 -1281 0
-160 -1609 0
-161 -1610 0
-162 -1611 0
-160 -1285 0
-161 -1286 0
-162 -1287 0
-160 -1618 0
-161 -1619 0
-162 -1620 0
-160 -664 0
-161 -665 0
-162 -666 0
-160 -217 0
-161 -218 0
-162 -219 0
-160 -1408 0
-161 -1409 0
-162 -1410 0
-160 -1786 0
-161 -1787 0
-162 -1788 0
-160 -562 0
-161 -563 0
-162 -564 0
-160 -1525 0
-161 -1526 0
-162 -1527 0
-163 -487 0
-164 -488 0
-165 -489 0
-163 -1387 0
-164 -1388 0
-165 -1389 0
-163 -232 0
-164 -233 0
-165 -234 0
-163 -1570 0
-164 -1571 0
-165 -1572 0
-166 -1693 0
-167 -1694 0
-168 -1695 0
-166 -1639 0
-167 -1640 0
-168 -1641 0
-166 -298 0
-167 -299 0
-168 -300 0
-166 -391 0
-167 -392 0
-168 -393 0
-166 -1453 0
-167 -1454 0
-168 -1455 0
-169 -790 0
-170 -791 0
-171 -792 0
-169 -757 0
-170 -758 0
-171 -759 0
-172 -1264 0
-173 -1265 0
-174 -1266 0
-172 -526 0
-173 -527 0
-174 -528 0
-172 -1588 0
-173 -1589 0
-174 -1590 0
-172 -235 0
-173 -236 0
-174 -237 0
-175 -532 0
-176 -533 0
-177 -534 0
-175 -235 0
-176 -236 0
-177 -237 0
-175 -1411 0
-176 -1412 0
-177 -1413 0
-178 -601 0
-179 -602 0
-180 -603 0
-178 -1900 0
-179 -1901 0
-180 -1902 0
-178 -196 0
-179 -197 0
-180 -198 0
-181 -1267 0
-182 -1268 0
-183 -1269 0
-181 -565 0
-182 -566 0
-183 -567 0
-181 -469 0
-182 -470 0
-183 -471 0
-181 -571 0
-182 -572 0
-183 -573 0
-181 -259 0
-182 -260 0
-183 -261 0
-184 -640 0
-185 -641 0
-186 -642 0
-184 -190 0
-185 -191 0
-186 -192 0
-184 -1402 0
-185 -1403 0
-186 -1404 0
-184 -730 0
-185 -731 0
-186 -732 0
-187 -1894 0
-188 -1895 0
-189 -1896 0
-187 -1885 0
-188 -1886 0
-189 -1887 0
-187 -631 0
-188 -632 0
-189 -633 0
-187 -196 0
-188 -197 0
-189 -198 0
-190 -331 0
-191 -332 0
-192 -333 0
-190 -340 0
-191 -341 0
-192 -342 0
-190 -649 0
-191 -650 0
-192 -651 0
-190 -583 0
-191 -584 0
-192 -585 0
-190 -214 0
-191 -215 0
-192 -216 0
-193 -334 0
-194 -335 0
-195 -336 0
-193 -337 0
-194 -338 0
-195 -339 0
-193 -814 0
-194 -815 0
-195 -816 0
-193 -649 0
-194 -650 0
-195 -651 0
-193 -736 0
-194 -737 0
-195 -738 0
-193 -217 0
-194 -218 0
-195 -219 0
-196 -430 0
-197 -431 0
-198 -432 0
-196 -649 0
-197 -650 0
-198 -651 0
-196 -250 0
-197 -251 0
-198 -252 0
-196 -739 0
-197 -740 0
-198 -741 0
-196 -202 0
-197 -203 0
-198 -204 0
-196 -253 0
-197 -254 0
-198 -255 0
-196 -208 0
-197 -209 0
-198 -210 0
-199 -820 0
-200 -821 0
-201 -822 0
-199 -649 0
-200 -650 0
-201 -651 0
-199 -205 0
-200 -206 0
-201 -207 0
-199 -592 0
-200 -593 0
-201 -594 0
-202 -1894 0
-203 -1895 0
-204 -1896 0
-202 -1504 0
-203 -1505 0
-204 -1506 0
-202 -745 0
-203 -746 0
-204 -747 0
-202 -664 0
-203 -665 0
-204 -666 0
-205 -667 0
-206 -668 0
-207 -669 0
-205 -1753 0
-206 -1754 0
-207 -1755 0
-205 -1618 0
-206 -1619 0
-207 -1620 0
-208 -1294 0
-209 -1295 0
-210 -1296 0
-208 -1300 0
-209 -1301 0
-210 -1302 0
-208 -685 0
-209 -686 0
-210 -687 0
-208 -748 0
-209 -749 0
-210 -750 0
-211 -1495 0
-212 -1496 0
-213 -1497 0
-211 -493 0
-212 -494 0
-213 -495 0
-211 -1564 0
-212 -1565 0
-213 -1566 0
-211 -1384 0
-212 -1385 0
-213 -1386 0
-211 -1585 0
-212 -1586 0
-213 -1587 0
-211 -262 0
-212 -263 0
-213 -264 0
-214 -697 0
-215 -698 0
-216 -699 0
-214 -1942 0
-215 -1943 0
-216 -1944 0
-214 -1192 0
-215 -1193 0
-216 -1194 0
-214 -1183 0
-215 -1184 0
-216 -1185 0
-217 -700 0
-218 -701 0
-219 -702 0
-217 -1840 0
-218 -1841 0
-219 -1842 0
-217 -760 0
-218 -761 0
-219 -762 0
-217 -1195 0
-218 -1196 0
-219 -1197 0
-217 -2017 0
-218 -2018 0
-219 -2019 0
-217 -1795 0
-218 -1796 0
-219 -1797 0
-217 -1186 0
-218 -1187 0
-219 -1188 0
-220 -1441 0
-221 -1442 0
-222 -1443 0
-220 -1312 0
-221 -1313 0
-222 -1314 0
-220 -784 0
-221 -785 0
-222 -786 0
-223 -1327 0
-224 -1328 0
-225 -1329 0
-223 -1846 0
-224 -1847 0
-225 -1848 0
-223 -799 0
-224 -800 0
-225 -801 0
-226 -1669 0
-227 -1670 0
-228 -1671 0
-226 -385 0
-227 -386 0
-228 -387 0
-226 -391 0
-227 -392 0
-228 -393 0
-226 -1852 0
-227 -1853 0
-228 -1854 0
-226 -1666 0
-227 -1667 0
-228 -1668 0
-229 -1798 0
-230 -1799 0
-231 -1800 0
-229 -232 0
-230 -233 0
-231 -234 0
-229 -2011 0
-230 -2012 0
-231 -2013 0
-229 -637 0
-230 -638 0
-231 -639 0
-232 -919 0
-233 -920 0
-234 -921 0
-232 -247 0
-233 -248 0
-234 -249 0
-232 -709 0
-233 -710 0
-234 -711 0
-232 -715 0
-233 -716 0
-234 -717 0
-232 -565 0
-233 -566 0
-234 -567 0
-232 -568 0
-233 -569 0
-234 -570 0
-232 -574 0
-233 -575 0
-234 -576 0
-232 -577 0
-233 -578 0
-234 -579 0
-232 -310 0
-233 -311 0
-234 -312 0
-232 -313 0
-233 -314 0
-234 -315 0
-232 -649 0
-233 -650 0
-234 -651 0
-232 -484 0
-233 -485 0
-234 -486 0
-235 -712 0
-236 -713 0
-237 -714 0
-235 -817 0
-236 -818 0
-237 -819 0
-235 -571 0
-236 -572 0
-237 -573 0
-235 -649 0
-236 -650 0
-237 -651 0
-235 -580 0
-236 -581 0
-237 -582 0
-235 -316 0
-236 -317 0
-237 -318 0
-238 -1633 0
-239 -1634 0
-240 -1635 0
-238 -421 0
-239 -422 0
-240 -423 0
-238 -1480 0
-239 -1481 0
-240 -1482 0
-238 -388 0
-239 -389 0
-240 -390 0
-241 -1693 0
-242 -1694 0
-243 -1695 0
-241 -493 0
-242 -494 0
-243 -495 0
-241 -298 0
-242 -299 0
-243 -300 0
-241 -1792 0
-242 -1793 0
-243 -1794 0
-241 -1717 0
-242 -1718 0
-243 -1719 0
-244 -1963 0
-245 -1964 0
-246 -1965 0
-244 -886 0
-245 -887 0
-246 -888 0
-247 -700 0
-248 -701 0
-249 -702 0
-247 -1840 0
-248 -1841 0
-249 -1842 0
-247 -1234 0
-248 -1235 0
-249 -1236 0
-250 -1468 0
-251 -1469 0
-252 -1470 0
-250 -1543 0
-251 -1544 0
-252 -1545 0
-250 -784 0
-251 -785 0
-252 -786 0
-250 -1822 0
-251 -1823 0
-252 -1824 0
-253 -1294 0
-254 -1295 0
-255 -1296 0
-253 -802 0
-254 -803 0
-255 -804 0
-253 -1984 0
-254 -1985 0
-255 -1986 0
-256 -1885 0
-257 -1886 0
-258 -1887 0
-256 -631 0
-257 -632 0
-258 -633 0
-256 -868 0
-257 -869 0
-258 -870 0
-256 -643 0
-257 -644 0
-258 -645 0
-256 -1207 0
-257 -1208 0
-258 -1209 0
-256 -1210 0
-257 -1211 0
-258 -1212 0
-256 -271 0
-257 -272 0
-258 -273 0
-259 -349 0
-260 -350 0
-261 -351 0
-259 -436 0
-260 -437 0
-261 -438 0
-259 -628 0
-260 -629 0
-261 -630 0
-259 -457 0
-260 -458 0
-261 -459 0
-259 -871 0
-260 -872 0
-261 -873 0
-259 -952 0
-260 -953 0
-261 -954 0
-259 -649 0
-260 -650 0
-261 -651 0
-259 -268 0
-260 -269 0
-261 -270 0
-262 -433 0
-263 -434 0
-264 -435 0
-262 -439 0
-263 -440 0
-264 -441 0
-262 -442 0
-263 -443 0
-264 -444 0
-262 -448 0
-263 -449 0
-264 -450 0
-262 -454 0
-263 -455 0
-264 -456 0
-262 -868 0
-263 -869 0
-264 -870 0
-262 -718 0
-263 -719 0
-264 -720 0
-262 -649 0
-263 -650 0
-264 -651 0
-262 -328 0
-263 -329 0
-264 -330 0
-265 -1672 0
-266 -1673 0
-267 -1674 0
-265 -652 0
-266 -653 0
-267 -654 0
-265 -634 0
-266 -635 0
-267 -636 0
-265 -1675 0
-266 -1676 0
-267 -1677 0
-265 -274 0
-266 -275 0
-267 -276 0
-265 -871 0
-266 -872 0
-267 -873 0
-268 -673 0
-269 -674 0
-270 -675 0
-268 -877 0
-269 -878 0
-270 -879 0
-268 -643 0
-269 -644 0
-270 -645 0
-271 -346 0
-272 -347 0
-273 -348 0
-271 -451 0
-272 -452 0
-273 -453 0
-271 -649 0
-272 -650 0
-273 -651 0
-271 -724 0
-272 -725 0
-273 -726 0
-271 -670 0
-272 -671 0
-273 -672 0
-274 -460 0
-275 -461 0
-276 -462 0
-274 -877 0
-275 -878 0
-276 -879 0
-274 -649 0
-275 -650 0
-276 -651 0
-274 -721 0
-275 -722 0
-276 -723 0
-274 -676 0
-275 -677 0
-276 -678 0
-274 -277 0
-275 -278 0
-276 -279 0
-277 -661 0
-278 -662 0
-279 -663 0
-277 -1672 0
-278 -1673 0
-279 -1674 0
-280 -1723 0
-281 -1724 0
-282 -1725 0
-280 -1609 0
-281 -1610 0
-282 -1611 0
-280 -859 0
-281 -860 0
-282 -861 0
-283 -904 0
-284 -905 0
-285 -906 0
-283 -1297 0
-284 -1298 0
-285 -1299 0
-283 -1663 0
-284 -1664 0
-285 -1665 0
-286 -883 0
-287 -884 0
-288 -885 0
-286 -1279 0
-287 -1280 0
-288 -1281 0
-286 -1327 0
-287 -1328 0
-288 -1329 0
-286 -1612 0
-287 -1613 0
-288 -1614 0
-289 -1747 0
-290 -1748 0
-291 -1749 0
-289 -1750 0
-290 -1751 0
-291 -1752 0
-289 -898 0
-290 -899 0
-291 -900 0
-289 -1615 0
-290 -1616 0
-291 -1617 0
-289 -1825 0
-290 -1826 0
-291 -1827 0
-289 -1558 0
-290 -1559 0
-291 -1560 0
-292 -1693 0
-293 -1694 0
-294 -1695 0
-292 -493 0
-293 -494 0
-294 -495 0
-292 -1702 0
-293 -1703 0
-294 -1704 0
-292 -391 0
-293 -392 0
-294 -393 0
-292 -1492 0
-293 -1493 0
-294 -1494 0
-295 -493 0
-296 -494 0
-297 -495 0
-295 -1498 0
-296 -1499 0
-297 -1500 0
-295 -397 0
-296 -398 0
-297 -399 0
-295 -1615 0
-296 -1616 0
-297 -1617 0
-298 -853 0
-299 -854 0
-300 -855 0
-298 -922 0
-299 -923 0
-300 -924 0
-298 -649 0
-299 -650 0
-300 -651 0
-301 -523 0
-302 -524 0
-303 -525 0
-301 -1231 0
-302 -1232 0
-303 -1233 0
-301 -385 0
-302 -386 0
-303 -387 0
-301 -1342 0
-302 -1343 0
-303 -1344 0
-301 -1333 0
-302 -1334 0
-303 -1335 0
-304 -1291 0
-305 -1292 0
-306 -1293 0
-304 -1642 0
-305 -1643 0
-306 -1644 0
-304 -532 0
-305 -533 0
-306 -534 0
-304 -391 0
-305 -392 0
-306 -393 0
-307 -1483 0
-308 -1484 0
-309 -1485 0
-307 -1828 0
-308 -1829 0
-309 -1830 0
-307 -1372 0
-308 -1373 0
-309 -1374 0
-307 -1003 0
-308 -1004 0
-309 -1005 0
-307 -1459 0
-308 -1460 0
-309 -1461 0
-310 -1939 0
-311 -1940 0
-312 -1941 0
-310 -718 0
-311 -719 0
-312 -720 0
-310 -1546 0
-311 -1547 0
-312 -1548 0
-313 -721 0
-314 -722 0
-315 -723 0
-313 -1873 0
-314 -1874 0
-315 -1875 0
-316 -1918 0
-317 -1919 0
-318 -1920 0
-316 -724 0
-317 -725 0
-318 -726 0
-319 -1309 0
-320 -1310 0
-321 -1311 0
-319 -1843 0
-320 -1844 0
-321 -1845 0
-319 -1219 0
-320 -1220 0
-321 -1221 0
-319 -1012 0
-320 -1013 0
-321 -1014 0
-319 -1870 0
-320 -1871 0
-321 -1872 0
-319 -1855 0
-320 -1856 0
-321 -1857 0
-322 -1816 0
-323 -1817 0
-324 -1818 0
-322 -1015 0
-323 -1016 0
-324 -1017 0
-322 -1228 0
-323 -1229 0
-324 -1230 0
-325 -502 0
-326 -503 0
-327 -504 0
-325 -649 0
-326 -650 0
-327 -651 0
-325 -733 0
-326 -734 0
-327 -735 0
-328 -754 0
-329 -755 0
-330 -756 0
-328 -1633 0
-329 -1634 0
-330 -1635 0
-331 -886 0
-332 -887 0
-333 -888 0
-331 -1204 0
-332 -1205 0
-333 -1206 0
-331 -1555 0
-332 -1556 0
-333 -1557 0
-331 -1378 0
-332 -1379 0
-333 -1380 0
-334 -1345 0
-335 -1346 0
-336 -1347 0
-334 -883 0
-335 -884 0
-336 -885 0
-334 -1237 0
-335 -1238 0
-336 -1239 0
-334 -1336 0
-335 -1337 0
-336 -1338 0
-337 -895 0
-338 -896 0
-339 -897 0
-337 -2017 0
-338 -2018 0
-339 -2019 0
-340 -1462 0
-341 -1463 0
-342 -1464 0
-340 -1537 0
-341 -1538 0
-342 -1539 0
-340 -1888 0
-341 -1889 0
-342 -1890 0
-340 -907 0
-341 -908 0
-342 -909 0
-340 -1276 0
-341 -1277 0
-342 -1278 0
-340 -1837 0
-341 -1838 0
-342 -1839 0
-343 -1600 0
-344 -1601 0
-345 -1602 0
-343 -949 0
-344 -950 0
-345 -951 0
-343 -1837 0
-344 -1838 0
-345 -1839 0
-343 -1945 0
-344 -1946 0
-345 -1947 0
-346 -784 0
-347 -785 0
-348 -786 0
-346 -1651 0
-347 -1652 0
-348 -1653 0
-346 -1834 0
-347 -1835 0
-348 -1836 0
-349 -1267 0
-350 -1268 0
-351 -1269 0
-349 -802 0
-350 -803 0
-351 -804 0
-349 -1984 0
-350 -1985 0
-351 -1986 0
-349 -1540 0
-350 -1541 0
-351 -1542 0
-349 -1861 0
-350 -1862 0
-351 -1863 0
-352 -1006 0
-353 -1007 0
-354 -1008 0
-352 -1720 0
-353 -1721 0
-354 -1722 0
-352 -1609 0
-353 -1610 0
-354 -1611 0
-352 -1525 0
-353 -1526 0
-354 -1527 0
-352 -1453 0
-353 -1454 0
-354 -1455 0
-352 -1516 0
-353 -1517 0
-354 -1518 0
-355 -1846 0
-356 -1847 0
-357 -1848 0
-355 -1849 0
-356 -1850 0
-357 -1851 0
-355 -1012 0
-356 -1013 0
-357 -1014 0
-355 -1759 0
-356 -1760 0
-357 -1761 0
-358 -973 0
-359 -974 0
-360 -975 0
-358 -1363 0
-359 -1364 0
-360 -1365 0
-358 -1405 0
-359 -1406 0
-360 -1407 0
-361 -496 0
-362 -497 0
-363 -498 0
-361 -1840 0
-362 -1841 0
-363 -1842 0
-361 -1195 0
-362 -1196 0
-363 -1197 0
-361 -469 0
-362 -470 0
-363 -471 0
-361 -1906 0
-362 -1907 0
-363 -1908 0
-364 -1417 0
-365 -1418 0
-366 -1419 0
-364 -1426 0
-365 -1427 0
-366 -1428 0
-364 -385 0
-365 -386 0
-366 -387 0
-364 -598 0
-365 -599 0
-366 -600 0
-364 -1282 0
-365 -1283 0
-366 -1284 0
-367 -1024 0
-368 -1025 0
-369 -1026 0
-367 -2020 0
-368 -2021 0
-369 -2022 0
-367 -1186 0
-368 -1187 0
-369 -1188 0
-370 -1294 0
-371 -1295 0
-372 -1296 0
-370 -1021 0
-371 -1022 0
-372 -1023 0
-370 -1663 0
-371 -1664 0
-372 -1665 0
-373 -619 0
-374 -620 0
-375 -621 0
-373 -1501 0
-374 -1502 0
-375 -1503 0
-373 -1702 0
-374 -1703 0
-375 -1704 0
-373 -391 0
-374 -392 0
-375 -393 0
-373 -1576 0
-374 -1577 0
-375 -1578 0
-376 -1669 0
-377 -1670 0
-378 -1671 0
-376 -406 0
-377 -407 0
-378 -408 0
-376 -1681 0
-377 -1682 0
-378 -1683 0
-376 -598 0
-377 -599 0
-378 -600 0
-376 -763 0
-377 -764 0
-378 -765 0
-379 -619 0
-380 -620 0
-381 -621 0
-379 -766 0
-380 -767 0
-381 -768 0
-379 -397 0
-380 -398 0
-381 -399 0
-379 -1852 0
-380 -1853 0
-381 -1854 0
-382 -1669 0
-383 -1670 0
-384 -1671 0
-382 -1501 0
-383 -1502 0
-384 -1503 0
-382 -634 0
-383 -635 0
-384 -636 0
-382 -1303 0
-383 -1304 0
-384 -1305 0
-382 -1681 0
-383 -1682 0
-384 -1683 0
-382 -1684 0
-383 -1685 0
-384 -1686 0
-382 -391 0
-383 -392 0
-384 -393 0
-382 -1453 0
-383 -1454 0
-384 -1455 0
-382 -1492 0
-383 -1493 0
-384 -1494 0
-385 -622 0
-386 -623 0
-387 -624 0
-385 -394 0
-386 -395 0
-387 -396 0
-385 -874 0
-386 -875 0
-387 -876 0
-385 -649 0
-386 -650 0
-387 -651 0
-385 -829 0
-386 -830 0
-387 -831 0
-388 -931 0
-389 -932 0
-390 -933 0
-388 -649 0
-389 -650 0
-390 -651 0
-388 -832 0
-389 -833 0
-390 -834 0
-391 -934 0
-392 -935 0
-393 -936 0
-391 -937 0
-392 -938 0
-393 -939 0
-391 -625 0
-392 -626 0
-393 -627 0
-391 -649 0
-392 -650 0
-393 -651 0
-394 -1417 0
-395 -1418 0
-396 -1419 0
-394 -1420 0
-395 -1421 0
-396 -1422 0
-394 -1348 0
-395 -1349 0
-396 -1350 0
-394 -673 0
-395 -674 0
-396 -675 0
-397 -985 0
-398 -986 0
-399 -987 0
-397 -988 0
-398 -989 0
-399 -990 0
-397 -772 0
-398 -773 0
-399 -774 0
-397 -466 0
-398 -467 0
-399 -468 0
-397 -649 0
-398 -650 0
-399 -651 0
-397 -841 0
-398 -842 0
-399 -843 0
-400 -1885 0
-401 -1886 0
-402 -1887 0
-400 -403 0
-401 -404 0
-402 -405 0
-400 -1648 0
-401 -1649 0
-402 -1650 0
-400 -1210 0
-401 -1211 0
-402 -1212 0
-400 -637 0
-401 -638 0
-402 -639 0
-403 -991 0
-404 -992 0
-405 -993 0
-403 -649 0
-404 -650 0
-405 -651 0
-403 -838 0
-404 -839 0
-405 -840 0
-406 -682 0
-407 -683 0
-408 -684 0
-406 -994 0
-407 -995 0
-408 -996 0
-406 -775 0
-407 -776 0
-408 -777 0
-406 -613 0
-407 -614 0
-408 -615 0
-406 -940 0
-407 -941 0
-408 -942 0
-406 -649 0
-407 -650 0
-408 -651 0
-406 -835 0
-407 -836 0
-408 -837 0
-409 -1006 0
-410 -1007 0
-411 -1008 0
-409 -1324 0
-410 -1325 0
-411 -1326 0
-409 -1474 0
-410 -1475 0
-411 -1476 0
-409 -418 0
-410 -419 0
-411 -420 0
-409 -1318 0
-410 -1319 0
-411 -1320 0
-409 -1255 0
-410 -1256 0
-411 -1257 0
-409 -1000 0
-410 -1001 0
-411 -1002 0
-412 -1003 0
-413 -1004 0
-414 -1005 0
-412 -1315 0
-413 -1316 0
-414 -1317 0
-412 -415 0
-413 -416 0
-414 -417 0
-415 -1381 0
-416 -1382 0
-417 -1383 0
-415 -1015 0
-416 -1016 0
-417 -1017 0
-415 -1579 0
-416 -1580 0
-417 -1581 0
-418 -2008 0
-419 -2009 0
-420 -2010 0
-418 -1012 0
-419 -1013 0
-420 -1014 0
-421 -844 0
-422 -845 0
-423 -846 0
-421 -763 0
-422 -764 0
-423 -765 0
-421 -688 0
-422 -689 0
-423 -690 0
-421 -850 0
-422 -851 0
-423 -852 0
-421 -649 0
-422 -650 0
-423 -651 0
-424 -847 0
-425 -848 0
-426 -849 0
-424 -766 0
-425 -767 0
-426 -768 0
-424 -427 0
-425 -428 0
-426 -429 0
-424 -946 0
-425 -947 0
-426 -948 0
-424 -649 0
-425 -650 0
-426 -651 0
-427 -772 0
-428 -773 0
-429 -774 0
-427 -685 0
-428 -686 0
-429 -687 0
-430 -1471 0
-431 -1472 0
-432 -1473 0
-430 -976 0
-431 -977 0
-432 -978 0
-430 -1729 0
-431 -1730 0
-432 -1731 0
-433 -1495 0
-434 -1496 0
-435 -1497 0
-433 -1630 0
-434 -1631 0
-435 -1632 0
-433 -859 0
-434 -860 0
-435 -861 0
-433 -1390 0
-434 -1391 0
-435 -1392 0
-436 -1540 0
-437 -1541 0
-438 -1542 0
-436 -1333 0
-437 -1334 0
-438 -1335 0
-436 -1996 0
-437 -1997 0
-438 -1998 0
-439 -1261 0
-440 -1262 0
-441 -1263 0
-439 -862 0
-440 -863 0
-441 -864 0
-439 -1654 0
-440 -1655 0
-441 -1656 0
-439 -1393 0
-440 -1394 0
-441 -1395 0
-442 -886 0
-443 -887 0
-444 -888 0
-442 -1384 0
-443 -1385 0
-444 -1386 0
-442 -1249 0
-443 -1250 0
-444 -1251 0
-442 -1378 0
-443 -1379 0
-444 -1380 0
-442 -1390 0
-443 -1391 0
-444 -1392 0
-442 -1393 0
-443 -1394 0
-444 -1395 0
-442 -1813 0
-443 -1814 0
-444 -1815 0
-445 -1672 0
-446 -1673 0
-447 -1674 0
-445 -1060 0
-446 -1061 0
-447 -1062 0
-445 -1675 0
-446 -1676 0
-447 -1677 0
-448 -2014 0
-449 -2015 0
-450 -2016 0
-448 -895 0
-449 -896 0
-450 -897 0
-448 -1258 0
-449 -1259 0
-450 -1260 0
-451 -1921 0
-452 -1922 0
-453 -1923 0
-451 -886 0
-452 -887 0
-453 -888 0
-451 -1957 0
-452 -1958 0
-453 -1959 0
-451 -1207 0
-452 -1208 0
-453 -1209 0
-451 -1831 0
-452 -1832 0
-453 -1833 0
-451 -1555 0
-452 -1556 0
-453 -1557 0
-451 -1813 0
-452 -1814 0
-453 -1815 0
-454 -1261 0
-455 -1262 0
-456 -1263 0
-454 -1633 0
-455 -1634 0
-456 -1635 0
-454 -907 0
-455 -908 0
-456 -909 0
-454 -1276 0
-455 -1277 0
-456 -1278 0
-454 -1252 0
-455 -1253 0
-456 -1254 0
-457 -1573 0
-458 -1574 0
-459 -1575 0
-457 -910 0
-458 -911 0
-459 -912 0
-457 -1306 0
-458 -1307 0
-459 -1308 0
-457 -1333 0
-458 -1334 0
-459 -1335 0
-460 -904 0
-461 -905 0
-462 -906 0
-460 -1642 0
-461 -1643 0
-462 -1644 0
-460 -1663 0
-461 -1664 0
-462 -1665 0
-460 -1375 0
-461 -1376 0
-462 -1377 0
-463 -472 0
-464 -473 0
-465 -474 0
-463 -619 0
-464 -620 0
-465 -621 0
-463 -1582 0
-464 -1583 0
-465 -1584 0
-466 -1498 0
-467 -1499 0
-468 -1500 0
-466 -751 0
-467 -752 0
-468 -753 0
-466 -1303 0
-467 -1304 0
-468 -1305 0
-469 -1051 0
-470 -1052 0
-471 -1053 0
-469 -955 0
-470 -956 0
-471 -957 0
-469 -961 0
-470 -962 0
-471 -963 0
-469 -649 0
-470 -650 0
-471 -651 0
-472 -958 0
-473 -959 0
-474 -960 0
-472 -964 0
-473 -965 0
-474 -966 0
-472 -649 0
-473 -650 0
-474 -651 0
-475 -1405 0
-476 -1406 0
-477 -1407 0
-475 -1021 0
-476 -1022 0
-477 -1023 0
-475 -1837 0
-476 -1838 0
-477 -1839 0
-478 -496 0
-479 -497 0
-480 -498 0
-478 -598 0
-479 -599 0
-480 -600 0
-478 -1906 0
-479 -1907 0
-480 -1908 0
-478 -1873 0
-479 -1874 0
-480 -1875 0
-481 -490 0
-482 -491 0
-483 -492 0
-481 -1546 0
-482 -1547 0
-483 -1548 0
-481 -616 0
-482 -617 0
-483 -618 0
-484 -976 0
-485 -977 0
-486 -978 0
-484 -1729 0
-485 -1730 0
-486 -1731 0
-487 -649 0
-488 -650 0
-489 -651 0
-490 -925 0
-491 -926 0
-492 -927 0
-490 -787 0
-491 -788 0
-492 -789 0
-490 -1030 0
-491 -1031 0
-492 -1032 0
-490 -649 0
-491 -650 0
-492 -651 0
-493 -979 0
-494 -980 0
-495 -981 0
-493 -982 0
-494 -983 0
-495 -984 0
-493 -769 0
-494 -770 0
-495 -771 0
-493 -928 0
-494 -929 0
-495 -930 0
-493 -796 0
-494 -797 0
-495 -798 0
-493 -1018 0
-494 -1019 0
-495 -1020 0
-493 -646 0
-494 -647 0
-495 -648 0
-493 -649 0
-494 -650 0
-495 -651 0
-496 -649 0
-497 -650 0
-498 -651 0
-499 -619 0
-500 -620 0
-501 -621 0
-499 -1705 0
-500 -1706 0
-501 -1707 0
-499 -532 0
-500 -533 0
-501 -534 0
-502 -913 0
-503 -914 0
-504 -915 0
-502 -1723 0
-503 -1724 0
-504 -1725 0
-502 -859 0
-503 -860 0
-504 -861 0
-502 -1771 0
-503 -1772 0
-504 -1773 0
-505 -1060 0
-506 -1061 0
-507 -1062 0
-505 -1993 0
-506 -1994 0
-507 -1995 0
-505 -1951 0
-506 -1952 0
-507 -1953 0
-508 -1597 0
-509 -1598 0
-510 -1599 0
-508 -1120 0
-509 -1121 0
-510 -1122 0
-508 -1342 0
-509 -1343 0
-510 -1344 0
-511 -1903 0
-512 -1904 0
-513 -1905 0
-511 -1567 0
-512 -1568 0
-513 -1569 0
-511 -1066 0
-512 -1067 0
-513 -1068 0
-511 -1843 0
-512 -1844 0
-513 -1845 0
-511 -1552 0
-512 -1553 0
-513 -1554 0
-511 -1732 0
-512 -1733 0
-513 -1734 0
-514 -1324 0
-515 -1325 0
-516 -1326 0
-514 -1534 0
-515 -1535 0
-516 -1536 0
-514 -1069 0
-515 -1070 0
-516 -1071 0
-514 -1987 0
-515 -1988 0
-516 -1989 0
-514 -1456 0
-515 -1457 0
-516 -1458 0
-517 -1033 0
-518 -1034 0
-519 -1035 0
-517 -523 0
-518 -524 0
-519 -525 0
-517 -553 0
-518 -554 0
-519 -555 0
-517 -637 0
-518 -638 0
-519 -639 0
-520 -526 0
-521 -527 0
-522 -528 0
-520 -556 0
-521 -557 0
-522 -558 0
-520 -640 0
-521 -641 0
-522 -642 0
-520 -1036 0
-521 -1037 0
-522 -1038 0
-523 -538 0
-524 -539 0
-525 -540 0
-523 -943 0
-524 -944 0
-525 -945 0
-523 -562 0
-524 -563 0
-525 -564 0
-523 -823 0
-524 -824 0
-525 -825 0
-523 -649 0
-524 -650 0
-525 -651 0
-526 -559 0
-527 -560 0
-528 -561 0
-526 -649 0
-527 -650 0
-528 -651 0
-529 -535 0
-530 -536 0
-531 -537 0
-529 -544 0
-530 -545 0
-531 -546 0
-529 -649 0
-530 -650 0
-531 -651 0
-532 -595 0
-533 -596 0
-534 -597 0
-532 -1042 0
-533 -1043 0
-534 -1044 0
-532 -541 0
-533 -542 0
-534 -543 0
-532 -649 0
-533 -650 0
-534 -651 0
-532 -826 0
-533 -827 0
-534 -828 0
-535 -1048 0
-536 -1049 0
-537 -1050 0
-535 -661 0
-536 -662 0
-537 -663 0
-535 -547 0
-536 -548 0
-537 -549 0
-538 -667 0
-539 -668 0
-540 -669 0
-541 -1054 0
-542 -1055 0
-543 -1056 0
-541 -685 0
-542 -686 0
-543 -687 0
-541 -1411 0
-542 -1412 0
-543 -1413 0
-541 -1414 0
-542 -1415 0
-543 -1416 0
-544 -1819 0
-545 -1820 0
-546 -1821 0
-544 -1057 0
-545 -1058 0
-546 -1059 0
-544 -547 0
-545 -548 0
-546 -549 0
-547 -1060 0
-548 -1061 0
-549 -1062 0
-547 -1993 0
-548 -1994 0
-549 -1995 0
-550 -1600 0
-551 -1601 0
-552 -1602 0
-550 -1441 0
-551 -1442 0
-552 -1443 0
-550 -1066 0
-551 -1067 0
-552 -1068 0
-550 -1954 0
-551 -1955 0
-552 -1956 0
-550 -1363 0
-551 -1364 0
-552 -1365 0
-550 -1552 0
-551 -1553 0
-552 -1554 0
-553 -1066 0
-554 -1067 0
-555 -1068 0
-553 -562 0
-554 -563 0
-555 -564 0
-556 -1267 0
-557 -1268 0
-558 -1269 0
-556 -1069 0
-557 -1070 0
-558 -1071 0
-556 -559 0
-557 -560 0
-558 -561 0
-559 -697 0
-560 -698 0
-561 -699 0
-559 -1264 0
-560 -1265 0
-561 -1266 0
-559 -1270 0
-560 -1271 0
-561 -1272 0
-562 -700 0
-563 -701 0
-564 -702 0
-562 -1234 0
-563 -1235 0
-564 -1236 0
-562 -1246 0
-563 -1247 0
-564 -1248 0
-565 -955 0
-566 -956 0
-567 -957 0
-565 -1372 0
-566 -1373 0
-567 -1374 0
-565 -1003 0
-566 -1004 0
-567 -1005 0
-568 -1006 0
-569 -1007 0
-570 -1008 0
-568 -958 0
-569 -959 0
-570 -960 0
-568 -718 0
-569 -719 0
-570 -720 0
-568 -1720 0
-569 -1721 0
-570 -1722 0
-568 -1222 0
-569 -1223 0
-570 -1224 0
-571 -961 0
-572 -962 0
-573 -963 0
-571 -1216 0
-572 -1217 0
-573 -1218 0
-571 -1225 0
-572 -1226 0
-573 -1227 0
-571 -1003 0
-572 -1004 0
-573 -1005 0
-574 -958 0
-575 -959 0
-576 -960 0
-574 -1219 0
-575 -1220 0
-576 -1221 0
-574 -1012 0
-575 -1013 0
-576 -1014 0
-577 -955 0
-578 -956 0
-579 -957 0
-577 -721 0
-578 -722 0
-579 -723 0
-577 -1603 0
-578 -1604 0
-579 -1605 0
-577 -1387 0
-578 -1388 0
-579 -1389 0
-577 -1015 0
-578 -1016 0
-579 -1017 0
-580 -964 0
-581 -965 0
-582 -966 0
-580 -724 0
-581 -725 0
-582 -726 0
-580 -1012 0
-581 -1013 0
-582 -1014 0
-580 -1960 0
-581 -1961 0
-582 -1962 0
-583 -1024 0
-584 -1025 0
-585 -1026 0
-583 -1777 0
-584 -1778 0
-585 -1779 0
-583 -1837 0
-584 -1838 0
-585 -1839 0
-586 -1816 0
-587 -1817 0
-588 -1818 0
-586 -1765 0
-587 -1766 0
-588 -1767 0
-586 -1132 0
-587 -1133 0
-588 -1134 0
-589 -1636 0
-590 -1637 0
-591 -1638 0
-589 -1639 0
-590 -1640 0
-591 -1641 0
-589 -1540 0
-590 -1541 0
-591 -1542 0
-589 -1093 0
-590 -1094 0
-591 -1095 0
-592 -1621 0
-593 -1622 0
-594 -1623 0
-592 -1663 0
-593 -1664 0
-594 -1665 0
-592 -1021 0
-593 -1022 0
-594 -1023 0
-595 -1705 0
-596 -1706 0
-597 -1707 0
-595 -1405 0
-596 -1406 0
-597 -1407 0
-598 -997 0
-599 -998 0
-600 -999 0
-598 -604 0
-599 -605 0
-600 -606 0
-598 -1033 0
-599 -1034 0
-600 -1035 0
-598 -649 0
-599 -650 0
-600 -651 0
-598 -727 0
-599 -728 0
-600 -729 0
-598 -967 0
-599 -968 0
-600 -969 0
-601 -1036 0
-602 -1037 0
-603 -1038 0
-601 -649 0
-602 -650 0
-603 -651 0
-601 -730 0
-602 -731 0
-603 -732 0
-604 -736 0
-605 -737 0
-606 -738 0
-604 -1447 0
-605 -1448 0
-606 -1449 0
-604 -1282 0
-605 -1283 0
-606 -1284 0
-604 -664 0
-605 -665 0
-606 -666 0
-604 -1432 0
-605 -1433 0
-606 -1434 0
-607 -619 0
-608 -620 0
-609 -621 0
-607 -1501 0
-608 -1502 0
-609 -1503 0
-607 -634 0
-608 -635 0
-609 -636 0
-607 -1867 0
-608 -1868 0
-609 -1869 0
-607 -1852 0
-608 -1853 0
-609 -1854 0
-610 -619 0
-611 -620 0
-612 -621 0
-610 -1582 0
-611 -1583 0
-612 -1584 0
-610 -1042 0
-611 -1043 0
-612 -1044 0
-610 -739 0
-611 -740 0
-612 -741 0
-610 -637 0
-611 -638 0
-612 -639 0
-610 -1576 0
-611 -1577 0
-612 -1578 0
-613 -970 0
-614 -971 0
-615 -972 0
-613 -862 0
-614 -863 0
-615 -864 0
-616 -1048 0
-617 -1049 0
-618 -1050 0
-616 -649 0
-617 -650 0
-618 -651 0
-616 -742 0
-617 -743 0
-618 -744 0
-619 -706 0
-620 -707 0
-621 -708 0
-619 -649 0
-620 -650 0
-621 -651 0
-619 -745 0
-620 -746 0
-621 -747 0
-622 -883 0
-623 -884 0
-624 -885 0
-622 -1426 0
-623 -1427 0
-624 -1428 0
-622 -1336 0
-623 -1337 0
-624 -1338 0
-625 -886 0
-626 -887 0
-627 -888 0
-625 -1867 0
-626 -1868 0
-627 -1869 0
-625 -1852 0
-626 -1853 0
-627 -1854 0
-628 -643 0
-629 -644 0
-630 -645 0
-628 -1861 0
-629 -1862 0
-630 -1863 0
-628 -1783 0
-629 -1784 0
-630 -1785 0
-628 -1111 0
-629 -1112 0
-630 -1113 0
-628 -1003 0
-629 -1004 0
-630 -1005 0
-631 -1000 0
-632 -1001 0
-633 -1002 0
-631 -1114 0
-632 -1115 0
-633 -1116 0
-631 -649 0
-632 -650 0
-633 -651 0
-634 -694 0
-635 -695 0
-636 -696 0
-634 -1111 0
-635 -1112 0
-636 -1113 0
-634 -880 0
-635 -881 0
-636 -882 0
-634 -649 0
-635 -650 0
-636 -651 0
-634 -901 0
-635 -902 0
-636 -903 0
-637 -778 0
-638 -779 0
-639 -780 0
-637 -1084 0
-638 -1085 0
-639 -1086 0
-637 -793 0
-638 -794 0
-639 -795 0
-637 -1009 0
-638 -1010 0
-639 -1011 0
-637 -1054 0
-638 -1055 0
-639 -1056 0
-637 -649 0
-638 -650 0
-639 -651 0
-637 -748 0
-638 -749 0
-639 -750 0
-640 -1087 0
-641 -1088 0
-642 -1089 0
-640 -1117 0
-641 -1118 0
-642 -1119 0
-640 -1057 0
-641 -1058 0
-642 -1059 0
-640 -649 0
-641 -650 0
-642 -651 0
-640 -655 0
-641 -656 0
-642 -657 0
-640 -658 0
-641 -659 0
-642 -660 0
-643 -670 0
-644 -671 0
-645 -672 0
-643 -1000 0
-644 -1001 0
-645 -1002 0
-643 -1198 0
-644 -1199 0
-645 -1200 0
-643 -1120 0
-644 -1121 0
-645 -1122 0
-643 -1687 0
-644 -1688 0
-645 -1689 0
-643 -1690 0
-644 -1691 0
-645 -1692 0
-646 -1198 0
-647 -1199 0
-648 -1200 0
-646 -781 0
-647 -782 0
-648 -783 0
-646 -1690 0
-647 -1691 0
-648 -1692 0
-649 -685 0
-650 -686 0
-651 -687 0
-649 -697 0
-650 -698 0
-651 -699 0
-649 -700 0
-650 -701 0
-651 -702 0
-649 -1021 0
-650 -1022 0
-651 -1023 0
-649 -1024 0
-650 -1025 0
-651 -1026 0
-649 -1090 0
-650 -1091 0
-651 -1092 0
-649 -1093 0
-650 -1094 0
-651 -1095 0
-649 -781 0
-650 -782 0
-651 -783 0
-649 -784 0
-650 -785 0
-651 -786 0
-649 -1138 0
-650 -1139 0
-651 -1140 0
-649 -1141 0
-650 -1142 0
-651 -1143 0
-649 -799 0
-650 -800 0
-651 -801 0
-649 -802 0
-650 -803 0
-651 -804 0
-649 -859 0
-650 -860 0
-651 -861 0
-649 -1003 0
-650 -1004 0
-651 -1005 0
-649 -1006 0
-650 -1007 0
-651 -1008 0
-649 -862 0
-650 -863 0
-651 -864 0
-649 -1120 0
-650 -1121 0
-651 -1122 0
-649 -1123 0
-650 -1124 0
-651 -1125 0
-649 -1012 0
-650 -1013 0
-651 -1014 0
-649 -1015 0
-650 -1016 0
-651 -1017 0
-649 -949 0
-650 -950 0
-651 -951 0
-649 -1060 0
-650 -1061 0
-651 -1062 0
-649 -1063 0
-650 -1064 0
-651 -1065 0
-649 -1066 0
-650 -1067 0
-651 -1068 0
-649 -1069 0
-650 -1070 0
-651 -1071 0
-649 -883 0
-650 -884 0
-651 -885 0
-649 -886 0
-650 -887 0
-651 -888 0
-649 -895 0
-650 -896 0
-651 -897 0
-649 -898 0
-650 -899 0
-651 -900 0
-649 -1132 0
-650 -1133 0
-651 -1134 0
-649 -661 0
-650 -662 0
-651 -663 0
-649 -664 0
-650 -665 0
-651 -666 0
-649 -904 0
-650 -905 0
-651 -906 0
-649 -667 0
-650 -668 0
-651 -669 0
-649 -907 0
-650 -908 0
-651 -909 0
-649 -910 0
-650 -911 0
-651 -912 0
-649 -673 0
-650 -674 0
-651 -675 0
-649 -973 0
-650 -974 0
-651 -975 0
-649 -751 0
-650 -752 0
-651 -753 0
-649 -754 0
-650 -755 0
-651 -756 0
-649 -757 0
-650 -758 0
-651 -759 0
-649 -976 0
-650 -977 0
-651 -978 0
-652 -1975 0
-653 -1976 0
-654 -1977 0
-652 -676 0
-653 -677 0
-654 -678 0
-652 -1123 0
-653 -1124 0
-654 -1125 0
-655 -1534 0
-656 -1535 0
-657 -1536 0
-655 -667 0
-656 -668 0
-657 -669 0
-655 -1726 0
-656 -1727 0
-657 -1728 0
-658 -1801 0
-659 -1802 0
-660 -1803 0
-658 -673 0
-659 -674 0
-660 -675 0
-658 -1402 0
-659 -1403 0
-660 -1404 0
-661 -1096 0
-662 -1097 0
-663 -1098 0
-661 -1072 0
-662 -1073 0
-663 -1074 0
-664 -760 0
-665 -761 0
-666 -762 0
-664 -691 0
-665 -692 0
-666 -693 0
-664 -1027 0
-665 -1028 0
-666 -1029 0
-664 -1099 0
-665 -1100 0
-666 -1101 0
-664 -679 0
-665 -680 0
-666 -681 0
-667 -790 0
-668 -791 0
-669 -792 0
-667 -865 0
-668 -866 0
-669 -867 0
-670 -1834 0
-671 -1835 0
-672 -1836 0
-670 -1012 0
-671 -1013 0
-672 -1014 0
-670 -1189 0
-671 -1190 0
-672 -1191 0
-673 -1126 0
-674 -1127 0
-675 -1128 0
-673 -679 0
-674 -680 0
-675 -681 0
-676 -1126 0
-677 -1127 0
-678 -1128 0
-676 -1015 0
-677 -1016 0
-678 -1017 0
-676 -1435 0
-677 -1436 0
-678 -1437 0
-679 -1420 0
-680 -1421 0
-681 -1422 0
-679 -1591 0
-680 -1592 0
-681 -1593 0
-679 -1408 0
-680 -1409 0
-681 -1410 0
-682 -1696 0
-683 -1697 0
-684 -1698 0
-682 -910 0
-683 -911 0
-684 -912 0
-682 -1681 0
-683 -1682 0
-684 -1683 0
-682 -1330 0
-683 -1331 0
-684 -1332 0
-685 -691 0
-686 -692 0
-687 -693 0
-685 -1144 0
-686 -1145 0
-687 -1146 0
-685 -805 0
-686 -806 0
-687 -807 0
-685 -913 0
-686 -914 0
-687 -915 0
-685 -916 0
-686 -917 0
-687 -918 0
-688 -967 0
-689 -968 0
-690 -969 0
-688 -883 0
-689 -884 0
-690 -885 0
-691 -1912 0
-692 -1913 0
-693 -1914 0
-691 -1396 0
-692 -1397 0
-693 -1398 0
-691 -1891 0
-692 -1892 0
-693 -1893 0
-691 -1591 0
-692 -1592 0
-693 -1593 0
-691 -1105 0
-692 -1106 0
-693 -1107 0
-694 -700 0
-695 -701 0
-696 -702 0
-694 -1351 0
-695 -1352 0
-696 -1353 0
-694 -1360 0
-695 -1361 0
-696 -1362 0
-697 -1147 0
-698 -1148 0
-699 -1149 0
-697 -811 0
-698 -812 0
-699 -813 0
-700 -1150 0
-701 -1151 0
-702 -1152 0
-700 -808 0
-701 -809 0
-702 -810 0
-700 -970 0
-701 -971 0
-702 -972 0
-703 -1477 0
-704 -1478 0
-705 -1479 0
-703 -1507 0
-704 -1508 0
-705 -1509 0
-703 -1120 0
-704 -1121 0
-705 -1122 0
-703 -1615 0
-704 -1616 0
-705 -1617 0
-703 -1786 0
-704 -1787 0
-705 -1788 0
-706 -1705 0
-707 -1706 0
-708 -1707 0
-706 -1522 0
-707 -1523 0
-708 -1524 0
-709 -1627 0
-710 -1628 0
-711 -1629 0
-709 -1063 0
-710 -1064 0
-711 -1065 0
-709 -1603 0
-710 -1604 0
-711 -1605 0
-712 -1063 0
-713 -1064 0
-714 -1065 0
-712 -1588 0
-713 -1589 0
-714 -1590 0
-712 -1510 0
-713 -1511 0
-714 -1512 0
-715 -1738 0
-716 -1739 0
-717 -1740 0
-715 -1879 0
-716 -1880 0
-717 -1881 0
-715 -1069 0
-716 -1070 0
-717 -1071 0
-715 -1924 0
-716 -1925 0
-717 -1926 0
-718 -2002 0
-719 -2003 0
-720 -2004 0
-718 -1564 0
-719 -1565 0
-720 -1566 0
-718 -1075 0
-719 -1076 0
-720 -1077 0
-718 -1021 0
-719 -1022 0
-720 -1023 0
-721 -1021 0
-722 -1022 0
-723 -1023 0
-724 -1024 0
-725 -1025 0
-726 -1026 0
-724 -2005 0
-725 -2006 0
-726 -2007 0
-724 -1078 0
-725 -1079 0
-726 -1080 0
-727 -1084 0
-728 -1085 0
-729 -1086 0
-727 -736 0
-728 -737 0
-729 -738 0
-727 -757 0
-728 -758 0
-729 -759 0
-727 -1819 0
-728 -1820 0
-729 -1821 0
-727 -1321 0
-728 -1322 0
-729 -1323 0
-730 -1087 0
-731 -1088 0
-732 -1089 0
-730 -1900 0
-731 -1901 0
-732 -1902 0
-730 -1411 0
-731 -1412 0
-732 -1413 0
-730 -1414 0
-731 -1415 0
-732 -1416 0
-730 -754 0
-731 -755 0
-732 -756 0
-730 -1339 0
-731 -1340 0
-732 -1341 0
-733 -1006 0
-734 -1007 0
-735 -1008 0
-733 -1453 0
-734 -1454 0
-735 -1455 0
-736 -760 0
-737 -761 0
-738 -762 0
-736 -1240 0
-737 -1241 0
-738 -1242 0
-736 -1243 0
-737 -1244 0
-738 -1245 0
-736 -1090 0
-737 -1091 0
-738 -1092 0
-736 -1528 0
-737 -1529 0
-738 -1530 0
-739 -1744 0
-740 -1745 0
-741 -1746 0
-739 -1465 0
-740 -1466 0
-741 -1467 0
-739 -1468 0
-740 -1469 0
-741 -1470 0
-739 -1471 0
-740 -1472 0
-741 -1473 0
-739 -1741 0
-740 -1742 0
-741 -1743 0
-739 -745 0
-740 -746 0
-741 -747 0
-739 -1090 0
-740 -1091 0
-741 -1092 0
-739 -748 0
-740 -749 0
-741 -750 0
-739 -1624 0
-740 -1625 0
-741 -1626 0
-742 -1234 0
-743 -1235 0
-744 -1236 0
-742 -1246 0
-743 -1247 0
-744 -1248 0
-742 -1096 0
-743 -1097 0
-744 -1098 0
-745 -1264 0
-746 -1265 0
-747 -1266 0
-745 -751 0
-746 -752 0
-747 -753 0
-745 -1270 0
-746 -1271 0
-747 -1272 0
-745 -1099 0
-746 -1100 0
-747 -1101 0
-748 -751 0
-749 -752 0
-750 -753 0
-748 -2011 0
-749 -2012 0
-750 -2013 0
-748 -1594 0
-749 -1595 0
-750 -1596 0
-751 -1105 0
-752 -1106 0
-753 -1107 0
-757 -760 0
-758 -761 0
-759 -762 0
-757 -856 0
-758 -857 0
-759 -858 0
-757 -1108 0
-758 -1109 0
-759 -1110 0
-763 -967 0
-764 -968 0
-765 -969 0
-763 -949 0
-764 -950 0
-765 -951 0
-763 -775 0
-764 -776 0
-765 -777 0
-766 -772 0
-767 -773 0
-768 -774 0
-766 -949 0
-767 -950 0
-768 -951 0
-766 -1945 0
-767 -1946 0
-768 -1947 0
-769 -1462 0
-770 -1463 0
-771 -1464 0
-769 -1495 0
-770 -1496 0
-771 -1497 0
-769 -859 0
-770 -860 0
-771 -861 0
-772 -973 0
-773 -974 0
-774 -975 0
-775 -970 0
-776 -971 0
-777 -972 0
-778 -1660 0
-779 -1661 0
-780 -1662 0
-778 -784 0
-779 -785 0
-780 -786 0
-778 -1594 0
-779 -1595 0
-780 -1596 0
-781 -790 0
-782 -791 0
-783 -792 0
-781 -808 0
-782 -809 0
-783 -810 0
-781 -889 0
-782 -890 0
-783 -891 0
-784 -1135 0
-785 -1136 0
-786 -1137 0
-784 -1039 0
-785 -1040 0
-786 -1041 0
-784 -811 0
-785 -812 0
-786 -813 0
-784 -1129 0
-785 -1130 0
-786 -1131 0
-784 -892 0
-785 -893 0
-786 -894 0
-787 -2014 0
-788 -2015 0
-789 -2016 0
-787 -895 0
-788 -896 0
-789 -897 0
-787 -1699 0
-788 -1700 0
-789 -1701 0
-787 -1858 0
-788 -1859 0
-789 -1860 0
-787 -1915 0
-788 -1916 0
-789 -1917 0
-793 -1909 0
-794 -1910 0
-795 -1911 0
-793 -802 0
-794 -803 0
-795 -804 0
-793 -1645 0
-794 -1646 0
-795 -1647 0
-793 -1489 0
-794 -1490 0
-795 -1491 0
-796 -1948 0
-797 -1949 0
-798 -1950 0
-796 -1462 0
-797 -1463 0
-798 -1464 0
-796 -1876 0
-797 -1877 0
-798 -1878 0
-796 -1537 0
-797 -1538 0
-798 -1539 0
-796 -886 0
-797 -887 0
-798 -888 0
-796 -1879 0
-797 -1880 0
-798 -1881 0
-796 -1384 0
-797 -1385 0
-798 -1386 0
-796 -1957 0
-797 -1958 0
-798 -1959 0
-796 -1549 0
-797 -1550 0
-798 -1551 0
-796 -1915 0
-797 -1916 0
-798 -1917 0
-799 -856 0
-800 -857 0
-801 -858 0
-799 -889 0
-800 -890 0
-801 -891 0
-799 -892 0
-800 -893 0
-801 -894 0
-802 -1045 0
-803 -1046 0
-804 -1047 0
-802 -805 0
-803 -806 0
-804 -807 0
-805 -1294 0
-806 -1295 0
-807 -1296 0
-805 -1909 0
-806 -1910 0
-807 -1911 0
-808 -1186 0
-809 -1187 0
-810 -1188 0
-808 -1909 0
-809 -1910 0
-810 -1911 0
-811 -1183 0
-812 -1184 0
-813 -1185 0
-811 -1978 0
-812 -1979 0
-813 -1980 0
-814 -1795 0
-815 -1796 0
-816 -1797 0
-814 -1927 0
-815 -1928 0
-816 -1929 0
-814 -1132 0
-815 -1133 0
-816 -1134 0
-817 -1627 0
-818 -1628 0
-819 -1629 0
-817 -1090 0
-818 -1091 0
-819 -1092 0
-817 -1624 0
-818 -1625 0
-819 -1626 0
-820 -1762 0
-821 -1763 0
-822 -1764 0
-820 -1927 0
-821 -1928 0
-822 -1929 0
-820 -1735 0
-821 -1736 0
-822 -1737 0
-823 -883 0
-824 -884 0
-825 -885 0
-823 -1237 0
-824 -1238 0
-825 -1239 0
-823 -1339 0
-824 -1340 0
-825 -1341 0
-826 -1297 0
-827 -1298 0
-828 -1299 0
-826 -898 0
-827 -899 0
-828 -900 0
-826 -1405 0
-827 -1406 0
-828 -1407 0
-829 -1333 0
-830 -1334 0
-831 -1335 0
-829 -1924 0
-830 -1925 0
-831 -1926 0
-829 -1015 0
-830 -1016 0
-831 -1017 0
-829 -1435 0
-830 -1436 0
-831 -1437 0
-832 -1261 0
-833 -1262 0
-834 -1263 0
-832 -1633 0
-833 -1634 0
-834 -1635 0
-832 -1606 0
-833 -1607 0
-834 -1608 0
-832 -1843 0
-833 -1844 0
-834 -1845 0
-832 -2008 0
-833 -2009 0
-834 -2010 0
-832 -1012 0
-833 -1013 0
-834 -1014 0
-835 -1636 0
-836 -1637 0
-837 -1638 0
-835 -1315 0
-836 -1316 0
-837 -1317 0
-835 -1003 0
-836 -1004 0
-837 -1005 0
-838 -1894 0
-839 -1895 0
-840 -1896 0
-838 -1561 0
-839 -1562 0
-840 -1563 0
-838 -1006 0
-839 -1007 0
-840 -1008 0
-838 -1255 0
-839 -1256 0
-840 -1257 0
-838 -1657 0
-839 -1658 0
-840 -1659 0
-838 -1288 0
-839 -1289 0
-840 -1290 0
-841 -1381 0
-842 -1382 0
-843 -1383 0
-841 -1402 0
-842 -1403 0
-843 -1404 0
-841 -1450 0
-842 -1451 0
-843 -1452 0
-841 -1015 0
-842 -1016 0
-843 -1017 0
-844 -1006 0
-845 -1007 0
-846 -1008 0
-844 -1780 0
-845 -1781 0
-846 -1782 0
-844 -1318 0
-845 -1319 0
-846 -1320 0
-844 -1288 0
-845 -1289 0
-846 -1290 0
-847 -1561 0
-848 -1562 0
-849 -1563 0
-847 -1006 0
-848 -1007 0
-849 -1008 0
-847 -1780 0
-848 -1781 0
-849 -1782 0
-847 -1525 0
-848 -1526 0
-849 -1527 0
-850 -1633 0
-851 -1634 0
-852 -1635 0
-850 -1774 0
-851 -1775 0
-852 -1776 0
-850 -1846 0
-851 -1847 0
-852 -1848 0
-850 -1012 0
-851 -1013 0
-852 -1014 0
-853 -1063 0
-854 -1064 0
-855 -1065 0
-853 -1639 0
-854 -1640 0
-855 -1641 0
-853 -1513 0
-854 -1514 0
-855 -1515 0
-856 -1321 0
-857 -1322 0
-858 -1323 0
-859 -865 0
-860 -866 0
-861 -867 0
-859 -1081 0
-860 -1082 0
-861 -1083 0
-865 -1630 0
-866 -1631 0
-867 -1632 0
-865 -1897 0
-866 -1898 0
-867 -1899 0
-865 -1753 0
-866 -1754 0
-867 -1755 0
-868 -1120 0
-869 -1121 0
-870 -1122 0
-868 -1114 0
-869 -1115 0
-870 -1116 0
-868 -1258 0
-869 -1259 0
-870 -1260 0
-871 -1972 0
-872 -1973 0
-873 -1974 0
-871 -877 0
-872 -878 0
-873 -879 0
-871 -1123 0
-872 -1124 0
-873 -1125 0
-871 -1111 0
-872 -1112 0
-873 -1113 0
-874 -1024 0
-875 -1025 0
-876 -1026 0
-874 -1528 0
-875 -1529 0
-876 -1530 0
-874 -1342 0
-875 -1343 0
-876 -1344 0
-877 -1969 0
-878 -1970 0
-879 -1971 0
-877 -1438 0
-878 -1439 0
-879 -1440 0
-877 -1126 0
-878 -1127 0
-879 -1128 0
-877 -1120 0
-878 -1121 0
-879 -1122 0
-880 -1750 0
-881 -1751 0
-882 -1752 0
-880 -898 0
-881 -899 0
-882 -900 0
-880 -1684 0
-881 -1685 0
-882 -1686 0
-883 -1162 0
-884 -1163 0
-885 -1164 0
-889 -1690 0
-890 -1691 0
-891 -1692 0
-889 -1687 0
-890 -1688 0
-891 -1689 0
-892 -1858 0
-893 -1859 0
-894 -1860 0
-895 -1165 0
-896 -1166 0
-897 -1167 0
-898 -913 0
-899 -914 0
-900 -915 0
-901 -1345 0
-902 -1346 0
-903 -1347 0
-901 -1237 0
-902 -1238 0
-903 -1239 0
-901 -910 0
-902 -911 0
-903 -912 0
-901 -1360 0
-902 -1361 0
-903 -1362 0
-901 -1330 0
-902 -1331 0
-903 -1332 0
-901 -1867 0
-902 -1868 0
-903 -1869 0
-904 -916 0
-905 -917 0
-906 -918 0
-907 -1168 0
-908 -1169 0
-909 -1170 0
-913 -1912 0
-914 -1913 0
-915 -1914 0
-913 -1081 0
-914 -1082 0
-915 -1083 0
-916 -1396 0
-917 -1397 0
-918 -1398 0
-916 -1966 0
-917 -1967 0
-918 -1968 0
-919 -1798 0
-920 -1799 0
-921 -1800 0
-919 -1906 0
-920 -1907 0
-921 -1908 0
-919 -1924 0
-920 -1925 0
-921 -1926 0
-919 -1141 0
-920 -1142 0
-921 -1143 0
-919 -1873 0
-920 -1874 0
-921 -1875 0
-922 -1093 0
-923 -1094 0
-924 -1095 0
-922 -1792 0
-923 -1793 0
-924 -1794 0
-922 -1711 0
-923 -1712 0
-924 -1713 0
-922 -1756 0
-923 -1757 0
-924 -1758 0
-925 -1243 0
-926 -1244 0
-927 -1245 0
-925 -1849 0
-926 -1850 0
-927 -1851 0
-925 -1012 0
-926 -1013 0
-927 -1014 0
-925 -1960 0
-926 -1961 0
-927 -1962 0
-925 -1189 0
-926 -1190 0
-927 -1191 0
-928 -1465 0
-929 -1466 0
-930 -1467 0
-928 -1006 0
-929 -1007 0
-930 -1008 0
-928 -1471 0
-929 -1472 0
-930 -1473 0
-928 -1609 0
-929 -1610 0
-930 -1611 0
-928 -1222 0
-929 -1223 0
-930 -1224 0
-931 -1069 0
-932 -1070 0
-933 -1071 0
-931 -1606 0
-932 -1607 0
-933 -1608 0
-931 -1456 0
-932 -1457 0
-933 -1458 0
-934 -1627 0
-935 -1628 0
-936 -1629 0
-934 -1063 0
-935 -1064 0
-936 -1065 0
-934 -1639 0
-935 -1640 0
-936 -1641 0
-937 -1789 0
-938 -1790 0
-939 -1791 0
-937 -1066 0
-938 -1067 0
-939 -1068 0
-940 -1348 0
-941 -1349 0
-942 -1350 0
-940 -1903 0
-941 -1904 0
-942 -1905 0
-940 -1066 0
-941 -1067 0
-942 -1068 0
-943 -1354 0
-944 -1355 0
-945 -1356 0
-943 -1333 0
-944 -1334 0
-945 -1335 0
-943 -1015 0
-944 -1016 0
-945 -1017 0
-946 -1789 0
-947 -1790 0
-948 -1791 0
-946 -1066 0
-947 -1067 0
-948 -1068 0
-946 -1954 0
-947 -1955 0
-948 -1956 0
-949 -970 0
-950 -971 0
-951 -972 0
-952 -1816 0
-953 -1817 0
-954 -1818 0
-952 -1930 0
-953 -1931 0
-954 -1932 0
-952 -1141 0
-953 -1142 0
-954 -1143 0
-955 -1294 0
-956 -1295 0
-957 -1296 0
-955 -1300 0
-956 -1301 0
-957 -1302 0
-955 -1156 0
-956 -1157 0
-957 -1158 0
-955 -1021 0
-956 -1022 0
-957 -1023 0
-958 -1192 0
-959 -1193 0
-960 -1194 0
-958 -1159 0
-959 -1160 0
-960 -1161 0
-958 -1183 0
-959 -1184 0
-960 -1185 0
-958 -1021 0
-959 -1022 0
-960 -1023 0
-961 -1804 0
-962 -1805 0
-963 -1806 0
-961 -1024 0
-962 -1025 0
-963 -1026 0
-961 -1195 0
-962 -1196 0
-963 -1197 0
-961 -1156 0
-962 -1157 0
-963 -1158 0
-961 -1186 0
-962 -1187 0
-963 -1188 0
-964 -1024 0
-965 -1025 0
-966 -1026 0
-964 -1159 0
-965 -1160 0
-966 -1161 0
-973 -1081 0
-974 -1082 0
-975 -1083 0
-979 -1564 0
-980 -1565 0
-981 -1566 0
-979 -1192 0
-980 -1193 0
-981 -1194 0
-979 -1021 0
-980 -1022 0
-981 -1023 0
-982 -1024 0
-983 -1025 0
-984 -1026 0
-982 -1876 0
-983 -1877 0
-984 -1878 0
-982 -1585 0
-983 -1586 0
-984 -1587 0
-985 -1399 0
-986 -1400 0
-987 -1401 0
-985 -1090 0
-986 -1091 0
-987 -1092 0
-985 -1615 0
-986 -1616 0
-987 -1617 0
-985 -1825 0
-986 -1826 0
-987 -1827 0
-988 -1093 0
-989 -1094 0
-990 -1095 0
-988 -1450 0
-989 -1451 0
-990 -1452 0
-988 -1711 0
-989 -1712 0
-990 -1713 0
-991 -1444 0
-992 -1445 0
-993 -1446 0
-991 -1648 0
-992 -1649 0
-993 -1650 0
-991 -1090 0
-992 -1091 0
-993 -1092 0
-994 -1090 0
-995 -1091 0
-996 -1092 0
-994 -1327 0
-995 -1328 0
-996 -1329 0
-994 -1612 0
-995 -1613 0
-996 -1614 0
-997 -1930 0
-998 -1931 0
-999 -1932 0
-997 -1015 0
-998 -1016 0
-999 -1017 0
-997 -1579 0
-998 -1580 0
-999 -1581 0
-1000 -1012 0
-1001 -1013 0
-1002 -1014 0
-1000 -1174 0
-1001 -1175 0
-1002 -1176 0
-1003 -1045 0
-1004 -1046 0
-1005 -1047 0
-1003 -1156 0
-1004 -1157 0
-1005 -1158 0
-1006 -1174 0
-1007 -1175 0
-1008 -1176 0
-1006 -1075 0
-1007 -1076 0
-1008 -1077 0
-1006 -1159 0
-1007 -1160 0
-1008 -1161 0
-1009 -1864 0
-1010 -1865 0
-1011 -1866 0
-1009 -1012 0
-1010 -1013 0
-1011 -1014 0
-1009 -1759 0
-1010 -1760 0
-1011 -1761 0
-1012 -1039 0
-1013 -1040 0
-1014 -1041 0
-1012 -1078 0
-1013 -1079 0
-1014 -1080 0
-1012 -1159 0
-1013 -1160 0
-1014 -1161 0
-1015 -1177 0
-1016 -1178 0
-1017 -1179 0
-1015 -1156 0
-1016 -1157 0
-1017 -1158 0
-1018 -1918 0
-1019 -1919 0
-1020 -1920 0
-1018 -1069 0
-1019 -1070 0
-1020 -1071 0
-1018 -1549 0
-1019 -1550 0
-1020 -1551 0
-1021 -1027 0
-1022 -1028 0
-1023 -1029 0
-1021 -1171 0
-1022 -1172 0
-1023 -1173 0
-1024 -1171 0
-1025 -1172 0
-1026 -1173 0
-1027 -1504 0
-1028 -1505 0
-1029 -1506 0
-1027 -1645 0
-1028 -1646 0
-1029 -1647 0
-1027 -1447 0
-1028 -1448 0
-1029 -1449 0
-1030 -1090 0
-1031 -1091 0
-1032 -1092 0
-1030 -1654 0
-1031 -1655 0
-1032 -1656 0
-1030 -1612 0
-1031 -1613 0
-1032 -1614 0
-1033 -1066 0
-1034 -1067 0
-1035 -1068 0
-1033 -1084 0
-1034 -1085 0
-1035 -1086 0
-1033 -1873 0
-1034 -1874 0
-1035 -1875 0
-1036 -1918 0
-1037 -1919 0
-1038 -1920 0
-1036 -1069 0
-1037 -1070 0
-1038 -1071 0
-1036 -1087 0
-1037 -1088 0
-1038 -1089 0
-1039 -1978 0
-1040 -1979 0
-1041 -1980 0
-1039 -1834 0
-1040 -1835 0
-1041 -1836 0
-1039 -1855 0
-1040 -1856 0
-1041 -1857 0
-1042 -1444 0
-1043 -1445 0
-1044 -1446 0
-1042 -1090 0
-1043 -1091 0
-1044 -1092 0
-1042 -1054 0
-1043 -1055 0
-1044 -1056 0
-1045 -1828 0
-1046 -1829 0
-1047 -1830 0
-1045 -1861 0
-1046 -1862 0
-1047 -1863 0
-1048 -1060 0
-1049 -1061 0
-1050 -1062 0
-1048 -1546 0
-1049 -1547 0
-1050 -1548 0
-1048 -1096 0
-1049 -1097 0
-1050 -1098 0
-1051 -1804 0
-1052 -1805 0
-1053 -1806 0
-1051 -1132 0
-1052 -1133 0
-1053 -1134 0
-1051 -1765 0
-1052 -1766 0
-1053 -1767 0
-1054 -1063 0
-1055 -1064 0
-1056 -1065 0
-1054 -1921 0
-1055 -1922 0
-1056 -1923 0
-1054 -1207 0
-1055 -1208 0
-1056 -1209 0
-1054 -1510 0
-1055 -1511 0
-1056 -1512 0
-1054 -1210 0
-1055 -1211 0
-1056 -1212 0
-1057 -1060 0
-1058 -1061 0
-1059 -1062 0
-1057 -1675 0
-1058 -1676 0
-1059 -1677 0
-1060 -1102 0
-1061 -1103 0
-1062 -1104 0
-1063 -1105 0
-1064 -1106 0
-1065 -1107 0
-1063 -1072 0
-1064 -1073 0
-1065 -1074 0
-1066 -1108 0
-1067 -1109 0
-1068 -1110 0
-1066 -1129 0
-1067 -1130 0
-1068 -1131 0
-1069 -1180 0
-1070 -1181 0
-1071 -1182 0
-1072 -1357 0
-1073 -1358 0
-1074 -1359 0
-1075 -1171 0
-1076 -1172 0
-1077 -1173 0
-1075 -1468 0
-1076 -1469 0
-1077 -1470 0
-1075 -1471 0
-1076 -1472 0
-1077 -1473 0
-1078 -1171 0
-1079 -1172 0
-1080 -1173 0
-1078 -1240 0
-1079 -1241 0
-1080 -1242 0
-1078 -1243 0
-1079 -1244 0
-1080 -1245 0
-1084 -1531 0
-1085 -1532 0
-1086 -1533 0
-1084 -1090 0
-1085 -1091 0
-1086 -1092 0
-1084 -1648 0
-1085 -1649 0
-1086 -1650 0
-1084 -1108 0
-1085 -1109 0
-1086 -1110 0
-1084 -1651 0
-1085 -1652 0
-1086 -1653 0
-1084 -1660 0
-1085 -1661 0
-1086 -1662 0
-1084 -1288 0
-1085 -1289 0
-1086 -1290 0
-1087 -1636 0
-1088 -1637 0
-1089 -1638 0
-1087 -1093 0
-1088 -1094 0
-1089 -1095 0
-1087 -1708 0
-1088 -1709 0
-1089 -1710 0
-1090 -1099 0
-1091 -1100 0
-1092 -1101 0
-1090 -1135 0
-1091 -1136 0
-1092 -1137 0
-1093 -1096 0
-1094 -1097 0
-1095 -1098 0
-1096 -1540 0
-1097 -1541 0
-1098 -1542 0
-1096 -1102 0
-1097 -1103 0
-1098 -1104 0
-1099 -1399 0
-1100 -1400 0
-1101 -1401 0
-1099 -1678 0
-1100 -1679 0
-1101 -1680 0
-1099 -1654 0
-1100 -1655 0
-1101 -1656 0
-1099 -1105 0
-1100 -1106 0
-1101 -1107 0
-1102 -1213 0
-1103 -1214 0
-1104 -1215 0
-1105 -1303 0
-1106 -1304 0
-1107 -1305 0
-1105 -1684 0
-1106 -1685 0
-1107 -1686 0
-1105 -1513 0
-1106 -1514 0
-1107 -1515 0
-1108 -1348 0
-1109 -1349 0
-1110 -1350 0
-1111 -1303 0
-1112 -1304 0
-1113 -1305 0
-1111 -1477 0
-1112 -1478 0
-1113 -1479 0
-1111 -1120 0
-1112 -1121 0
-1113 -1122 0
-1114 -1123 0
-1115 -1124 0
-1116 -1125 0
-1114 -1213 0
-1115 -1214 0
-1116 -1215 0
-1114 -1174 0
-1115 -1175 0
-1116 -1176 0
-1117 -1969 0
-1118 -1970 0
-1119 -1971 0
-1117 -1534 0
-1118 -1535 0
-1119 -1536 0
-1117 -1120 0
-1118 -1121 0
-1119 -1122 0
-1117 -1522 0
-1118 -1523 0
-1119 -1524 0
-1120 -1174 0
-1121 -1175 0
-1122 -1176 0
-1123 -1162 0
-1124 -1163 0
-1125 -1164 0
-1123 -1165 0
-1124 -1166 0
-1125 -1167 0
-1123 -1168 0
-1124 -1169 0
-1125 -1170 0
-1123 -1126 0
-1124 -1127 0
-1125 -1128 0
-1126 -1348 0
-1127 -1349 0
-1128 -1350 0
-1126 -1801 0
-1127 -1802 0
-1128 -1803 0
-1129 -1567 0
-1130 -1568 0
-1131 -1569 0
-1129 -1441 0
-1130 -1442 0
-1131 -1443 0
-1129 -1543 0
-1130 -1544 0
-1131 -1545 0
-1132 -1177 0
-1133 -1178 0
-1134 -1179 0
-1135 -1468 0
-1136 -1469 0
-1137 -1470 0
-1135 -1660 0
-1136 -1661 0
-1137 -1662 0
-1138 -1180 0
-1139 -1181 0
-1140 -1182 0
-1138 -1147 0
-1139 -1148 0
-1140 -1149 0
-1141 -1150 0
-1142 -1151 0
-1143 -1152 0
-1144 -1300 0
-1145 -1301 0
-1146 -1302 0
-1144 -1459 0
-1145 -1460 0
-1146 -1461 0
-1147 -1870 0
-1148 -1871 0
-1149 -1872 0
-1147 -1192 0
-1148 -1193 0
-1149 -1194 0
-1150 -1195 0
-1151 -1196 0
-1152 -1197 0
-1150 -1816 0
-1151 -1817 0
-1152 -1818 0
-1153 -1861 0
-1154 -1862 0
-1155 -1863 0
-1153 -1657 0
-1154 -1658 0
-1155 -1659 0
-1153 -1834 0
-1154 -1835 0
-1155 -1836 0
-1156 -1171 0
-1157 -1172 0
-1158 -1173 0
-1156 -1228 0
-1157 -1229 0
-1158 -1230 0
-1159 -1171 0
-1160 -1172 0
-1161 -1173 0
-1159 -1657 0
-1160 -1658 0
-1161 -1659 0
-1162 -1345 0
-1163 -1346 0
-1164 -1347 0
-1162 -1975 0
-1163 -1976 0
-1164 -1977 0
-1162 -1612 0
-1163 -1613 0
-1164 -1614 0
-1165 -1213 0
-1166 -1214 0
-1167 -1215 0
-1168 -1462 0
-1169 -1463 0
-1170 -1464 0
-1168 -1549 0
-1169 -1550 0
-1170 -1551 0
-1174 -1516 0
-1175 -1517 0
-1176 -1518 0
-1177 -1930 0
-1178 -1931 0
-1179 -1932 0
-1177 -1816 0
-1178 -1817 0
-1179 -1818 0
-1180 -1876 0
-1181 -1877 0
-1182 -1878 0
-1180 -1534 0
-1181 -1535 0
-1182 -1536 0
-1180 -1879 0
-1181 -1880 0
-1182 -1881 0
-1183 -1312 0
-1184 -1313 0
-1185 -1314 0
-1183 -1219 0
-1184 -1220 0
-1185 -1221 0
-1186 -1357 0
-1187 -1358 0
-1188 -1359 0
-1186 -1363 0
-1187 -1364 0
-1188 -1365 0
-1186 -1216 0
-1187 -1217 0
-1188 -1218 0
-1186 -1228 0
-1187 -1229 0
-1188 -1230 0
-1189 -1198 0
-1190 -1199 0
-1191 -1200 0
-1189 -1621 0
-1190 -1622 0
-1191 -1623 0
-1189 -1735 0
-1190 -1736 0
-1191 -1737 0
-1192 -1222 0
-1193 -1223 0
-1194 -1224 0
-1195 -1789 0
-1196 -1790 0
-1197 -1791 0
-1195 -1981 0
-1196 -1982 0
-1197 -1983 0
-1195 -1225 0
-1196 -1226 0
-1197 -1227 0
-1198 -1543 0
-1199 -1544 0
-1200 -1545 0
-1201 -1255 0
-1202 -1256 0
-1203 -1257 0
-1204 -1252 0
-1205 -1253 0
-1206 -1254 0
-1207 -1249 0
-1208 -1250 0
-1209 -1251 0
-1210 -1444 0
-1211 -1445 0
-1212 -1446 0
-1213 -1258 0
-1214 -1259 0
-1215 -1260 0
-1216 -1999 0
-1217 -2000 0
-1218 -2001 0
-1219 -1942 0
-1220 -1943 0
-1221 -1944 0
-1222 -2005 0
-1223 -2006 0
-1224 -2007 0
-1222 -1564 0
-1223 -1565 0
-1224 -1566 0
-1222 -1870 0
-1223 -1871 0
-1224 -1872 0
-1225 -1816 0
-1226 -1817 0
-1227 -1818 0
-1225 -1405 0
-1226 -1406 0
-1227 -1407 0
-1228 -1810 0
-1229 -1811 0
-1230 -1812 0
-1231 -1315 0
-1232 -1316 0
-1233 -1317 0
-1231 -1282 0
-1232 -1283 0
-1233 -1284 0
-1234 -1273 0
-1235 -1274 0
-1236 -1275 0
-1237 -1423 0
-1238 -1424 0
-1239 -1425 0
-1237 -1306 0
-1238 -1307 0
-1239 -1308 0
-1237 -1279 0
-1238 -1280 0
-1239 -1281 0
-1240 -1321 0
-1241 -1322 0
-1242 -1323 0
-1246 -1285 0
-1247 -1286 0
-1248 -1287 0
-1252 -1555 0
-1253 -1556 0
-1254 -1557 0
-1255 -1261 0
-1256 -1262 0
-1257 -1263 0
-1255 -1276 0
-1256 -1277 0
-1257 -1278 0
-1258 -1978 0
-1259 -1979 0
-1260 -1980 0
-1261 -1324 0
-1262 -1325 0
-1263 -1326 0
-1264 -1741 0
-1265 -1742 0
-1266 -1743 0
-1264 -1678 0
-1265 -1679 0
-1266 -1680 0
-1270 -1504 0
-1271 -1505 0
-1272 -1506 0
-1273 -1840 0
-1274 -1841 0
-1275 -1842 0
-1273 -1309 0
-1274 -1310 0
-1275 -1311 0
-1276 -1531 0
-1277 -1532 0
-1278 -1533 0
-1276 -1318 0
-1277 -1319 0
-1278 -1320 0
-1276 -1288 0
-1277 -1289 0
-1278 -1290 0
-1279 -1351 0
-1280 -1352 0
-1281 -1353 0
-1279 -1360 0
-1280 -1361 0
-1281 -1362 0
-1282 -1327 0
-1283 -1328 0
-1284 -1329 0
-1285 -1360 0
-1286 -1361 0
-1287 -1362 0
-1285 -1330 0
-1286 -1331 0
-1287 -1332 0
-1285 -1606 0
-1286 -1607 0
-1287 -1608 0
-1288 -1462 0
-1289 -1463 0
-1290 -1464 0
-1288 -1495 0
-1289 -1496 0
-1290 -1497 0
-1288 -1384 0
-1289 -1385 0
-1290 -1386 0
-1288 -1390 0
-1289 -1391 0
-1290 -1392 0
-1291 -1381 0
-1292 -1382 0
-1293 -1383 0
-1291 -1576 0
-1292 -1577 0
-1293 -1578 0
-1294 -1372 0
-1295 -1373 0
-1296 -1374 0
-1294 -1489 0
-1295 -1490 0
-1296 -1491 0
-1294 -1423 0
-1295 -1424 0
-1296 -1425 0
-1294 -1429 0
-1295 -1430 0
-1296 -1431 0
-1297 -1747 0
-1298 -1748 0
-1299 -1749 0
-1297 -1756 0
-1298 -1757 0
-1299 -1758 0
-1297 -1357 0
-1298 -1358 0
-1299 -1359 0
-1297 -1792 0
-1298 -1793 0
-1299 -1794 0
-1297 -1375 0
-1298 -1376 0
-1299 -1377 0
-1297 -1717 0
-1298 -1718 0
-1299 -1719 0
-1300 -1387 0
-1301 -1388 0
-1302 -1389 0
-1303 -1441 0
-1304 -1442 0
-1305 -1443 0
-1303 -1399 0
-1304 -1400 0
-1305 -1401 0
-1303 -1363 0
-1304 -1364 0
-1305 -1365 0
-1306 -1486 0
-1307 -1487 0
-1308 -1488 0
-1309 -1738 0
-1310 -1739 0
-1311 -1740 0
-1315 -1969 0
-1316 -1970 0
-1317 -1971 0
-1315 -1573 0
-1316 -1574 0
-1317 -1575 0
-1315 -1354 0
-1316 -1355 0
-1317 -1356 0
-1315 -1333 0
-1316 -1334 0
-1317 -1335 0
-1315 -1522 0
-1316 -1523 0
-1317 -1524 0
-1318 -1378 0
-1319 -1379 0
-1320 -1380 0
-1324 -1393 0
-1325 -1394 0
-1326 -1395 0
-1327 -1417 0
-1328 -1418 0
-1329 -1419 0
-1327 -1420 0
-1328 -1421 0
-1329 -1422 0
-1333 -1903 0
-1334 -1904 0
-1335 -1905 0
-1333 -1486 0
-1334 -1487 0
-1335 -1488 0
-1333 -1519 0
-1334 -1520 0
-1335 -1521 0
-1336 -1882 0
-1337 -1883 0
-1338 -1884 0
-1339 -1402 0
-1340 -1403 0
-1341 -1404 0
-1339 -1450 0
-1340 -1451 0
-1341 -1452 0
-1342 -1432 0
-1343 -1433 0
-1344 -1434 0
-1342 -1447 0
-1343 -1448 0
-1344 -1449 0
-1348 -1438 0
-1349 -1439 0
-1350 -1440 0
-1348 -1429 0
-1349 -1430 0
-1350 -1431 0
-1348 -1435 0
-1349 -1436 0
-1350 -1437 0
-1351 -1783 0
-1352 -1784 0
-1353 -1785 0
-1354 -1696 0
-1355 -1697 0
-1356 -1698 0
-1357 -2017 0
-1358 -2018 0
-1359 -2019 0
-1357 -1999 0
-1358 -2000 0
-1359 -2001 0
-1360 -1654 0
-1361 -1655 0
-1362 -1656 0
-1360 -1612 0
-1361 -1613 0
-1362 -1614 0
-1363 -1765 0
-1364 -1766 0
-1365 -1767 0
-1363 -1492 0
-1364 -1493 0
-1365 -1494 0
-1363 -1498 0
-1364 -1499 0
-1365 -1500 0
-1363 -1804 0
-1364 -1805 0
-1365 -1806 0
-1363 -1795 0
-1364 -1796 0
-1365 -1797 0
-1363 -1810 0
-1364 -1811 0
-1365 -1812 0
-1366 -1882 0
-1367 -1883 0
-1368 -1884 0
-1369 -1420 0
-1370 -1421 0
-1371 -1422 0
-1369 -1408 0
-1370 -1409 0
-1371 -1410 0
-1372 -1984 0
-1373 -1985 0
-1374 -1986 0
-1372 -1768 0
-1373 -1769 0
-1374 -1770 0
-1375 -1999 0
-1376 -2000 0
-1377 -2001 0
-1378 -1474 0
-1379 -1475 0
-1380 -1476 0
-1378 -1480 0
-1379 -1481 0
-1380 -1482 0
-1381 -1972 0
-1382 -1973 0
-1383 -1974 0
-1381 -1642 0
-1382 -1643 0
-1383 -1644 0
-1384 -1561 0
-1385 -1562 0
-1386 -1563 0
-1384 -1780 0
-1385 -1781 0
-1386 -1782 0
-1384 -1651 0
-1385 -1652 0
-1386 -1653 0
-1387 -1483 0
-1388 -1484 0
-1389 -1485 0
-1387 -1459 0
-1388 -1460 0
-1389 -1461 0
-1390 -1660 0
-1391 -1661 0
-1392 -1662 0
-1393 -1561 0
-1394 -1562 0
-1395 -1563 0
-1393 -1474 0
-1394 -1475 0
-1395 -1476 0
-1393 -1588 0
-1394 -1589 0
-1395 -1590 0
-1393 -1456 0
-1394 -1457 0
-1395 -1458 0
-1396 -1750 0
-1397 -1751 0
-1398 -1752 0
-1396 -1477 0
-1397 -1478 0
-1398 -1479 0
-1396 -1798 0
-1397 -1799 0
-1398 -1800 0
-1396 -1615 0
-1397 -1616 0
-1398 -1617 0
-1399 -1501 0
-1400 -1502 0
-1401 -1503 0
-1399 -1807 0
-1400 -1808 0
-1401 -1809 0
-1402 -1627 0
-1403 -1628 0
-1404 -1629 0
-1402 -1639 0
-1403 -1640 0
-1404 -1641 0
-1405 -1810 0
-1406 -1811 0
-1407 -1812 0
-1408 -1702 0
-1409 -1703 0
-1410 -1704 0
-1411 -1510 0
-1412 -1511 0
-1413 -1512 0
-1411 -1708 0
-1412 -1709 0
-1413 -1710 0
-1414 -1507 0
-1415 -1508 0
-1416 -1509 0
-1417 -1531 0
-1418 -1532 0
-1419 -1533 0
-1417 -1846 0
-1418 -1847 0
-1419 -1848 0
-1423 -1486 0
-1424 -1487 0
-1425 -1488 0
-1423 -1519 0
-1424 -1520 0
-1425 -1521 0
-1426 -1531 0
-1427 -1532 0
-1428 -1533 0
-1429 -1768 0
-1430 -1769 0
-1431 -1770 0
-1432 -1528 0
-1433 -1529 0
-1434 -1530 0
-1435 -1903 0
-1436 -1904 0
-1437 -1905 0
-1438 -1768 0
-1439 -1769 0
-1440 -1770 0
-1441 -1513 0
-1442 -1514 0
-1443 -1515 0
-1441 -1453 0
-1442 -1454 0
-1443 -1455 0
-1441 -1516 0
-1442 -1517 0
-1443 -1518 0
-1447 -1597 0
-1448 -1598 0
-1449 -1599 0
-1453 -1567 0
-1454 -1568 0
-1455 -1569 0
-1453 -1552 0
-1454 -1553 0
-1455 -1554 0
-1456 -1936 0
-1457 -1937 0
-1458 -1938 0
-1456 -1813 0
-1457 -1814 0
-1458 -1815 0
-1456 -1831 0
-1457 -1832 0
-1458 -1833 0
-1459 -1768 0
-1460 -1769 0
-1461 -1770 0
-1459 -1603 0
-1460 -1604 0
-1461 -1605 0
-1462 -1774 0
-1463 -1775 0
-1464 -1776 0
-1462 -1657 0
-1463 -1658 0
-1464 -1659 0
-1462 -1759 0
-1463 -1760 0
-1464 -1761 0
-1465 -1534 0
-1466 -1535 0
-1467 -1536 0
-1465 -1726 0
-1466 -1727 0
-1467 -1728 0
-1465 -1582 0
-1466 -1583 0
-1467 -1584 0
-1468 -1594 0
-1469 -1595 0
-1470 -1596 0
-1471 -1564 0
-1472 -1565 0
-1473 -1566 0
-1471 -1585 0
-1472 -1586 0
-1473 -1587 0
-1474 -2008 0
-1475 -2009 0
-1476 -2010 0
-1477 -1966 0
-1478 -1967 0
-1479 -1968 0
-1480 -1813 0
-1481 -1814 0
-1482 -1815 0
-1480 -1555 0
-1481 -1556 0
-1482 -1557 0
-1483 -1714 0
-1484 -1715 0
-1485 -1716 0
-1483 -1570 0
-1484 -1571 0
-1485 -1572 0
-1492 -1912 0
-1493 -1913 0
-1494 -1914 0
-1492 -1552 0
-1493 -1553 0
-1494 -1554 0
-1492 -1558 0
-1493 -1559 0
-1494 -1560 0
-1495 -1648 0
-1496 -1649 0
-1497 -1650 0
-1501 -1525 0
-1502 -1526 0
-1503 -1527 0
-1501 -1678 0
-1502 -1679 0
-1503 -1680 0
-1501 -1825 0
-1502 -1826 0
-1503 -1827 0
-1501 -1558 0
-1502 -1559 0
-1503 -1560 0
-1507 -1966 0
-1508 -1967 0
-1509 -1968 0
-1507 -1900 0
-1508 -1901 0
-1509 -1902 0
-1516 -1600 0
-1517 -1601 0
-1518 -1602 0
-1516 -1963 0
-1517 -1964 0
-1518 -1965 0
-1516 -1807 0
-1517 -1808 0
-1518 -1809 0
-1519 -1522 0
-1520 -1523 0
-1521 -1524 0
-1525 -1852 0
-1526 -1853 0
-1527 -1854 0
-1525 -1807 0
-1526 -1808 0
-1527 -1809 0
-1525 -1666 0
-1526 -1667 0
-1527 -1668 0
-1531 -1819 0
-1532 -1820 0
-1533 -1821 0
-1534 -1705 0
-1535 -1706 0
-1536 -1707 0
-1537 -1705 0
-1538 -1706 0
-1539 -1707 0
-1540 -1777 0
-1541 -1778 0
-1542 -1779 0
-1543 -1699 0
-1544 -1700 0
-1545 -1701 0
-1543 -1711 0
-1544 -1712 0
-1545 -1713 0
-1546 -1762 0
-1547 -1763 0
-1548 -1764 0
-1552 -1693 0
-1553 -1694 0
-1554 -1695 0
-1552 -1771 0
-1553 -1772 0
-1554 -1773 0
-1552 -1630 0
-1553 -1631 0
-1554 -1632 0
-1552 -1753 0
-1553 -1754 0
-1554 -1755 0
-1552 -1723 0
-1553 -1724 0
-1554 -1725 0
-1552 -1609 0
-1553 -1610 0
-1554 -1611 0
-1552 -1618 0
-1553 -1619 0
-1554 -1620 0
-1555 -1633 0
-1556 -1634 0
-1557 -1635 0
-1558 -1702 0
-1559 -1703 0
-1560 -1704 0
-1561 -1666 0
-1562 -1667 0
-1563 -1668 0
-1564 -1729 0
-1565 -1730 0
-1566 -1731 0
-1564 -1744 0
-1565 -1745 0
-1566 -1746 0
-1567 -1699 0
-1568 -1700 0
-1569 -1701 0
-1567 -1900 0
-1568 -1901 0
-1569 -1902 0
-1573 -1636 0
-1574 -1637 0
-1575 -1638 0
-1573 -1708 0
-1574 -1709 0
-1575 -1710 0
-1576 -1990 0
-1577 -1991 0
-1578 -1992 0
-1576 -1825 0
-1577 -1826 0
-1578 -1827 0
-1576 -2020 0
-1577 -2021 0
-1578 -2022 0
-1579 -1951 0
-1580 -1952 0
-1581 -1953 0
-1585 -1624 0
-1586 -1625 0
-1587 -1626 0
-1588 -1678 0
-1589 -1679 0
-1590 -1680 0
-1591 -1615 0
-1592 -1616 0
-1593 -1617 0
-1597 -1645 0
-1598 -1646 0
-1599 -1647 0
-1600 -1609 0
-1601 -1610 0
-1602 -1611 0
-1600 -1786 0
-1601 -1787 0
-1602 -1788 0
-1603 -1828 0
-1604 -1829 0
-1605 -1830 0
-1606 -1831 0
-1607 -1832 0
-1608 -1833 0
-1618 -1954 0
-1619 -1955 0
-1620 -1956 0
-1621 -1849 0
-1622 -1850 0
-1623 -1851 0
-1630 -1993 0
-1631 -1994 0
-1632 -1995 0
-1639 -1777 0
-1640 -1778 0
-1641 -1779 0
-1642 -1999 0
-1643 -2000 0
-1644 -2001 0
-1651 -1879 0
-1652 -1880 0
-1653 -1881 0
-1672 -1972 0
-1673 -1973 0
-1674 -1974 0
-1675 -1975 0
-1676 -1976 0
-1677 -1977 0
-1678 -1684 0
-1679 -1685 0
-1680 -1686 0
-1684 -1891 0
-1685 -1892 0
-1686 -1893 0
-1687 -1834 0
-1688 -1835 0
-1689 -1836 0
-1690 -1861 0
-1691 -1862 0
-1692 -1863 0
-1693 -1933 0
-1694 -1934 0
-1695 -1935 0
-1699 -1732 0
-1700 -1733 0
-1701 -1734 0
-1705 -1837 0
-1706 -1838 0
-1707 -1839 0
-1705 -1876 0
-1706 -1877 0
-1707 -1878 0
-1705 -1987 0
-1706 -1988 0
-1707 -1989 0
-1705 -1843 0
-1706 -1844 0
-1707 -1845 0
-1705 -1945 0
-1706 -1946 0
-1707 -1947 0
-1711 -1822 0
-1712 -1823 0
-1713 -1824 0
-1714 -1819 0
-1715 -1820 0
-1716 -1821 0
-1717 -1933 0
-1718 -1934 0
-1719 -1935 0
-1720 -1963 0
-1721 -1964 0
-1722 -1965 0
-1720 -1855 0
-1721 -1856 0
-1722 -1857 0
-1726 -1741 0
-1727 -1742 0
-1728 -1743 0
-1729 -2002 0
-1730 -2003 0
-1731 -2004 0
-1732 -1858 0
-1733 -1859 0
-1734 -1860 0
-1735 -1939 0
-1736 -1940 0
-1737 -1941 0
-1735 -1960 0
-1736 -1961 0
-1737 -1962 0
-1738 -1864 0
-1739 -1865 0
-1740 -1866 0
-1744 -2011 0
-1745 -2012 0
-1746 -2013 0
-1750 -1891 0
-1751 -1892 0
-1752 -1893 0
-1756 -1822 0
-1757 -1823 0
-1758 -1824 0
-1756 -1873 0
-1757 -1874 0
-1758 -1875 0
-1759 -1948 0
-1760 -1949 0
-1761 -1950 0
-1762 -1939 0
-1763 -1940 0
-1764 -1941 0
-1771 -1912 0
-1772 -1913 0
-1773 -1914 0
-1774 -1888 0
-1775 -1889 0
-1776 -1890 0
-1774 -1957 0
-1775 -1958 0
-1776 -1959 0
-1780 -2014 0
-1781 -2015 0
-1782 -2016 0
-1780 -1915 0
-1781 -1916 0
-1782 -1917 0
-1783 -1810 0
-1784 -1811 0
-1785 -1812 0
-1786 -1954 0
-1787 -1955 0
-1788 -1956 0
-1786 -1807 0
-1787 -1808 0
-1788 -1809 0
-1786 -1945 0
-1787 -1946 0
-1788 -1947 0
-1795 -1981 0
-1796 -1982 0
-1797 -1983 0
-1801 -1969 0
-1802 -1970 0
-1803 -1971 0
-1804 -1981 0
-1805 -1982 0
-1806 -1983 0
-1810 -1816 0
-1811 -1817 0
-1812 -1818 0
-1834 -1879 0
-1835 -1880 0
-1836 -1881 0
-1837 -1921 0
-1838 -1922 0
-1839 -1923 0
-1864 -1948 0
-1865 -1949 0
-1866 -1950 0
-1864 -1879 0
-1865 -1880 0
-1866 -1881 0
-1903 -1996 0
-1904 -1997 0
-1905 -1998 0
-1927 -1981 0
-1928 -1982 0
-1929 -1983 0
-1936 -1987 0
-1937 -1988 0
-1938 -1989 0
-1939 -2002 0
-1940 -2003 0
-1941 -2004 0
-1960 -2002 0
-1961 -2003 0
-1962 -2004 0
1 0
125 0
