p cnf 2694 7611
1 2 3 0
4 5 6 0
7 8 9 0
10 11 12 0
13 14 15 0
16 17 18 0
19 20 21 0
22 23 24 0
25 26 27 0
28 29 30 0
31 32 33 0
34 35 36 0
37 38 39 0
40 41 42 0
43 44 45 0
46 47 48 0
49 50 51 0
52 53 54 0
55 56 57 0
58 59 60 0
61 62 63 0
64 65 66 0
67 68 69 0
70 71 72 0
73 74 75 0
76 77 78 0
79 80 81 0
82 83 84 0
85 86 87 0
88 89 90 0
91 92 93 0
94 95 96 0
97 98 99 0
100 101 102 0
103 104 105 0
106 107 108 0
109 110 111 0
112 113 114 0
115 116 117 0
118 119 120 0
121 122 123 0
124 125 126 0
127 128 129 0
130 131 132 0
133 134 135 0
136 137 138 0
139 140 141 0
142 143 144 0
145 146 147 0
148 149 150 0
151 152 153 0
154 155 156 0
157 158 159 0
160 161 162 0
163 164 165 0
166 167 168 0
169 170 171 0
172 173 174 0
175 176 177 0
178 179 180 0
181 182 183 0
184 185 186 0
187 188 189 0
190 191 192 0
193 194 195 0
196 197 198 0
199 200 201 0
202 203 204 0
205 206 207 0
208 209 210 0
211 212 213 0
214 215 216 0
217 218 219 0
220 221 222 0
223 224 225 0
226 227 228 0
229 230 231 0
232 233 234 0
235 236 237 0
238 239 240 0
241 242 243 0
244 245 246 0
247 248 249 0
250 251 252 0
253 254 255 0
256 257 258 0
259 260 261 0
262 263 264 0
265 266 267 0
268 269 270 0
271 272 273 0
274 275 276 0
277 278 279 0
280 281 282 0
283 284 285 0
286 287 288 0
289 290 291 0
292 293 294 0
295 296 297 0
298 299 300 0
301 302 303 0
304 305 306 0
307 308 309 0
310 311 312 0
313 314 315 0
316 317 318 0
319 320 321 0
322 323 324 0
325 326 327 0
328 329 330 0
331 332 333 0
334 335 336 0
337 338 339 0
340 341 342 0
343 344 345 0
346 347 348 0
349 350 351 0
352 353 354 0
355 356 357 0
358 359 360 0
361 362 363 0
364 365 366 0
367 368 369 0
370 371 372 0
373 374 375 0
376 377 378 0
379 380 381 0
382 383 384 0
385 386 387 0
388 389 390 0
391 392 393 0
394 395 396 0
397 398 399 0
400 401 402 0
403 404 405 0
406 407 408 0
409 410 411 0
412 413 414 0
415 416 417 0
418 419 420 0
421 422 423 0
424 425 426 0
427 428 429 0
430 431 432 0
433 434 435 0
436 437 438 0
439 440 441 0
442 443 444 0
445 446 447 0
448 449 450 0
451 452 453 0
454 455 456 0
457 458 459 0
460 461 462 0
463 464 465 0
466 467 468 0
469 470 471 0
472 473 474 0
475 476 477 0
478 479 480 0
481 482 483 0
484 485 486 0
487 488 489 0
490 491 492 0
493 494 495 0
496 497 498 0
499 500 501 0
502 503 504 0
505 506 507 0
508 509 510 0
511 512 513 0
514 515 516 0
517 518 519 0
520 521 522 0
523 524 525 0
526 527 528 0
529 530 531 0
532 533 534 0
535 536 537 0
538 539 540 0
541 542 543 0
544 545 546 0
547 548 549 0
550 551 552 0
553 554 555 0
556 557 558 0
559 560 561 0
562 563 564 0
565 566 567 0
568 569 570 0
571 572 573 0
574 575 576 0
577 578 579 0
580 581 582 0
583 584 585 0
586 587 588 0
589 590 591 0
592 593 594 0
595 596 597 0
598 599 600 0
601 602 603 0
604 605 606 0
607 608 609 0
610 611 612 0
613 614 615 0
616 617 618 0
619 620 621 0
622 623 624 0
625 626 627 0
628 629 630 0
631 632 633 0
634 635 636 0
637 638 639 0
640 641 642 0
643 644 645 0
646 647 648 0
649 650 651 0
652 653 654 0
655 656 657 0
658 659 660 0
661 662 663 0
664 665 666 0
667 668 669 0
670 671 672 0
673 674 675 0
676 677 678 0
679 680 681 0
682 683 684 0
685 686 687 0
688 689 690 0
691 692 693 0
694 695 696 0
697 698 699 0
700 701 702 0
703 704 705 0
706 707 708 0
709 710 711 0
712 713 714 0
715 716 717 0
718 719 720 0
721 722 723 0
724 725 726 0
727 728 729 0
730 731 732 0
733 734 735 0
736 737 738 0
739 740 741 0
742 743 744 0
745 746 747 0
748 749 750 0
751 752 753 0
754 755 756 0
757 758 759 0
760 761 762 0
763 764 765 0
766 767 768 0
769 770 771 0
772 773 774 0
775 776 777 0
778 779 780 0
781 782 783 0
784 785 786 0
787 788 789 0
790 791 792 0
793 794 795 0
796 797 798 0
799 800 801 0
802 803 804 0
805 806 807 0
808 809 810 0
811 812 813 0
814 815 816 0
817 818 819 0
820 821 822 0
823 824 825 0
826 827 828 0
829 830 831 0
832 833 834 0
835 836 837 0
838 839 840 0
841 842 843 0
844 845 846 0
847 848 849 0
850 851 852 0
853 854 855 0
856 857 858 0
859 860 861 0
862 863 864 0
865 866 867 0
868 869 870 0
871 872 873 0
874 875 876 0
877 878 879 0
880 881 882 0
883 884 885 0
886 887 888 0
889 890 891 0
892 893 894 0
895 896 897 0
898 899 900 0
901 902 903 0
904 905 906 0
907 908 909 0
910 911 912 0
913 914 915 0
916 917 918 0
919 920 921 0
922 923 924 0
925 926 927 0
928 929 930 0
931 932 933 0
934 935 936 0
937 938 939 0
940 941 942 0
943 944 945 0
946 947 948 0
949 950 951 0
952 953 954 0
955 956 957 0
958 959 960 0
961 962 963 0
964 965 966 0
967 968 969 0
970 971 972 0
973 974 975 0
976 977 978 0
979 980 981 0
982 983 984 0
985 986 987 0
988 989 990 0
991 992 993 0
994 995 996 0
997 998 999 0
1000 1001 1002 0
1003 1004 1005 0
1006 1007 1008 0
1009 1010 1011 0
1012 1013 1014 0
1015 1016 1017 0
1018 1019 1020 0
1021 1022 1023 0
1024 1025 1026 0
1027 1028 1029 0
1030 1031 1032 0
1033 1034 1035 0
1036 1037 1038 0
1039 1040 1041 0
1042 1043 1044 0
1045 1046 1047 0
1048 1049 1050 0
1051 1052 1053 0
1054 1055 1056 0
1057 1058 1059 0
1060 1061 1062 0
1063 1064 1065 0
1066 1067 1068 0
1069 1070 1071 0
1072 1073 1074 0
1075 1076 1077 0
1078 1079 1080 0
1081 1082 1083 0
1084 1085 1086 0
1087 1088 1089 0
1090 1091 1092 0
1093 1094 1095 0
1096 1097 1098 0
1099 1100 1101 0
1102 1103 1104 0
1105 1106 1107 0
1108 1109 1110 0
1111 1112 1113 0
1114 1115 1116 0
1117 1118 1119 0
1120 1121 1122 0
1123 1124 1125 0
1126 1127 1128 0
1129 1130 1131 0
1132 1133 1134 0
1135 1136 1137 0
1138 1139 1140 0
1141 1142 1143 0
1144 1145 1146 0
1147 1148 1149 0
1150 1151 1152 0
1153 1154 1155 0
1156 1157 1158 0
1159 1160 1161 0
1162 1163 1164 0
1165 1166 1167 0
1168 1169 1170 0
1171 1172 1173 0
1174 1175 1176 0
1177 1178 1179 0
1180 1181 1182 0
1183 1184 1185 0
1186 1187 1188 0
1189 1190 1191 0
1192 1193 1194 0
1195 1196 1197 0
1198 1199 1200 0
1201 1202 1203 0
1204 1205 1206 0
1207 1208 1209 0
1210 1211 1212 0
1213 1214 1215 0
1216 1217 1218 0
1219 1220 1221 0
1222 1223 1224 0
1225 1226 1227 0
1228 1229 1230 0
1231 1232 1233 0
1234 1235 1236 0
1237 1238 1239 0
1240 1241 1242 0
1243 1244 1245 0
1246 1247 1248 0
1249 1250 1251 0
1252 1253 1254 0
1255 1256 1257 0
1258 1259 1260 0
1261 1262 1263 0
1264 1265 1266 0
1267 1268 1269 0
1270 1271 1272 0
1273 1274 1275 0
1276 1277 1278 0
1279 1280 1281 0
1282 1283 1284 0
1285 1286 1287 0
1288 1289 1290 0
1291 1292 1293 0
1294 1295 1296 0
1297 1298 1299 0
1300 1301 1302 0
1303 1304 1305 0
1306 1307 1308 0
1309 1310 1311 0
1312 1313 1314 0
1315 1316 1317 0
1318 1319 1320 0
1321 1322 1323 0
1324 1325 1326 0
1327 1328 1329 0
1330 1331 1332 0
1333 1334 1335 0
1336 1337 1338 0
1339 1340 1341 0
1342 1343 1344 0
1345 1346 1347 0
1348 1349 1350 0
1351 1352 1353 0
1354 1355 1356 0
1357 1358 1359 0
1360 1361 1362 0
1363 1364 1365 0
1366 1367 1368 0
1369 1370 1371 0
1372 1373 1374 0
1375 1376 1377 0
1378 1379 1380 0
1381 1382 1383 0
1384 1385 1386 0
1387 1388 1389 0
1390 1391 1392 0
1393 1394 1395 0
1396 1397 1398 0
1399 1400 1401 0
1402 1403 1404 0
1405 1406 1407 0
1408 1409 1410 0
1411 1412 1413 0
1414 1415 1416 0
1417 1418 1419 0
1420 1421 1422 0
1423 1424 1425 0
1426 1427 1428 0
1429 1430 1431 0
1432 1433 1434 0
1435 1436 1437 0
1438 1439 1440 0
1441 1442 1443 0
1444 1445 1446 0
1447 1448 1449 0
1450 1451 1452 0
1453 1454 1455 0
1456 1457 1458 0
1459 1460 1461 0
1462 1463 1464 0
1465 1466 1467 0
1468 1469 1470 0
1471 1472 1473 0
1474 1475 1476 0
1477 1478 1479 0
1480 1481 1482 0
1483 1484 1485 0
1486 1487 1488 0
1489 1490 1491 0
1492 1493 1494 0
1495 1496 1497 0
1498 1499 1500 0
1501 1502 1503 0
1504 1505 1506 0
1507 1508 1509 0
1510 1511 1512 0
1513 1514 1515 0
1516 1517 1518 0
1519 1520 1521 0
1522 1523 1524 0
1525 1526 1527 0
1528 1529 1530 0
1531 1532 1533 0
1534 1535 1536 0
1537 1538 1539 0
1540 1541 1542 0
1543 1544 1545 0
1546 1547 1548 0
1549 1550 1551 0
1552 1553 1554 0
1555 1556 1557 0
1558 1559 1560 0
1561 1562 1563 0
1564 1565 1566 0
1567 1568 1569 0
1570 1571 1572 0
1573 1574 1575 0
1576 1577 1578 0
1579 1580 1581 0
1582 1583 1584 0
1585 1586 1587 0
1588 1589 1590 0
1591 1592 1593 0
1594 1595 1596 0
1597 1598 1599 0
1600 1601 1602 0
1603 1604 1605 0
1606 1607 1608 0
1609 1610 1611 0
1612 1613 1614 0
1615 1616 1617 0
1618 1619 1620 0
1621 1622 1623 0
1624 1625 1626 0
1627 1628 1629 0
1630 1631 1632 0
1633 1634 1635 0
1636 1637 1638 0
1639 1640 1641 0
1642 1643 1644 0
1645 1646 1647 0
1648 1649 1650 0
1651 1652 1653 0
1654 1655 1656 0
1657 1658 1659 0
1660 1661 1662 0
1663 1664 1665 0
1666 1667 1668 0
1669 1670 1671 0
1672 1673 1674 0
1675 1676 1677 0
1678 1679 1680 0
1681 1682 1683 0
1684 1685 1686 0
1687 1688 1689 0
1690 1691 1692 0
1693 1694 1695 0
1696 1697 1698 0
1699 1700 1701 0
1702 1703 1704 0
1705 1706 1707 0
1708 1709 1710 0
1711 1712 1713 0
1714 1715 1716 0
1717 1718 1719 0
1720 1721 1722 0
1723 1724 1725 0
1726 1727 1728 0
1729 1730 1731 0
1732 1733 1734 0
1735 1736 1737 0
1738 1739 1740 0
1741 1742 1743 0
1744 1745 1746 0
1747 1748 1749 0
1750 1751 1752 0
1753 1754 1755 0
1756 1757 1758 0
1759 1760 1761 0
1762 1763 1764 0
1765 1766 1767 0
1768 1769 1770 0
1771 1772 1773 0
1774 1775 1776 0
1777 1778 1779 0
1780 1781 1782 0
1783 1784 1785 0
1786 1787 1788 0
1789 1790 1791 0
1792 1793 1794 0
1795 1796 1797 0
1798 1799 1800 0
1801 1802 1803 0
1804 1805 1806 0
1807 1808 1809 0
1810 1811 1812 0
1813 1814 1815 0
1816 1817 1818 0
1819 1820 1821 0
1822 1823 1824 0
1825 1826 1827 0
1828 1829 1830 0
1831 1832 1833 0
1834 1835 1836 0
1837 1838 1839 0
1840 1841 1842 0
1843 1844 1845 0
1846 1847 1848 0
1849 1850 1851 0
1852 1853 1854 0
1855 1856 1857 0
1858 1859 1860 0
1861 1862 1863 0
1864 1865 1866 0
1867 1868 1869 0
1870 1871 1872 0
1873 1874 1875 0
1876 1877 1878 0
1879 1880 1881 0
1882 1883 1884 0
1885 1886 1887 0
1888 1889 1890 0
1891 1892 1893 0
1894 1895 1896 0
1897 1898 1899 0
1900 1901 1902 0
1903 1904 1905 0
1906 1907 1908 0
1909 1910 1911 0
1912 1913 1914 0
1915 1916 1917 0
1918 1919 1920 0
1921 1922 1923 0
1924 1925 1926 0
1927 1928 1929 0
1930 1931 1932 0
1933 1934 1935 0
1936 1937 1938 0
1939 1940 1941 0
1942 1943 1944 0
1945 1946 1947 0
1948 1949 1950 0
1951 1952 1953 0
1954 1955 1956 0
1957 1958 1959 0
1960 1961 1962 0
1963 1964 1965 0
1966 1967 1968 0
1969 1970 1971 0
1972 1973 1974 0
1975 1976 1977 0
1978 1979 1980 0
1981 1982 1983 0
1984 1985 1986 0
1987 1988 1989 0
1990 1991 1992 0
1993 1994 1995 0
1996 1997 1998 0
1999 2000 2001 0
2002 2003 2004 0
2005 2006 2007 0
2008 2009 2010 0
2011 2012 2013 0
2014 2015 2016 0
2017 2018 2019 0
2020 2021 2022 0
2023 2024 2025 0
2026 2027 2028 0
2029 2030 2031 0
2032 2033 2034 0
2035 2036 2037 0
2038 2039 2040 0
2041 2042 2043 0
2044 2045 2046 0
2047 2048 2049 0
2050 2051 2052 0
2053 2054 2055 0
2056 2057 2058 0
2059 2060 2061 0
2062 2063 2064 0
2065 2066 2067 0
2068 2069 2070 0
2071 2072 2073 0
2074 2075 2076 0
2077 2078 2079 0
2080 2081 2082 0
2083 2084 2085 0
2086 2087 2088 0
2089 2090 2091 0
2092 2093 2094 0
2095 2096 2097 0
2098 2099 2100 0
2101 2102 2103 0
2104 2105 2106 0
2107 2108 2109 0
2110 2111 2112 0
2113 2114 2115 0
2116 2117 2118 0
2119 2120 2121 0
2122 2123 2124 0
2125 2126 2127 0
2128 2129 2130 0
2131 2132 2133 0
2134 2135 2136 0
2137 2138 2139 0
2140 2141 2142 0
2143 2144 2145 0
2146 2147 2148 0
2149 2150 2151 0
2152 2153 2154 0
2155 2156 2157 0
2158 2159 2160 0
2161 2162 2163 0
2164 2165 2166 0
2167 2168 2169 0
2170 2171 2172 0
2173 2174 2175 0
2176 2177 2178 0
2179 2180 2181 0
2182 2183 2184 0
2185 2186 2187 0
2188 2189 2190 0
2191 2192 2193 0
2194 2195 2196 0
2197 2198 2199 0
2200 2201 2202 0
2203 2204 2205 0
2206 2207 2208 0
2209 2210 2211 0
2212 2213 2214 0
2215 2216 2217 0
2218 2219 2220 0
2221 2222 2223 0
2224 2225 2226 0
2227 2228 2229 0
2230 2231 2232 0
2233 2234 2235 0
2236 2237 2238 0
2239 2240 2241 0
2242 2243 2244 0
2245 2246 2247 0
2248 2249 2250 0
2251 2252 2253 0
2254 2255 2256 0
2257 2258 2259 0
2260 2261 2262 0
2263 2264 2265 0
2266 2267 2268 0
2269 2270 2271 0
2272 2273 2274 0
2275 2276 2277 0
2278 2279 2280 0
2281 2282 2283 0
2284 2285 2286 0
2287 2288 2289 0
2290 2291 2292 0
2293 2294 2295 0
2296 2297 2298 0
2299 2300 2301 0
2302 2303 2304 0
2305 2306 2307 0
2308 2309 2310 0
2311 2312 2313 0
2314 2315 2316 0
2317 2318 2319 0
2320 2321 2322 0
2323 2324 2325 0
2326 2327 2328 0
2329 2330 2331 0
2332 2333 2334 0
2335 2336 2337 0
2338 2339 2340 0
2341 2342 2343 0
2344 2345 2346 0
2347 2348 2349 0
2350 2351 2352 0
2353 2354 2355 0
2356 2357 2358 0
2359 2360 2361 0
2362 2363 2364 0
2365 2366 2367 0
2368 2369 2370 0
2371 2372 2373 0
2374 2375 2376 0
2377 2378 2379 0
2380 2381 2382 0
2383 2384 2385 0
2386 2387 2388 0
2389 2390 2391 0
2392 2393 2394 0
2395 2396 2397 0
2398 2399 2400 0
2401 2402 2403 0
2404 2405 2406 0
2407 2408 2409 0
2410 2411 2412 0
2413 2414 2415 0
2416 2417 2418 0
2419 2420 2421 0
2422 2423 2424 0
2425 2426 2427 0
2428 2429 2430 0
2431 2432 2433 0
2434 2435 2436 0
2437 2438 2439 0
2440 2441 2442 0
2443 2444 2445 0
2446 2447 2448 0
2449 2450 2451 0
2452 2453 2454 0
2455 2456 2457 0
2458 2459 2460 0
2461 2462 2463 0
2464 2465 2466 0
2467 2468 2469 0
2470 2471 2472 0
2473 2474 2475 0
2476 2477 2478 0
2479 2480 2481 0
2482 2483 2484 0
2485 2486 2487 0
2488 2489 2490 0
2491 2492 2493 0
2494 2495 2496 0
2497 2498 2499 0
2500 2501 2502 0
2503 2504 2505 0
2506 2507 2508 0
2509 2510 2511 0
2512 2513 2514 0
2515 2516 2517 0
2518 2519 2520 0
2521 2522 2523 0
2524 2525 2526 0
2527 2528 2529 0
2530 2531 2532 0
2533 2534 2535 0
2536 2537 2538 0
2539 2540 2541 0
2542 2543 2544 0
2545 2546 2547 0
2548 2549 2550 0
2551 2552 2553 0
2554 2555 2556 0
2557 2558 2559 0
2560 2561 2562 0
2563 2564 2565 0
2566 2567 2568 0
2569 2570 2571 0
2572 2573 2574 0
2575 2576 2577 0
2578 2579 2580 0
2581 2582 2583 0
2584 2585 2586 0
2587 2588 2589 0
2590 2591 2592 0
2593 2594 2595 0
2596 2597 2598 0
2599 2600 2601 0
2602 2603 2604 0
2605 2606 2607 0
2608 2609 2610 0
2611 2612 2613 0
2614 2615 2616 0
2617 2618 2619 0
2620 2621 2622 0
2623 2624 2625 0
2626 2627 2628 0
2629 2630 2631 0
2632 2633 2634 0
2635 2636 2637 0
2638 2639 2640 0
2641 2642 2643 0
2644 2645 2646 0
2647 2648 2649 0
2650 2651 2652 0
2653 2654 2655 0
2656 2657 2658 0
2659 2660 2661 0
2662 2663 2664 0
2665 2666 2667 0
2668 2669 2670 0
2671 2672 2673 0
2674 2675 2676 0
2677 2678 2679 0
2680 2681 2682 0
2683 2684 2685 0
2686 2687 2688 0
2689 2690 2691 0
2692 2693 2694 0
-1 -1153 0
-2 -1154 0
-3 -1155 0
-1 -217 0
-2 -218 0
-3 -219 0
-1 -2218 0
-2 -2219 0
-3 -2220 0
-1 -1897 0
-2 -1898 0
-3 -1899 0
-1 -124 0
-2 -125 0
-3 -126 0
-4 -220 0
-5 -221 0
-6 -222 0
-4 -1804 0
-5 -1805 0
-6 -1806 0
-4 -130 0
-5 -131 0
-6 -132 0
-4 -1810 0
-5 -1811 0
-6 -1812 0
-4 -1345 0
-5 -1346 0
-6 -1347 0
-7 -2233 0
-8 -2234 0
-9 -2235 0
-7 -169 0
-8 -170 0
-9 -171 0
-7 -220 0
-8 -221 0
-9 -222 0
-7 -1405 0
-8 -1406 0
-9 -1407 0
-7 -2224 0
-8 -2225 0
-9 -2226 0
-10 -160 0
-11 -161 0
-12 -162 0
-10 -1447 0
-11 -1448 0
-12 -1449 0
-10 -244 0
-11 -245 0
-12 -246 0
-10 -1399 0
-11 -1400 0
-12 -1401 0
-13 -1930 0
-14 -1931 0
-15 -1932 0
-13 -280 0
-14 -281 0
-15 -282 0
-13 -124 0
-14 -125 0
-15 -126 0
-16 -1879 0
-17 -1880 0
-18 -1881 0
-16 -2215 0
-17 -2216 0
-18 -2217 0
-16 -220 0
-17 -221 0
-18 -222 0
-16 -217 0
-17 -218 0
-18 -219 0
-16 -2104 0
-17 -2105 0
-18 -2106 0
-19 -286 0
-20 -287 0
-21 -288 0
-19 -1405 0
-20 -1406 0
-21 -1407 0
-19 -133 0
-20 -134 0
-21 -135 0
-19 -1402 0
-20 -1403 0
-21 -1404 0
-22 -154 0
-23 -155 0
-24 -156 0
-22 -283 0
-23 -284 0
-24 -285 0
-22 -1399 0
-23 -1400 0
-24 -1401 0
-25 -157 0
-26 -158 0
-27 -159 0
-25 -331 0
-26 -332 0
-27 -333 0
-25 -2317 0
-26 -2318 0
-27 -2319 0
-28 -205 0
-29 -206 0
-30 -207 0
-28 -286 0
-29 -287 0
-30 -288 0
-28 -2569 0
-29 -2570 0
-30 -2571 0
-28 -1702 0
-29 -1703 0
-30 -1704 0
-28 -1639 0
-29 -1640 0
-30 -1641 0
-31 -2269 0
-32 -2270 0
-33 -2271 0
-31 -214 0
-32 -215 0
-33 -216 0
-31 -286 0
-32 -287 0
-33 -288 0
-31 -2221 0
-32 -2222 0
-33 -2223 0
-31 -2404 0
-32 -2405 0
-33 -2406 0
-34 -1879 0
-35 -1880 0
-36 -1881 0
-34 -1519 0
-35 -1520 0
-36 -1521 0
-34 -217 0
-35 -218 0
-36 -219 0
-34 -295 0
-35 -296 0
-36 -297 0
-34 -2503 0
-35 -2504 0
-36 -2505 0
-37 -226 0
-38 -227 0
-39 -228 0
-37 -286 0
-38 -287 0
-39 -288 0
-37 -1813 0
-38 -1814 0
-39 -1815 0
-37 -1702 0
-38 -1703 0
-39 -1704 0
-37 -2101 0
-38 -2102 0
-39 -2103 0
-40 -1879 0
-41 -1880 0
-42 -1881 0
-40 -1828 0
-41 -1829 0
-42 -1830 0
-40 -1408 0
-41 -1409 0
-42 -1410 0
-40 -220 0
-41 -221 0
-42 -222 0
-40 -1894 0
-41 -1895 0
-42 -1896 0
-40 -1900 0
-41 -1901 0
-42 -1902 0
-40 -1312 0
-41 -1313 0
-42 -1314 0
-40 -295 0
-41 -296 0
-42 -297 0
-40 -2257 0
-41 -2258 0
-42 -2259 0
-40 -1510 0
-41 -1511 0
-42 -1512 0
-40 -1513 0
-41 -1514 0
-42 -1515 0
-43 -2287 0
-44 -2288 0
-45 -2289 0
-43 -220 0
-44 -221 0
-45 -222 0
-43 -2173 0
-44 -2174 0
-45 -2175 0
-43 -322 0
-44 -323 0
-45 -324 0
-46 -220 0
-47 -221 0
-48 -222 0
-46 -2566 0
-47 -2567 0
-48 -2568 0
-46 -343 0
-47 -344 0
-48 -345 0
-46 -1579 0
-47 -1580 0
-48 -1581 0
-49 -226 0
-50 -227 0
-51 -228 0
-49 -2329 0
-50 -2330 0
-51 -2331 0
-49 -343 0
-50 -344 0
-51 -345 0
-49 -2314 0
-50 -2315 0
-51 -2316 0
-49 -1996 0
-50 -1997 0
-51 -1998 0
-52 -1666 0
-53 -1667 0
-54 -1668 0
-52 -247 0
-53 -248 0
-54 -249 0
-52 -274 0
-53 -275 0
-54 -276 0
-52 -1918 0
-53 -1919 0
-54 -1920 0
-55 -1882 0
-56 -1883 0
-57 -1884 0
-55 -277 0
-56 -278 0
-57 -279 0
-55 -244 0
-56 -245 0
-57 -246 0
-55 -1288 0
-56 -1289 0
-57 -1290 0
-55 -1399 0
-56 -1400 0
-57 -1401 0
-58 -1522 0
-59 -1523 0
-60 -1524 0
-58 -241 0
-59 -242 0
-60 -243 0
-58 -1468 0
-59 -1469 0
-60 -1470 0
-58 -2656 0
-59 -2657 0
-60 -2658 0
-58 -280 0
-59 -281 0
-60 -282 0
-61 -1450 0
-62 -1451 0
-63 -1452 0
-61 -1399 0
-62 -1400 0
-63 -1401 0
-61 -238 0
-62 -239 0
-63 -240 0
-61 -1477 0
-62 -1478 0
-63 -1479 0
-61 -283 0
-62 -284 0
-63 -285 0
-61 -1657 0
-62 -1658 0
-63 -1659 0
-61 -2266 0
-62 -2267 0
-63 -2268 0
-64 -169 0
-65 -170 0
-66 -171 0
-64 -1171 0
-65 -1172 0
-66 -1173 0
-64 -2170 0
-65 -2171 0
-66 -2172 0
-64 -1165 0
-65 -1166 0
-66 -1167 0
-67 -208 0
-68 -209 0
-69 -210 0
-67 -361 0
-68 -362 0
-69 -363 0
-67 -1375 0
-68 -1376 0
-69 -1377 0
-67 -1453 0
-68 -1454 0
-69 -1455 0
-70 -1927 0
-71 -1928 0
-72 -1929 0
-70 -361 0
-71 -362 0
-72 -363 0
-70 -220 0
-71 -221 0
-72 -222 0
-70 -1372 0
-71 -1373 0
-72 -1374 0
-73 -2065 0
-74 -2066 0
-75 -2067 0
-73 -2215 0
-74 -2216 0
-75 -2217 0
-73 -220 0
-74 -221 0
-75 -222 0
-73 -370 0
-74 -371 0
-75 -372 0
-76 -226 0
-77 -227 0
-78 -228 0
-76 -2383 0
-77 -2384 0
-78 -2385 0
-76 -376 0
-77 -377 0
-78 -378 0
-79 -1828 0
-80 -1829 0
-81 -1830 0
-79 -1303 0
-80 -1304 0
-81 -1305 0
-79 -220 0
-80 -221 0
-81 -222 0
-82 -1882 0
-83 -1883 0
-84 -1884 0
-82 -277 0
-83 -278 0
-84 -279 0
-82 -2656 0
-83 -2657 0
-84 -2658 0
-82 -280 0
-83 -281 0
-84 -282 0
-85 -1573 0
-86 -1574 0
-87 -1575 0
-85 -1837 0
-86 -1838 0
-87 -1839 0
-85 -274 0
-86 -275 0
-87 -276 0
-85 -1657 0
-86 -1658 0
-87 -1659 0
-85 -283 0
-86 -284 0
-87 -285 0
-88 -1747 0
-89 -1748 0
-90 -1749 0
-88 -1411 0
-89 -1412 0
-90 -1413 0
-88 -2512 0
-89 -2513 0
-90 -2514 0
-88 -280 0
-89 -281 0
-90 -282 0
-88 -331 0
-89 -332 0
-90 -333 0
-91 -2464 0
-92 -2465 0
-93 -2466 0
-91 -1150 0
-92 -1151 0
-93 -1152 0
-91 -343 0
-92 -344 0
-93 -345 0
-91 -274 0
-92 -275 0
-93 -276 0
-91 -2179 0
-92 -2180 0
-93 -2181 0
-94 -286 0
-95 -287 0
-96 -288 0
-94 -2458 0
-95 -2459 0
-96 -2460 0
-94 -2227 0
-95 -2228 0
-96 -2229 0
-94 -331 0
-95 -332 0
-96 -333 0
-97 -1903 0
-98 -1904 0
-99 -1905 0
-97 -1912 0
-98 -1913 0
-99 -1914 0
-97 -295 0
-98 -296 0
-99 -297 0
-97 -322 0
-98 -323 0
-99 -324 0
-100 -1180 0
-101 -1181 0
-102 -1182 0
-100 -334 0
-101 -335 0
-102 -336 0
-100 -286 0
-101 -287 0
-102 -288 0
-100 -2467 0
-101 -2468 0
-102 -2469 0
-100 -2458 0
-101 -2459 0
-102 -2460 0
-103 -475 0
-104 -476 0
-105 -477 0
-103 -1348 0
-104 -1349 0
-105 -1350 0
-103 -1330 0
-104 -1331 0
-105 -1332 0
-103 -145 0
-104 -146 0
-105 -147 0
-103 -1807 0
-104 -1808 0
-105 -1809 0
-103 -1168 0
-104 -1169 0
-105 -1170 0
-103 -1366 0
-104 -1367 0
-105 -1368 0
-106 -2071 0
-107 -2072 0
-108 -2073 0
-106 -1819 0
-107 -1820 0
-108 -1821 0
-106 -331 0
-107 -332 0
-108 -333 0
-106 -334 0
-107 -335 0
-108 -336 0
-106 -2557 0
-107 -2558 0
-108 -2559 0
-106 -2458 0
-107 -2459 0
-108 -2460 0
-106 -2263 0
-107 -2264 0
-108 -2265 0
-109 -1804 0
-110 -1805 0
-111 -1806 0
-109 -1951 0
-110 -1952 0
-111 -1953 0
-109 -1816 0
-110 -1817 0
-111 -1818 0
-109 -532 0
-110 -533 0
-111 -534 0
-109 -130 0
-110 -131 0
-111 -132 0
-109 -1321 0
-110 -1322 0
-111 -1323 0
-112 -2392 0
-113 -2393 0
-114 -2394 0
-112 -1717 0
-113 -1718 0
-114 -1719 0
-112 -565 0
-113 -566 0
-114 -567 0
-112 -124 0
-113 -125 0
-114 -126 0
-115 -574 0
-116 -575 0
-117 -576 0
-115 -1696 0
-116 -1697 0
-117 -1698 0
-115 -1156 0
-116 -1157 0
-117 -1158 0
-115 -142 0
-116 -143 0
-117 -144 0
-118 -1324 0
-119 -1325 0
-120 -1326 0
-118 -1312 0
-119 -1313 0
-120 -1314 0
-118 -2260 0
-119 -2261 0
-120 -2262 0
-118 -1834 0
-119 -1835 0
-120 -1836 0
-118 -1528 0
-119 -1529 0
-120 -1530 0
-118 -295 0
-119 -296 0
-120 -297 0
-121 -637 0
-122 -638 0
-123 -639 0
-121 -1813 0
-122 -1814 0
-123 -1815 0
-121 -1414 0
-122 -1415 0
-123 -1416 0
-121 -2260 0
-122 -2261 0
-123 -2262 0
-121 -2305 0
-122 -2306 0
-123 -2307 0
-121 -124 0
-122 -125 0
-123 -126 0
-124 -187 0
-125 -188 0
-126 -189 0
-124 -640 0
-125 -641 0
-126 -642 0
-124 -319 0
-125 -320 0
-126 -321 0
-124 -610 0
-125 -611 0
-126 -612 0
-124 -403 0
-125 -404 0
-126 -405 0
-124 -493 0
-125 -494 0
-126 -495 0
-124 -496 0
-125 -497 0
-126 -498 0
-124 -406 0
-125 -407 0
-126 -408 0
-124 -409 0
-125 -410 0
-126 -411 0
-124 -127 0
-125 -128 0
-126 -129 0
-127 -2629 0
-128 -2630 0
-129 -2631 0
-127 -1408 0
-128 -1409 0
-129 -1410 0
-127 -643 0
-128 -644 0
-129 -645 0
-130 -199 0
-131 -200 0
-132 -201 0
-130 -640 0
-131 -641 0
-132 -642 0
-130 -487 0
-131 -488 0
-132 -489 0
-133 -640 0
-134 -641 0
-135 -642 0
-133 -502 0
-134 -503 0
-135 -504 0
-136 -2065 0
-137 -2066 0
-138 -2067 0
-136 -1666 0
-137 -1667 0
-138 -1668 0
-136 -2185 0
-137 -2186 0
-138 -2187 0
-136 -1672 0
-137 -1673 0
-138 -1674 0
-136 -1822 0
-137 -1823 0
-138 -1824 0
-136 -469 0
-137 -470 0
-138 -471 0
-136 -1609 0
-137 -1610 0
-138 -1611 0
-136 -1831 0
-137 -1832 0
-138 -1833 0
-136 -2083 0
-137 -2084 0
-138 -2085 0
-136 -247 0
-137 -248 0
-138 -249 0
-136 -2155 0
-137 -2156 0
-138 -2157 0
-136 -1426 0
-137 -1427 0
-138 -1428 0
-139 -2284 0
-140 -2285 0
-141 -2286 0
-139 -475 0
-140 -476 0
-141 -477 0
-139 -1888 0
-140 -1889 0
-141 -1890 0
-139 -244 0
-140 -245 0
-141 -246 0
-142 -640 0
-143 -641 0
-144 -642 0
-142 -538 0
-143 -539 0
-144 -540 0
-142 -430 0
-143 -431 0
-144 -432 0
-145 -673 0
-146 -674 0
-147 -675 0
-145 -250 0
-146 -251 0
-147 -252 0
-145 -640 0
-146 -641 0
-147 -642 0
-145 -433 0
-146 -434 0
-147 -435 0
-145 -667 0
-146 -668 0
-147 -669 0
-148 -2320 0
-149 -2321 0
-150 -2322 0
-148 -241 0
-149 -242 0
-150 -243 0
-148 -1417 0
-149 -1418 0
-150 -1419 0
-148 -2158 0
-149 -2159 0
-150 -2160 0
-148 -1372 0
-149 -1373 0
-150 -1374 0
-148 -1750 0
-149 -1751 0
-150 -1752 0
-148 -1756 0
-149 -1757 0
-150 -1758 0
-151 -481 0
-152 -482 0
-153 -483 0
-151 -1204 0
-152 -1205 0
-153 -1206 0
-151 -238 0
-152 -239 0
-153 -240 0
-151 -2572 0
-152 -2573 0
-153 -2574 0
-151 -1420 0
-152 -1421 0
-153 -1422 0
-151 -2266 0
-152 -2267 0
-153 -2268 0
-151 -1195 0
-152 -1196 0
-153 -1197 0
-154 -640 0
-155 -641 0
-156 -642 0
-154 -352 0
-155 -353 0
-156 -354 0
-157 -640 0
-158 -641 0
-159 -642 0
-157 -397 0
-158 -398 0
-159 -399 0
-160 -640 0
-161 -641 0
-162 -642 0
-160 -379 0
-161 -380 0
-162 -381 0
-160 -400 0
-161 -401 0
-162 -402 0
-160 -553 0
-161 -554 0
-162 -555 0
-163 -214 0
-164 -215 0
-165 -216 0
-163 -568 0
-164 -569 0
-165 -570 0
-163 -2071 0
-164 -2072 0
-165 -2073 0
-163 -2263 0
-164 -2264 0
-165 -2265 0
-166 -1987 0
-167 -1988 0
-168 -1989 0
-166 -1786 0
-167 -1787 0
-168 -1788 0
-166 -568 0
-167 -569 0
-168 -570 0
-166 -2152 0
-167 -2153 0
-168 -2154 0
-166 -232 0
-167 -233 0
-168 -234 0
-169 -640 0
-170 -641 0
-171 -642 0
-169 -535 0
-170 -536 0
-171 -537 0
-169 -658 0
-170 -659 0
-171 -660 0
-172 -2038 0
-173 -2039 0
-174 -2040 0
-172 -592 0
-173 -593 0
-174 -594 0
-172 -1429 0
-173 -1430 0
-174 -1431 0
-172 -1606 0
-173 -1607 0
-174 -1608 0
-175 -1411 0
-176 -1412 0
-177 -1413 0
-175 -1729 0
-176 -1730 0
-177 -1731 0
-175 -595 0
-176 -596 0
-177 -597 0
-175 -1213 0
-176 -1214 0
-177 -1215 0
-178 -1987 0
-179 -1988 0
-180 -1989 0
-178 -2161 0
-179 -2162 0
-180 -2163 0
-178 -1180 0
-179 -1181 0
-180 -1182 0
-178 -1177 0
-179 -1178 0
-180 -1179 0
-178 -2389 0
-179 -2390 0
-180 -2391 0
-178 -232 0
-179 -233 0
-180 -234 0
-181 -1216 0
-182 -1217 0
-183 -1218 0
-181 -1153 0
-182 -1154 0
-183 -1155 0
-181 -1636 0
-182 -1637 0
-183 -1638 0
-181 -1150 0
-182 -1151 0
-183 -1152 0
-181 -1189 0
-182 -1190 0
-183 -1191 0
-181 -598 0
-182 -599 0
-183 -600 0
-181 -2179 0
-182 -2180 0
-183 -2181 0
-184 -1480 0
-185 -1481 0
-186 -1482 0
-184 -2437 0
-185 -2438 0
-186 -2439 0
-184 -565 0
-185 -566 0
-186 -567 0
-184 -247 0
-185 -248 0
-186 -249 0
-187 -730 0
-188 -731 0
-189 -732 0
-187 -1960 0
-188 -1961 0
-189 -1962 0
-187 -1669 0
-188 -1670 0
-189 -1671 0
-187 -1942 0
-188 -1943 0
-189 -1944 0
-187 -1675 0
-188 -1676 0
-189 -1677 0
-190 -469 0
-191 -470 0
-192 -471 0
-190 -1831 0
-191 -1832 0
-192 -1833 0
-190 -1837 0
-191 -1838 0
-192 -1839 0
-190 -283 0
-191 -284 0
-192 -285 0
-193 -475 0
-194 -476 0
-195 -477 0
-193 -1888 0
-194 -1889 0
-195 -1890 0
-193 -1192 0
-194 -1193 0
-195 -1194 0
-193 -280 0
-194 -281 0
-195 -282 0
-196 -481 0
-197 -482 0
-198 -483 0
-196 -1573 0
-197 -1574 0
-198 -1575 0
-196 -1651 0
-197 -1652 0
-198 -1653 0
-196 -274 0
-197 -275 0
-198 -276 0
-196 -1423 0
-197 -1424 0
-198 -1425 0
-199 -730 0
-200 -731 0
-201 -732 0
-199 -2617 0
-200 -2618 0
-201 -2619 0
-199 -1678 0
-200 -1679 0
-201 -1680 0
-202 -637 0
-203 -638 0
-204 -639 0
-202 -208 0
-203 -209 0
-204 -210 0
-202 -1393 0
-203 -1394 0
-204 -1395 0
-202 -1891 0
-203 -1892 0
-204 -1893 0
-205 -508 0
-206 -509 0
-207 -510 0
-205 -298 0
-206 -299 0
-207 -300 0
-205 -640 0
-206 -641 0
-207 -642 0
-205 -442 0
-206 -443 0
-207 -444 0
-205 -457 0
-206 -458 0
-207 -459 0
-208 -301 0
-209 -302 0
-210 -303 0
-208 -307 0
-209 -308 0
-210 -309 0
-208 -640 0
-209 -641 0
-210 -642 0
-208 -445 0
-209 -446 0
-210 -447 0
-208 -454 0
-209 -455 0
-210 -456 0
-208 -484 0
-209 -485 0
-210 -486 0
-211 -637 0
-212 -638 0
-213 -639 0
-211 -217 0
-212 -218 0
-213 -219 0
-211 -2236 0
-212 -2237 0
-213 -2238 0
-214 -511 0
-215 -512 0
-216 -513 0
-214 -304 0
-215 -305 0
-216 -306 0
-214 -310 0
-215 -311 0
-216 -312 0
-214 -640 0
-215 -641 0
-216 -642 0
-214 -451 0
-215 -452 0
-216 -453 0
-214 -460 0
-215 -461 0
-216 -462 0
-214 -268 0
-215 -269 0
-216 -270 0
-217 -514 0
-218 -515 0
-219 -516 0
-217 -640 0
-218 -641 0
-219 -642 0
-217 -448 0
-218 -449 0
-219 -450 0
-217 -463 0
-218 -464 0
-219 -465 0
-217 -601 0
-218 -602 0
-219 -603 0
-217 -271 0
-218 -272 0
-219 -273 0
-217 -628 0
-218 -629 0
-219 -630 0
-220 -520 0
-221 -521 0
-222 -522 0
-220 -526 0
-221 -527 0
-222 -528 0
-220 -724 0
-221 -725 0
-222 -726 0
-220 -253 0
-221 -254 0
-222 -255 0
-220 -313 0
-221 -314 0
-222 -315 0
-220 -316 0
-221 -317 0
-222 -318 0
-220 -640 0
-221 -641 0
-222 -642 0
-220 -466 0
-221 -467 0
-222 -468 0
-220 -604 0
-221 -605 0
-222 -606 0
-220 -655 0
-221 -656 0
-222 -657 0
-220 -223 0
-221 -224 0
-222 -225 0
-220 -490 0
-221 -491 0
-222 -492 0
-220 -748 0
-221 -749 0
-222 -750 0
-223 -1333 0
-224 -1334 0
-225 -1335 0
-223 -1336 0
-224 -1337 0
-225 -1338 0
-223 -1810 0
-224 -1811 0
-225 -1812 0
-223 -1342 0
-224 -1343 0
-225 -1344 0
-223 -643 0
-224 -644 0
-225 -645 0
-223 -1885 0
-224 -1886 0
-225 -1887 0
-223 -1414 0
-224 -1415 0
-225 -1416 0
-223 -1381 0
-224 -1382 0
-225 -1383 0
-226 -517 0
-227 -518 0
-228 -519 0
-226 -523 0
-227 -524 0
-228 -525 0
-226 -640 0
-227 -641 0
-228 -642 0
-226 -499 0
-227 -500 0
-228 -501 0
-226 -751 0
-227 -752 0
-228 -753 0
-229 -637 0
-230 -638 0
-231 -639 0
-229 -1291 0
-230 -1292 0
-231 -1293 0
-229 -1339 0
-230 -1340 0
-231 -1341 0
-229 -232 0
-230 -233 0
-231 -234 0
-232 -640 0
-233 -641 0
-234 -642 0
-232 -757 0
-233 -758 0
-234 -759 0
-235 -760 0
-236 -761 0
-237 -762 0
-235 -1705 0
-236 -1706 0
-237 -1707 0
-235 -1423 0
-236 -1424 0
-237 -1425 0
-235 -2365 0
-236 -2366 0
-237 -2367 0
-235 -2155 0
-236 -2156 0
-237 -2157 0
-238 -679 0
-239 -680 0
-240 -681 0
-238 -640 0
-239 -641 0
-240 -642 0
-238 -580 0
-239 -581 0
-240 -582 0
-241 -640 0
-242 -641 0
-243 -642 0
-241 -541 0
-242 -542 0
-243 -543 0
-241 -544 0
-242 -545 0
-243 -546 0
-241 -583 0
-242 -584 0
-243 -585 0
-244 -640 0
-245 -641 0
-246 -642 0
-244 -550 0
-245 -551 0
-246 -552 0
-247 -766 0
-248 -767 0
-249 -768 0
-247 -640 0
-248 -641 0
-249 -642 0
-247 -547 0
-248 -548 0
-249 -549 0
-250 -2158 0
-251 -2159 0
-252 -2160 0
-250 -769 0
-251 -770 0
-252 -771 0
-250 -2050 0
-251 -2051 0
-252 -2052 0
-253 -1681 0
-254 -1682 0
-255 -1683 0
-253 -1957 0
-254 -1958 0
-255 -1959 0
-253 -682 0
-254 -683 0
-255 -684 0
-256 -565 0
-257 -566 0
-258 -567 0
-256 -2566 0
-257 -2567 0
-258 -2568 0
-256 -343 0
-257 -344 0
-258 -345 0
-256 -1654 0
-257 -1655 0
-258 -1656 0
-256 -1849 0
-257 -1850 0
-258 -1851 0
-259 -334 0
-260 -335 0
-261 -336 0
-259 -568 0
-260 -569 0
-261 -570 0
-259 -2041 0
-260 -2042 0
-261 -2043 0
-259 -1210 0
-260 -1211 0
-261 -1212 0
-259 -1846 0
-260 -1847 0
-261 -1848 0
-262 -574 0
-263 -575 0
-264 -576 0
-262 -331 0
-263 -332 0
-264 -333 0
-262 -1855 0
-263 -1856 0
-264 -1857 0
-262 -1747 0
-263 -1748 0
-264 -1749 0
-262 -1753 0
-263 -1754 0
-264 -1755 0
-262 -1396 0
-263 -1397 0
-264 -1398 0
-265 -2434 0
-266 -2435 0
-267 -2436 0
-265 -2248 0
-266 -2249 0
-267 -2250 0
-265 -322 0
-266 -323 0
-267 -324 0
-268 -2521 0
-269 -2522 0
-270 -2523 0
-268 -1846 0
-269 -1847 0
-270 -1848 0
-268 -706 0
-269 -707 0
-270 -708 0
-271 -709 0
-272 -710 0
-273 -711 0
-271 -1849 0
-272 -1850 0
-273 -1851 0
-271 -1621 0
-272 -1622 0
-273 -1623 0
-274 -640 0
-275 -641 0
-276 -642 0
-274 -742 0
-275 -743 0
-276 -744 0
-274 -691 0
-275 -692 0
-276 -693 0
-274 -616 0
-275 -617 0
-276 -618 0
-274 -802 0
-275 -803 0
-276 -804 0
-277 -640 0
-278 -641 0
-279 -642 0
-277 -613 0
-278 -614 0
-279 -615 0
-280 -805 0
-281 -806 0
-282 -807 0
-280 -640 0
-281 -641 0
-282 -642 0
-280 -739 0
-281 -740 0
-282 -741 0
-280 -694 0
-281 -695 0
-282 -696 0
-280 -622 0
-281 -623 0
-282 -624 0
-283 -808 0
-284 -809 0
-285 -810 0
-283 -640 0
-284 -641 0
-285 -642 0
-283 -559 0
-284 -560 0
-285 -561 0
-283 -619 0
-284 -620 0
-285 -621 0
-283 -625 0
-284 -626 0
-285 -627 0
-286 -373 0
-287 -374 0
-288 -375 0
-286 -292 0
-287 -293 0
-288 -294 0
-286 -640 0
-287 -641 0
-288 -642 0
-286 -715 0
-287 -716 0
-288 -717 0
-286 -832 0
-287 -833 0
-288 -834 0
-286 -745 0
-287 -746 0
-288 -747 0
-286 -721 0
-287 -722 0
-288 -723 0
-289 -637 0
-290 -638 0
-291 -639 0
-289 -1444 0
-290 -1445 0
-291 -1446 0
-289 -1534 0
-290 -1535 0
-291 -1536 0
-289 -1891 0
-290 -1892 0
-291 -1893 0
-289 -1840 0
-290 -1841 0
-291 -1842 0
-289 -1471 0
-290 -1472 0
-291 -1473 0
-289 -1903 0
-290 -1904 0
-291 -1905 0
-289 -295 0
-290 -296 0
-291 -297 0
-289 -1576 0
-290 -1577 0
-291 -1578 0
-289 -1921 0
-290 -1922 0
-291 -1923 0
-289 -1384 0
-290 -1385 0
-291 -1386 0
-289 -1381 0
-290 -1382 0
-291 -1383 0
-289 -1582 0
-290 -1583 0
-291 -1584 0
-292 -1801 0
-293 -1802 0
-294 -1803 0
-292 -2188 0
-293 -2189 0
-294 -2190 0
-292 -643 0
-293 -644 0
-294 -645 0
-292 -2341 0
-293 -2342 0
-294 -2343 0
-292 -1732 0
-293 -1733 0
-294 -1734 0
-292 -1924 0
-293 -1925 0
-294 -1926 0
-292 -2206 0
-293 -2207 0
-294 -2208 0
-295 -640 0
-296 -641 0
-297 -642 0
-295 -718 0
-296 -719 0
-297 -720 0
-295 -556 0
-296 -557 0
-297 -558 0
-295 -349 0
-296 -350 0
-297 -351 0
-295 -826 0
-296 -827 0
-297 -828 0
-295 -661 0
-296 -662 0
-297 -663 0
-295 -754 0
-296 -755 0
-297 -756 0
-295 -799 0
-296 -800 0
-297 -801 0
-295 -412 0
-296 -413 0
-297 -414 0
-298 -1429 0
-299 -1430 0
-300 -1431 0
-298 -760 0
-299 -761 0
-300 -762 0
-301 -763 0
-302 -764 0
-303 -765 0
-301 -1213 0
-302 -1214 0
-303 -1215 0
-304 -2269 0
-305 -2270 0
-306 -2271 0
-304 -1201 0
-305 -1202 0
-306 -1203 0
-304 -763 0
-305 -764 0
-306 -765 0
-307 -1198 0
-308 -1199 0
-309 -1200 0
-307 -769 0
-308 -770 0
-309 -771 0
-307 -1309 0
-308 -1310 0
-309 -1311 0
-307 -1852 0
-308 -1853 0
-309 -1854 0
-310 -2161 0
-311 -2162 0
-312 -2163 0
-310 -769 0
-311 -770 0
-312 -771 0
-310 -2221 0
-311 -2222 0
-312 -2223 0
-313 -760 0
-314 -761 0
-315 -762 0
-313 -1282 0
-314 -1283 0
-315 -1284 0
-313 -2086 0
-314 -2087 0
-315 -2088 0
-313 -1333 0
-314 -1334 0
-315 -1335 0
-313 -1900 0
-314 -1901 0
-315 -1902 0
-316 -769 0
-317 -770 0
-318 -771 0
-316 -1279 0
-317 -1280 0
-318 -1281 0
-316 -1309 0
-317 -1310 0
-318 -1311 0
-316 -1336 0
-317 -1337 0
-318 -1338 0
-319 -1186 0
-320 -1187 0
-321 -1188 0
-319 -2305 0
-320 -2306 0
-321 -2307 0
-319 -2323 0
-320 -2324 0
-321 -2325 0
-319 -835 0
-320 -836 0
-321 -837 0
-322 -670 0
-323 -671 0
-324 -672 0
-322 -631 0
-323 -632 0
-324 -633 0
-322 -418 0
-323 -419 0
-324 -420 0
-322 -778 0
-323 -779 0
-324 -780 0
-322 -784 0
-323 -785 0
-324 -786 0
-322 -640 0
-323 -641 0
-324 -642 0
-322 -328 0
-323 -329 0
-324 -330 0
-322 -391 0
-323 -392 0
-324 -393 0
-322 -733 0
-323 -734 0
-324 -735 0
-322 -820 0
-323 -821 0
-324 -822 0
-325 -1387 0
-326 -1388 0
-327 -1389 0
-325 -637 0
-326 -638 0
-327 -639 0
-325 -2110 0
-326 -2111 0
-327 -2112 0
-325 -1378 0
-326 -1379 0
-327 -1380 0
-325 -2623 0
-326 -2624 0
-327 -2625 0
-325 -331 0
-326 -332 0
-327 -333 0
-325 -1384 0
-326 -1385 0
-327 -1386 0
-328 -643 0
-329 -644 0
-330 -645 0
-328 -1246 0
-329 -1247 0
-330 -1248 0
-328 -1594 0
-329 -1595 0
-330 -1596 0
-331 -838 0
-332 -839 0
-333 -840 0
-331 -772 0
-332 -773 0
-333 -774 0
-331 -781 0
-332 -782 0
-333 -783 0
-331 -787 0
-332 -788 0
-333 -789 0
-331 -589 0
-332 -590 0
-333 -591 0
-331 -640 0
-332 -641 0
-333 -642 0
-331 -388 0
-332 -389 0
-333 -390 0
-334 -841 0
-335 -842 0
-336 -843 0
-334 -793 0
-335 -794 0
-336 -795 0
-334 -640 0
-335 -641 0
-336 -642 0
-334 -385 0
-335 -386 0
-336 -387 0
-334 -340 0
-335 -341 0
-336 -342 0
-334 -736 0
-335 -737 0
-336 -738 0
-334 -823 0
-335 -824 0
-336 -825 0
-334 -649 0
-335 -650 0
-336 -651 0
-337 -637 0
-338 -638 0
-339 -639 0
-337 -343 0
-338 -344 0
-339 -345 0
-337 -1840 0
-338 -1841 0
-339 -1842 0
-337 -2074 0
-338 -2075 0
-339 -2076 0
-337 -2509 0
-338 -2510 0
-339 -2511 0
-337 -1537 0
-338 -1538 0
-339 -1539 0
-340 -643 0
-341 -644 0
-342 -645 0
-340 -1273 0
-341 -1274 0
-342 -1275 0
-343 -844 0
-344 -845 0
-345 -846 0
-343 -775 0
-344 -776 0
-345 -777 0
-343 -421 0
-344 -422 0
-345 -423 0
-343 -790 0
-344 -791 0
-345 -792 0
-343 -796 0
-344 -797 0
-345 -798 0
-343 -640 0
-344 -641 0
-345 -642 0
-343 -382 0
-344 -383 0
-345 -384 0
-343 -346 0
-344 -347 0
-345 -348 0
-343 -652 0
-344 -653 0
-345 -654 0
-346 -1858 0
-347 -1859 0
-348 -1860 0
-346 -643 0
-347 -644 0
-348 -645 0
-346 -2116 0
-347 -2117 0
-348 -2118 0
-349 -1912 0
-350 -1913 0
-351 -1914 0
-349 -1795 0
-350 -1796 0
-351 -1797 0
-349 -682 0
-350 -683 0
-351 -684 0
-352 -1651 0
-353 -1652 0
-354 -1653 0
-352 -835 0
-353 -836 0
-354 -837 0
-355 -847 0
-356 -848 0
-357 -849 0
-355 -640 0
-356 -641 0
-357 -642 0
-355 -688 0
-356 -689 0
-357 -690 0
-355 -880 0
-356 -881 0
-357 -882 0
-355 -358 0
-356 -359 0
-357 -360 0
-358 -643 0
-359 -644 0
-360 -645 0
-358 -1228 0
-359 -1229 0
-360 -1230 0
-361 -850 0
-362 -851 0
-363 -852 0
-361 -640 0
-362 -641 0
-363 -642 0
-364 -853 0
-365 -854 0
-366 -855 0
-364 -640 0
-365 -641 0
-366 -642 0
-364 -685 0
-365 -686 0
-366 -687 0
-367 -637 0
-368 -638 0
-369 -639 0
-367 -1591 0
-368 -1592 0
-369 -1593 0
-367 -1162 0
-368 -1163 0
-369 -1164 0
-367 -370 0
-368 -371 0
-369 -372 0
-370 -856 0
-371 -857 0
-372 -858 0
-370 -640 0
-371 -641 0
-372 -642 0
-373 -2470 0
-374 -2471 0
-375 -2472 0
-373 -700 0
-374 -701 0
-375 -702 0
-373 -2242 0
-374 -2243 0
-375 -2244 0
-376 -424 0
-377 -425 0
-378 -426 0
-376 -640 0
-377 -641 0
-378 -642 0
-379 -874 0
-380 -875 0
-381 -876 0
-379 -1447 0
-380 -1448 0
-381 -1449 0
-379 -1192 0
-380 -1193 0
-381 -1194 0
-382 -1735 0
-383 -1736 0
-384 -1737 0
-382 -700 0
-383 -701 0
-384 -702 0
-382 -2329 0
-383 -2330 0
-384 -2331 0
-382 -2077 0
-383 -2078 0
-384 -2079 0
-382 -2509 0
-383 -2510 0
-384 -2511 0
-385 -1327 0
-386 -1328 0
-387 -1329 0
-385 -1708 0
-386 -1709 0
-387 -1710 0
-385 -1966 0
-386 -1967 0
-387 -1968 0
-385 -1753 0
-386 -1754 0
-387 -1755 0
-385 -1222 0
-386 -1223 0
-387 -1224 0
-385 -1273 0
-386 -1274 0
-387 -1275 0
-388 -2002 0
-389 -2003 0
-390 -2004 0
-388 -2227 0
-389 -2228 0
-390 -2229 0
-388 -706 0
-389 -707 0
-390 -708 0
-388 -2632 0
-389 -2633 0
-390 -2634 0
-388 -1210 0
-389 -1211 0
-390 -1212 0
-388 -2110 0
-389 -2111 0
-390 -2112 0
-388 -1225 0
-389 -1226 0
-390 -1227 0
-391 -2278 0
-392 -2279 0
-393 -2280 0
-391 -709 0
-392 -710 0
-393 -711 0
-391 -1684 0
-392 -1685 0
-393 -1686 0
-391 -1246 0
-392 -1247 0
-393 -1248 0
-391 -1507 0
-392 -1508 0
-393 -1509 0
-391 -1654 0
-392 -1655 0
-393 -1656 0
-394 -1633 0
-395 -1634 0
-396 -1635 0
-394 -2173 0
-395 -2174 0
-396 -2175 0
-394 -1567 0
-395 -1568 0
-396 -1569 0
-397 -1156 0
-398 -1157 0
-399 -1158 0
-397 -1159 0
-398 -1160 0
-399 -1161 0
-397 -1696 0
-398 -1697 0
-399 -1698 0
-397 -1363 0
-398 -1364 0
-399 -1365 0
-397 -2317 0
-398 -2318 0
-399 -2319 0
-400 -883 0
-401 -884 0
-402 -885 0
-400 -1435 0
-401 -1436 0
-402 -1437 0
-400 -1174 0
-401 -1175 0
-402 -1176 0
-400 -2314 0
-401 -2315 0
-402 -2316 0
-400 -2176 0
-401 -2177 0
-402 -2178 0
-403 -2047 0
-404 -2048 0
-405 -2049 0
-403 -2500 0
-404 -2501 0
-405 -2502 0
-403 -2308 0
-404 -2309 0
-405 -2310 0
-403 -907 0
-404 -908 0
-405 -909 0
-406 -1942 0
-407 -1943 0
-408 -1944 0
-406 -2323 0
-407 -2324 0
-408 -2325 0
-406 -2218 0
-407 -2219 0
-408 -2220 0
-406 -1456 0
-407 -1457 0
-408 -1458 0
-406 -1408 0
-407 -1409 0
-408 -1410 0
-406 -2446 0
-407 -2447 0
-408 -2448 0
-406 -2449 0
-407 -2450 0
-408 -2451 0
-406 -2395 0
-407 -2396 0
-408 -2397 0
-406 -916 0
-407 -917 0
-408 -918 0
-409 -1801 0
-410 -1802 0
-411 -1803 0
-409 -1813 0
-410 -1814 0
-411 -1815 0
-409 -1726 0
-410 -1727 0
-411 -1728 0
-409 -925 0
-410 -926 0
-411 -927 0
-409 -1165 0
-410 -1166 0
-411 -1167 0
-412 -1519 0
-413 -1520 0
-414 -1521 0
-412 -2578 0
-413 -2579 0
-414 -2580 0
-412 -760 0
-413 -761 0
-414 -762 0
-412 -1705 0
-413 -1706 0
-414 -1707 0
-412 -1900 0
-413 -1901 0
-414 -1902 0
-412 -1711 0
-413 -1712 0
-414 -1713 0
-415 -1432 0
-416 -1433 0
-417 -1434 0
-415 -1795 0
-416 -1796 0
-417 -1797 0
-415 -889 0
-416 -890 0
-417 -891 0
-418 -2173 0
-419 -2174 0
-420 -2175 0
-418 -1567 0
-419 -1568 0
-420 -1569 0
-421 -760 0
-422 -761 0
-423 -762 0
-421 -2116 0
-422 -2117 0
-423 -2118 0
-421 -1435 0
-422 -1436 0
-423 -1437 0
-421 -2314 0
-422 -2315 0
-423 -2316 0
-424 -709 0
-425 -710 0
-426 -711 0
-424 -1855 0
-425 -1856 0
-426 -1857 0
-427 -2167 0
-428 -2168 0
-429 -2169 0
-427 -928 0
-428 -929 0
-429 -930 0
-427 -1174 0
-428 -1175 0
-429 -1176 0
-427 -2659 0
-428 -2660 0
-429 -2661 0
-430 -1909 0
-431 -1910 0
-432 -1911 0
-430 -2644 0
-431 -2645 0
-432 -2646 0
-430 -1600 0
-431 -1601 0
-432 -1602 0
-430 -1696 0
-431 -1697 0
-432 -1698 0
-430 -931 0
-431 -932 0
-432 -933 0
-430 -1168 0
-431 -1169 0
-432 -1170 0
-433 -2068 0
-434 -2069 0
-435 -2070 0
-433 -2011 0
-434 -2012 0
-435 -2013 0
-433 -934 0
-434 -935 0
-435 -936 0
-433 -1993 0
-434 -1994 0
-435 -1995 0
-433 -1168 0
-434 -1169 0
-435 -1170 0
-436 -1795 0
-437 -1796 0
-438 -1797 0
-436 -937 0
-437 -938 0
-438 -939 0
-436 -1963 0
-437 -1964 0
-438 -1965 0
-439 -1243 0
-440 -1244 0
-441 -1245 0
-439 -2209 0
-440 -2210 0
-441 -2211 0
-439 -529 0
-440 -530 0
-441 -531 0
-442 -889 0
-443 -890 0
-444 -891 0
-442 -2569 0
-443 -2570 0
-444 -2571 0
-442 -2077 0
-443 -2078 0
-444 -2079 0
-445 -1945 0
-446 -1946 0
-447 -1947 0
-445 -1819 0
-446 -1820 0
-447 -1821 0
-445 -898 0
-446 -899 0
-447 -900 0
-445 -1222 0
-446 -1223 0
-447 -1224 0
-448 -1597 0
-449 -1598 0
-450 -1599 0
-448 -2131 0
-449 -2132 0
-450 -2133 0
-448 -1540 0
-449 -1541 0
-450 -1542 0
-448 -2236 0
-449 -2237 0
-450 -2238 0
-448 -1897 0
-449 -1898 0
-450 -1899 0
-448 -1849 0
-449 -1850 0
-450 -1851 0
-448 -889 0
-449 -890 0
-450 -891 0
-448 -1507 0
-449 -1508 0
-450 -1509 0
-451 -2515 0
-452 -2516 0
-453 -2517 0
-451 -1846 0
-452 -1847 0
-453 -1848 0
-451 -898 0
-452 -899 0
-453 -900 0
-451 -2524 0
-452 -2525 0
-453 -2526 0
-451 -1225 0
-452 -1226 0
-453 -1227 0
-454 -1351 0
-455 -1352 0
-456 -1353 0
-454 -2500 0
-455 -2501 0
-456 -2502 0
-454 -1915 0
-455 -1916 0
-456 -1917 0
-454 -1375 0
-455 -1376 0
-456 -1377 0
-454 -1393 0
-455 -1394 0
-456 -1395 0
-454 -1222 0
-455 -1223 0
-456 -1224 0
-454 -907 0
-455 -908 0
-456 -909 0
-454 -1396 0
-455 -1397 0
-456 -1398 0
-457 -2434 0
-458 -2435 0
-459 -2436 0
-457 -2008 0
-458 -2009 0
-459 -2010 0
-457 -2077 0
-458 -2078 0
-459 -2079 0
-457 -913 0
-458 -914 0
-459 -915 0
-457 -1999 0
-458 -2000 0
-459 -2001 0
-457 -2203 0
-458 -2204 0
-459 -2205 0
-460 -2071 0
-461 -2072 0
-462 -2073 0
-460 -907 0
-461 -908 0
-462 -909 0
-460 -1225 0
-461 -1226 0
-462 -1227 0
-460 -2404 0
-461 -2405 0
-462 -2406 0
-463 -1627 0
-464 -1628 0
-465 -1629 0
-463 -1507 0
-464 -1508 0
-465 -1509 0
-463 -913 0
-464 -914 0
-465 -915 0
-463 -2503 0
-464 -2504 0
-465 -2505 0
-466 -1906 0
-467 -1907 0
-468 -1908 0
-466 -1915 0
-467 -1916 0
-468 -1917 0
-466 -907 0
-467 -908 0
-468 -909 0
-469 -640 0
-470 -641 0
-471 -642 0
-469 -817 0
-470 -818 0
-471 -819 0
-472 -637 0
-473 -638 0
-474 -639 0
-472 -1330 0
-473 -1331 0
-474 -1332 0
-472 -2284 0
-473 -2285 0
-474 -2286 0
-472 -475 0
-473 -476 0
-474 -477 0
-475 -640 0
-476 -641 0
-477 -642 0
-475 -607 0
-476 -608 0
-477 -609 0
-478 -481 0
-479 -482 0
-480 -483 0
-478 -637 0
-479 -638 0
-480 -639 0
-478 -2359 0
-479 -2360 0
-480 -2361 0
-478 -1354 0
-479 -1355 0
-480 -1356 0
-478 -1339 0
-479 -1340 0
-480 -1341 0
-481 -586 0
-482 -587 0
-483 -588 0
-481 -640 0
-482 -641 0
-483 -642 0
-481 -814 0
-482 -815 0
-483 -816 0
-481 -967 0
-482 -968 0
-483 -969 0
-481 -829 0
-482 -830 0
-483 -831 0
-481 -982 0
-482 -983 0
-483 -984 0
-484 -1351 0
-485 -1352 0
-486 -1353 0
-484 -916 0
-485 -917 0
-486 -918 0
-484 -1948 0
-485 -1949 0
-486 -1950 0
-487 -1645 0
-488 -1646 0
-489 -1647 0
-487 -976 0
-488 -977 0
-489 -978 0
-487 -1816 0
-488 -1817 0
-489 -1818 0
-490 -1927 0
-491 -1928 0
-492 -1929 0
-490 -1459 0
-491 -1460 0
-492 -1461 0
-490 -1585 0
-491 -1586 0
-492 -1587 0
-490 -1414 0
-491 -1415 0
-492 -1416 0
-490 -916 0
-491 -917 0
-492 -918 0
-490 -2224 0
-491 -2225 0
-492 -2226 0
-493 -1990 0
-494 -1991 0
-495 -1992 0
-493 -2272 0
-494 -2273 0
-495 -2274 0
-493 -2452 0
-494 -2453 0
-495 -2454 0
-493 -985 0
-494 -986 0
-495 -987 0
-493 -2308 0
-494 -2309 0
-495 -2310 0
-493 -1801 0
-494 -1802 0
-495 -1803 0
-493 -2482 0
-494 -2483 0
-495 -2484 0
-496 -991 0
-497 -992 0
-498 -993 0
-496 -2392 0
-497 -2393 0
-498 -2394 0
-496 -2620 0
-497 -2621 0
-498 -2622 0
-496 -1414 0
-497 -1415 0
-498 -1416 0
-496 -1492 0
-497 -1493 0
-498 -1494 0
-499 -2629 0
-500 -2630 0
-501 -2631 0
-499 -2626 0
-500 -2627 0
-501 -2628 0
-499 -925 0
-500 -926 0
-501 -927 0
-502 -1465 0
-503 -1466 0
-504 -1467 0
-502 -985 0
-503 -986 0
-504 -987 0
-505 -565 0
-506 -566 0
-507 -567 0
-505 -1636 0
-506 -1637 0
-507 -1638 0
-505 -598 0
-506 -599 0
-507 -600 0
-505 -1624 0
-506 -1625 0
-507 -1626 0
-508 -1714 0
-509 -1715 0
-510 -1716 0
-508 -1630 0
-509 -1631 0
-510 -1632 0
-508 -928 0
-509 -929 0
-510 -930 0
-508 -1639 0
-509 -1640 0
-510 -1641 0
-511 -1201 0
-512 -1202 0
-513 -1203 0
-511 -934 0
-512 -935 0
-513 -936 0
-511 -2230 0
-512 -2231 0
-513 -2232 0
-514 -1504 0
-515 -1505 0
-516 -1506 0
-514 -2131 0
-515 -2132 0
-516 -2133 0
-514 -937 0
-515 -938 0
-516 -939 0
-514 -2104 0
-515 -2105 0
-516 -2106 0
-517 -2407 0
-518 -2408 0
-519 -2409 0
-517 -1714 0
-518 -1715 0
-519 -1716 0
-517 -928 0
-518 -929 0
-519 -930 0
-517 -2374 0
-518 -2375 0
-519 -2376 0
-520 -1909 0
-521 -1910 0
-522 -1911 0
-520 -1783 0
-521 -1784 0
-522 -1785 0
-520 -931 0
-521 -932 0
-522 -933 0
-523 -2014 0
-524 -2015 0
-525 -2016 0
-523 -934 0
-524 -935 0
-525 -936 0
-523 -1993 0
-524 -1994 0
-525 -1995 0
-523 -2230 0
-524 -2231 0
-525 -2232 0
-526 -1972 0
-527 -1973 0
-528 -1974 0
-526 -2086 0
-527 -2087 0
-528 -2088 0
-526 -937 0
-527 -938 0
-528 -939 0
-526 -2104 0
-527 -2105 0
-528 -2106 0
-526 -1963 0
-527 -1964 0
-528 -1965 0
-529 -859 0
-530 -860 0
-531 -861 0
-529 -640 0
-530 -641 0
-531 -642 0
-532 -676 0
-533 -677 0
-534 -678 0
-532 -640 0
-533 -641 0
-534 -642 0
-532 -1003 0
-533 -1004 0
-534 -1005 0
-535 -964 0
-536 -965 0
-537 -966 0
-535 -2410 0
-536 -2411 0
-537 -2412 0
-538 -1954 0
-539 -1955 0
-540 -1956 0
-538 -1600 0
-539 -1601 0
-540 -1602 0
-538 -985 0
-539 -986 0
-540 -987 0
-541 -2182 0
-542 -2183 0
-543 -2184 0
-541 -1750 0
-542 -1751 0
-543 -1752 0
-541 -1861 0
-542 -1862 0
-543 -1863 0
-541 -916 0
-542 -917 0
-543 -918 0
-544 -2320 0
-545 -2321 0
-546 -2322 0
-544 -1468 0
-545 -1469 0
-546 -1470 0
-544 -925 0
-545 -926 0
-546 -927 0
-547 -1609 0
-548 -1610 0
-549 -1611 0
-547 -1618 0
-548 -1619 0
-549 -1620 0
-547 -916 0
-548 -917 0
-549 -918 0
-550 -1276 0
-551 -1277 0
-552 -1278 0
-550 -1762 0
-551 -1763 0
-552 -1764 0
-550 -925 0
-551 -926 0
-552 -927 0
-550 -1774 0
-551 -1775 0
-552 -1776 0
-553 -2107 0
-554 -2108 0
-555 -2109 0
-553 -1435 0
-554 -1436 0
-555 -1437 0
-553 -985 0
-554 -986 0
-555 -987 0
-556 -874 0
-557 -875 0
-558 -876 0
-556 -2347 0
-557 -2348 0
-558 -2349 0
-556 -2335 0
-557 -2336 0
-558 -2337 0
-556 -2191 0
-557 -2192 0
-558 -2193 0
-559 -1231 0
-560 -1232 0
-561 -1233 0
-559 -883 0
-560 -884 0
-561 -885 0
-559 -2176 0
-560 -2177 0
-561 -2178 0
-562 -1648 0
-563 -1649 0
-564 -1650 0
-562 -637 0
-563 -638 0
-564 -639 0
-562 -565 0
-563 -566 0
-564 -567 0
-562 -1162 0
-563 -1163 0
-564 -1164 0
-562 -1921 0
-563 -1922 0
-564 -1923 0
-565 -862 0
-566 -863 0
-567 -864 0
-565 -640 0
-566 -641 0
-567 -642 0
-568 -865 0
-569 -866 0
-570 -867 0
-568 -640 0
-569 -641 0
-570 -642 0
-568 -877 0
-569 -878 0
-570 -879 0
-571 -574 0
-572 -575 0
-573 -576 0
-571 -1543 0
-572 -1544 0
-573 -1545 0
-571 -637 0
-572 -638 0
-573 -639 0
-571 -1156 0
-572 -1157 0
-573 -1158 0
-571 -2596 0
-572 -2597 0
-573 -2598 0
-574 -868 0
-575 -869 0
-576 -870 0
-574 -640 0
-575 -641 0
-576 -642 0
-577 -1231 0
-578 -1232 0
-579 -1233 0
-577 -643 0
-578 -644 0
-579 -645 0
-577 -1738 0
-578 -1739 0
-579 -1740 0
-577 -1924 0
-578 -1925 0
-579 -1926 0
-577 -2176 0
-578 -2177 0
-579 -2178 0
-580 -2290 0
-581 -2291 0
-582 -2292 0
-580 -1183 0
-581 -1184 0
-582 -1185 0
-580 -928 0
-581 -929 0
-582 -930 0
-580 -2662 0
-581 -2663 0
-582 -2664 0
-583 -2644 0
-584 -2645 0
-585 -2646 0
-583 -931 0
-584 -932 0
-585 -933 0
-586 -700 0
-587 -701 0
-588 -702 0
-586 -2359 0
-587 -2360 0
-588 -2361 0
-586 -2572 0
-587 -2573 0
-588 -2574 0
-589 -2317 0
-590 -2318 0
-591 -2319 0
-589 -1516 0
-590 -1517 0
-591 -1518 0
-592 -1030 0
-593 -1031 0
-594 -1032 0
-592 -640 0
-593 -641 0
-594 -642 0
-595 -1033 0
-596 -1034 0
-597 -1035 0
-595 -640 0
-596 -641 0
-597 -642 0
-595 -886 0
-596 -887 0
-597 -888 0
-598 -640 0
-599 -641 0
-600 -642 0
-601 -1153 0
-602 -1154 0
-603 -1155 0
-601 -955 0
-602 -956 0
-603 -957 0
-601 -1216 0
-602 -1217 0
-603 -1218 0
-604 -958 0
-605 -959 0
-606 -960 0
-604 -2089 0
-605 -2090 0
-606 -2091 0
-607 -1690 0
-608 -1691 0
-609 -1692 0
-607 -730 0
-608 -731 0
-609 -732 0
-607 -1366 0
-608 -1367 0
-609 -1368 0
-607 -1369 0
-608 -1370 0
-609 -1371 0
-610 -2119 0
-611 -2120 0
-612 -2121 0
-610 -2440 0
-611 -2441 0
-612 -2442 0
-610 -1960 0
-611 -1961 0
-612 -1962 0
-610 -1939 0
-611 -1940 0
-612 -1941 0
-610 -2647 0
-611 -2648 0
-612 -2649 0
-610 -1048 0
-611 -1049 0
-612 -1050 0
-610 -2482 0
-611 -2483 0
-612 -2484 0
-613 -2134 0
-614 -2135 0
-615 -2136 0
-613 -1288 0
-614 -1289 0
-615 -1290 0
-613 -916 0
-614 -917 0
-615 -918 0
-613 -1255 0
-614 -1256 0
-615 -1257 0
-616 -1918 0
-617 -1919 0
-618 -1920 0
-616 -925 0
-617 -926 0
-618 -927 0
-616 -1867 0
-617 -1868 0
-618 -1869 0
-619 -2275 0
-620 -2276 0
-621 -2277 0
-619 -1981 0
-620 -1982 0
-621 -1983 0
-619 -1450 0
-620 -1451 0
-621 -1452 0
-619 -916 0
-620 -917 0
-621 -918 0
-622 -925 0
-623 -926 0
-624 -927 0
-622 -2044 0
-623 -2045 0
-624 -2046 0
-622 -1468 0
-623 -1469 0
-624 -1470 0
-622 -1762 0
-623 -1763 0
-624 -1764 0
-625 -2419 0
-626 -2420 0
-627 -2421 0
-625 -2422 0
-626 -2423 0
-627 -2424 0
-625 -925 0
-626 -926 0
-627 -927 0
-628 -2185 0
-629 -2186 0
-630 -2187 0
-628 -979 0
-629 -980 0
-630 -981 0
-631 -2434 0
-632 -2435 0
-633 -2436 0
-631 -2287 0
-632 -2288 0
-633 -2289 0
-631 -889 0
-632 -890 0
-633 -891 0
-631 -1654 0
-632 -1655 0
-633 -1656 0
-634 -1459 0
-635 -1460 0
-636 -1461 0
-634 -1990 0
-635 -1991 0
-636 -1992 0
-634 -637 0
-635 -638 0
-636 -639 0
-634 -2017 0
-635 -2018 0
-636 -2019 0
-634 -1471 0
-635 -1472 0
-636 -1473 0
-637 -988 0
-638 -989 0
-639 -990 0
-637 -1036 0
-638 -1037 0
-639 -1038 0
-637 -892 0
-638 -893 0
-639 -894 0
-637 -904 0
-638 -905 0
-639 -906 0
-637 -910 0
-638 -911 0
-639 -912 0
-637 -727 0
-638 -728 0
-639 -729 0
-637 -640 0
-638 -641 0
-639 -642 0
-637 -919 0
-638 -920 0
-639 -921 0
-637 -1060 0
-638 -1061 0
-639 -1062 0
-637 -697 0
-638 -698 0
-639 -699 0
-637 -703 0
-638 -704 0
-639 -705 0
-640 -991 0
-641 -992 0
-642 -993 0
-640 -769 0
-641 -770 0
-642 -771 0
-640 -994 0
-641 -995 0
-642 -996 0
-640 -997 0
-641 -998 0
-642 -999 0
-640 -1000 0
-641 -1001 0
-642 -1002 0
-640 -889 0
-641 -890 0
-642 -891 0
-640 -898 0
-641 -899 0
-642 -900 0
-640 -907 0
-641 -908 0
-642 -909 0
-640 -913 0
-641 -914 0
-642 -915 0
-640 -682 0
-641 -683 0
-642 -684 0
-640 -1045 0
-641 -1046 0
-642 -1047 0
-640 -1048 0
-641 -1049 0
-642 -1050 0
-640 -730 0
-641 -731 0
-642 -732 0
-640 -643 0
-641 -644 0
-642 -645 0
-640 -874 0
-641 -875 0
-642 -876 0
-640 -1057 0
-641 -1058 0
-642 -1059 0
-640 -916 0
-641 -917 0
-642 -918 0
-640 -925 0
-641 -926 0
-642 -927 0
-640 -955 0
-641 -956 0
-642 -957 0
-640 -958 0
-641 -959 0
-642 -960 0
-640 -961 0
-641 -962 0
-642 -963 0
-640 -964 0
-641 -965 0
-642 -966 0
-640 -1063 0
-641 -1064 0
-642 -1065 0
-640 -883 0
-641 -884 0
-642 -885 0
-640 -928 0
-641 -929 0
-642 -930 0
-640 -931 0
-641 -932 0
-642 -933 0
-640 -934 0
-641 -935 0
-642 -936 0
-640 -937 0
-641 -938 0
-642 -939 0
-640 -700 0
-641 -701 0
-642 -702 0
-640 -706 0
-641 -707 0
-642 -708 0
-640 -709 0
-641 -710 0
-642 -711 0
-640 -973 0
-641 -974 0
-642 -975 0
-640 -976 0
-641 -977 0
-642 -978 0
-640 -979 0
-641 -980 0
-642 -981 0
-640 -760 0
-641 -761 0
-642 -762 0
-640 -763 0
-641 -764 0
-642 -765 0
-640 -835 0
-641 -836 0
-642 -837 0
-640 -985 0
-641 -986 0
-642 -987 0
-643 -895 0
-644 -896 0
-645 -897 0
-643 -901 0
-644 -902 0
-645 -903 0
-643 -646 0
-644 -647 0
-645 -648 0
-643 -922 0
-644 -923 0
-645 -924 0
-643 -1066 0
-644 -1067 0
-645 -1068 0
-643 -712 0
-644 -713 0
-645 -714 0
-646 -2629 0
-647 -2630 0
-648 -2631 0
-646 -1492 0
-647 -1493 0
-648 -1494 0
-646 -2626 0
-647 -2627 0
-648 -2628 0
-646 -2341 0
-647 -2342 0
-648 -2343 0
-649 -2521 0
-650 -2522 0
-651 -2523 0
-649 -1846 0
-650 -1847 0
-651 -1848 0
-649 -1753 0
-650 -1754 0
-651 -1755 0
-649 -907 0
-650 -908 0
-651 -909 0
-652 -2293 0
-653 -2294 0
-654 -2295 0
-652 -1849 0
-653 -1850 0
-654 -1851 0
-652 -2551 0
-653 -2552 0
-654 -2553 0
-652 -913 0
-653 -914 0
-654 -915 0
-655 -997 0
-656 -998 0
-657 -999 0
-655 -1390 0
-656 -1391 0
-657 -1392 0
-655 -2506 0
-656 -2507 0
-657 -2508 0
-658 -2233 0
-659 -2234 0
-660 -2235 0
-658 -2437 0
-659 -2438 0
-660 -2439 0
-658 -1171 0
-659 -1172 0
-660 -1173 0
-658 -2305 0
-659 -2306 0
-660 -2307 0
-658 -2323 0
-659 -2324 0
-660 -2325 0
-661 -2257 0
-662 -2258 0
-663 -2259 0
-661 -2290 0
-662 -2291 0
-663 -2292 0
-661 -928 0
-662 -929 0
-663 -930 0
-661 -1555 0
-662 -1556 0
-663 -1557 0
-661 -1528 0
-662 -1529 0
-663 -1530 0
-661 -2650 0
-662 -2651 0
-663 -2652 0
-664 -1525 0
-665 -1526 0
-666 -1527 0
-664 -1720 0
-665 -1721 0
-666 -1722 0
-664 -1057 0
-665 -1058 0
-666 -1059 0
-664 -1660 0
-665 -1661 0
-666 -1662 0
-667 -1348 0
-668 -1349 0
-669 -1350 0
-667 -2080 0
-668 -2081 0
-669 -2082 0
-667 -1315 0
-668 -1316 0
-669 -1317 0
-667 -1558 0
-668 -1559 0
-669 -1560 0
-667 -1057 0
-668 -1058 0
-669 -1059 0
-667 -1294 0
-668 -1295 0
-669 -1296 0
-670 -2407 0
-671 -2408 0
-672 -2409 0
-670 -928 0
-671 -929 0
-672 -930 0
-670 -2659 0
-671 -2660 0
-672 -2661 0
-670 -2425 0
-671 -2426 0
-672 -2427 0
-673 -2050 0
-674 -2051 0
-675 -2052 0
-673 -2011 0
-674 -2012 0
-675 -2013 0
-673 -2113 0
-674 -2114 0
-675 -2115 0
-673 -1063 0
-674 -1064 0
-675 -1065 0
-673 -1558 0
-674 -1559 0
-675 -1560 0
-676 -2578 0
-677 -2579 0
-678 -2580 0
-676 -760 0
-677 -761 0
-678 -762 0
-676 -1306 0
-677 -1307 0
-678 -1308 0
-679 -991 0
-680 -992 0
-681 -993 0
-679 -2662 0
-680 -2663 0
-681 -2664 0
-679 -1489 0
-680 -1490 0
-681 -1491 0
-679 -1477 0
-680 -1478 0
-681 -1479 0
-682 -1012 0
-683 -1013 0
-684 -1014 0
-685 -2281 0
-686 -2282 0
-687 -2283 0
-685 -898 0
-686 -899 0
-687 -900 0
-688 -2203 0
-689 -2204 0
-690 -2205 0
-688 -2575 0
-689 -2576 0
-690 -2577 0
-688 -913 0
-689 -914 0
-690 -915 0
-691 -2485 0
-692 -2486 0
-693 -2487 0
-691 -1423 0
-692 -1424 0
-693 -1425 0
-691 -955 0
-692 -956 0
-693 -957 0
-694 -2044 0
-695 -2045 0
-696 -2046 0
-694 -2350 0
-695 -2351 0
-696 -2352 0
-694 -961 0
-695 -962 0
-696 -963 0
-697 -700 0
-698 -701 0
-699 -702 0
-697 -2359 0
-698 -2360 0
-699 -2361 0
-697 -2509 0
-698 -2510 0
-699 -2511 0
-697 -2680 0
-698 -2681 0
-699 -2682 0
-700 -943 0
-701 -944 0
-702 -945 0
-700 -1021 0
-701 -1022 0
-702 -1023 0
-700 -1069 0
-701 -1070 0
-702 -1071 0
-703 -2197 0
-704 -2198 0
-705 -2199 0
-703 -2110 0
-704 -2111 0
-705 -2112 0
-703 -706 0
-704 -707 0
-705 -708 0
-706 -949 0
-707 -950 0
-708 -951 0
-706 -1009 0
-707 -1010 0
-708 -1011 0
-706 -1072 0
-707 -1073 0
-708 -1074 0
-706 -1024 0
-707 -1025 0
-708 -1026 0
-709 -952 0
-710 -953 0
-711 -954 0
-709 -1075 0
-710 -1076 0
-711 -1077 0
-709 -712 0
-710 -713 0
-711 -714 0
-712 -1246 0
-713 -1247 0
-714 -1248 0
-712 -1870 0
-713 -1871 0
-714 -1872 0
-715 -2005 0
-716 -2006 0
-717 -2007 0
-715 -2245 0
-716 -2246 0
-717 -2247 0
-715 -958 0
-716 -959 0
-717 -960 0
-718 -1582 0
-719 -1583 0
-720 -1584 0
-718 -1486 0
-719 -1487 0
-720 -1488 0
-718 -955 0
-719 -956 0
-720 -957 0
-721 -964 0
-722 -965 0
-723 -966 0
-721 -2242 0
-722 -2243 0
-723 -2244 0
-721 -2206 0
-722 -2207 0
-723 -2208 0
-721 -2128 0
-722 -2129 0
-723 -2130 0
-724 -1282 0
-725 -1283 0
-726 -1284 0
-724 -1048 0
-725 -1049 0
-726 -1050 0
-724 -1345 0
-725 -1346 0
-726 -1347 0
-727 -730 0
-728 -731 0
-729 -732 0
-727 -1261 0
-728 -1262 0
-729 -1263 0
-727 -1264 0
-728 -1265 0
-729 -1266 0
-727 -1291 0
-728 -1292 0
-729 -1293 0
-730 -1078 0
-731 -1079 0
-732 -1080 0
-730 -970 0
-731 -971 0
-732 -972 0
-730 -940 0
-731 -941 0
-732 -942 0
-733 -1684 0
-734 -1685 0
-735 -1686 0
-733 -955 0
-734 -956 0
-735 -957 0
-733 -1567 0
-734 -1568 0
-735 -1569 0
-733 -2095 0
-734 -2096 0
-735 -2097 0
-736 -2557 0
-737 -2558 0
-738 -2559 0
-736 -1159 0
-737 -1160 0
-738 -1161 0
-736 -1327 0
-737 -1328 0
-738 -1329 0
-736 -1363 0
-737 -1364 0
-738 -1365 0
-736 -961 0
-737 -962 0
-738 -963 0
-739 -991 0
-740 -992 0
-741 -993 0
-739 -1873 0
-740 -1874 0
-741 -1875 0
-739 -1318 0
-740 -1319 0
-741 -1320 0
-742 -1651 0
-743 -1652 0
-744 -1653 0
-742 -2464 0
-743 -2465 0
-744 -2466 0
-742 -994 0
-743 -995 0
-744 -996 0
-745 -2017 0
-746 -2018 0
-747 -2019 0
-745 -2188 0
-746 -2189 0
-747 -2190 0
-745 -1990 0
-746 -1991 0
-747 -1992 0
-745 -2107 0
-746 -2108 0
-747 -2109 0
-745 -2470 0
-746 -2471 0
-747 -2472 0
-745 -985 0
-746 -986 0
-747 -987 0
-748 -1663 0
-749 -1664 0
-750 -1665 0
-748 -2356 0
-749 -2357 0
-750 -2358 0
-748 -1783 0
-749 -1784 0
-750 -1785 0
-748 -1798 0
-749 -1799 0
-750 -1800 0
-748 -1402 0
-749 -1403 0
-750 -1404 0
-748 -1405 0
-749 -1406 0
-750 -1407 0
-748 -1456 0
-749 -1457 0
-750 -1458 0
-748 -1681 0
-749 -1682 0
-750 -1683 0
-748 -1459 0
-749 -1460 0
-750 -1461 0
-748 -1408 0
-749 -1409 0
-750 -1410 0
-748 -1693 0
-749 -1694 0
-750 -1695 0
-748 -1699 0
-749 -1700 0
-750 -1701 0
-748 -1063 0
-749 -1064 0
-750 -1065 0
-748 -1471 0
-749 -1472 0
-750 -1473 0
-748 -1972 0
-749 -1973 0
-750 -1974 0
-748 -1579 0
-749 -1580 0
-750 -1581 0
-748 -1381 0
-749 -1382 0
-750 -1383 0
-748 -1390 0
-749 -1391 0
-750 -1392 0
-751 -2356 0
-752 -2357 0
-753 -2358 0
-751 -2014 0
-752 -2015 0
-753 -2016 0
-751 -2626 0
-752 -2627 0
-753 -2628 0
-751 -2188 0
-752 -2189 0
-753 -2190 0
-751 -1813 0
-752 -1814 0
-753 -1815 0
-751 -2374 0
-752 -2375 0
-753 -2376 0
-751 -1063 0
-752 -1064 0
-753 -1065 0
-751 -2341 0
-752 -2342 0
-753 -2343 0
-751 -2344 0
-752 -2345 0
-753 -2346 0
-751 -1996 0
-752 -1997 0
-753 -1998 0
-751 -1498 0
-752 -1499 0
-753 -1500 0
-751 -2254 0
-752 -2255 0
-753 -2256 0
-751 -1768 0
-752 -1769 0
-753 -1770 0
-751 -2479 0
-752 -2480 0
-753 -2481 0
-754 -991 0
-755 -992 0
-756 -993 0
-754 -2338 0
-755 -2339 0
-756 -2340 0
-754 -1381 0
-755 -1382 0
-756 -1383 0
-754 -2650 0
-755 -2651 0
-756 -2652 0
-757 -1297 0
-758 -1298 0
-759 -1299 0
-757 -1057 0
-758 -1058 0
-759 -1059 0
-757 -1660 0
-758 -1661 0
-759 -1662 0
-760 -1039 0
-761 -1040 0
-762 -1041 0
-760 -1006 0
-761 -1007 0
-762 -1008 0
-760 -1087 0
-761 -1088 0
-762 -1089 0
-760 -1108 0
-761 -1109 0
-762 -1110 0
-763 -1042 0
-764 -1043 0
-765 -1044 0
-766 -1426 0
-767 -1427 0
-768 -1428 0
-766 -2437 0
-767 -2438 0
-768 -2439 0
-766 -1048 0
-767 -1049 0
-768 -1050 0
-769 -1051 0
-770 -1052 0
-771 -1053 0
-772 -2002 0
-773 -2003 0
-774 -2004 0
-772 -2053 0
-773 -2054 0
-774 -2055 0
-772 -976 0
-773 -977 0
-774 -978 0
-772 -2125 0
-773 -2126 0
-774 -2127 0
-775 -973 0
-776 -974 0
-777 -975 0
-775 -2302 0
-776 -2303 0
-777 -2304 0
-775 -1735 0
-776 -1736 0
-777 -1737 0
-778 -1627 0
-779 -1628 0
-780 -1629 0
-778 -1552 0
-779 -1553 0
-780 -1554 0
-778 -2122 0
-779 -2123 0
-780 -2124 0
-778 -1507 0
-779 -1508 0
-780 -1509 0
-778 -1933 0
-779 -1934 0
-780 -1935 0
-778 -994 0
-779 -995 0
-780 -996 0
-778 -2095 0
-779 -2096 0
-780 -2097 0
-781 -2071 0
-782 -2072 0
-783 -2073 0
-781 -1225 0
-782 -1226 0
-783 -1227 0
-784 -1000 0
-785 -1001 0
-786 -1002 0
-784 -2560 0
-785 -2561 0
-786 -2562 0
-784 -1474 0
-785 -1475 0
-786 -1476 0
-784 -2425 0
-785 -2426 0
-786 -2427 0
-787 -1387 0
-788 -1388 0
-789 -1389 0
-787 -997 0
-788 -998 0
-789 -999 0
-787 -1753 0
-788 -1754 0
-789 -1755 0
-787 -1564 0
-788 -1565 0
-789 -1566 0
-787 -2512 0
-788 -2513 0
-789 -2514 0
-787 -2506 0
-788 -2507 0
-789 -2508 0
-787 -1819 0
-788 -1820 0
-789 -1821 0
-787 -1516 0
-788 -1517 0
-789 -1518 0
-790 -2386 0
-791 -2387 0
-792 -2388 0
-790 -2074 0
-791 -2075 0
-792 -2076 0
-790 -1876 0
-791 -1877 0
-792 -1878 0
-790 -994 0
-791 -995 0
-792 -996 0
-790 -1549 0
-791 -1550 0
-792 -1551 0
-790 -2464 0
-791 -2465 0
-792 -2466 0
-790 -1627 0
-791 -1628 0
-792 -1629 0
-790 -1858 0
-791 -1859 0
-792 -1860 0
-790 -1654 0
-791 -1655 0
-792 -1656 0
-793 -997 0
-794 -998 0
-795 -999 0
-793 -1222 0
-794 -1223 0
-795 -1224 0
-793 -1819 0
-794 -1820 0
-795 -1821 0
-796 -1000 0
-797 -1001 0
-798 -1002 0
-796 -2533 0
-797 -2534 0
-798 -2535 0
-796 -2077 0
-797 -2078 0
-798 -2079 0
-799 -2260 0
-800 -2261 0
-801 -2262 0
-799 -2347 0
-800 -2348 0
-801 -2349 0
-799 -2305 0
-800 -2306 0
-801 -2307 0
-802 -2485 0
-803 -2486 0
-804 -2487 0
-802 -1969 0
-803 -1970 0
-804 -1971 0
-802 -1975 0
-803 -1976 0
-804 -1977 0
-802 -1219 0
-803 -1220 0
-804 -1221 0
-802 -2311 0
-803 -2312 0
-804 -2313 0
-802 -1162 0
-803 -1163 0
-804 -1164 0
-802 -1045 0
-803 -1046 0
-804 -1047 0
-802 -2179 0
-803 -2180 0
-804 -2181 0
-802 -1591 0
-803 -1592 0
-804 -1593 0
-805 -1930 0
-806 -1931 0
-807 -1932 0
-805 -1411 0
-806 -1412 0
-807 -1413 0
-805 -1873 0
-806 -1874 0
-807 -1875 0
-805 -2350 0
-806 -2351 0
-807 -2352 0
-808 -1231 0
-809 -1232 0
-810 -1233 0
-808 -2455 0
-809 -2456 0
-810 -2457 0
-808 -2038 0
-809 -2039 0
-810 -2040 0
-808 -2440 0
-809 -2441 0
-810 -2442 0
-808 -2311 0
-809 -2312 0
-810 -2313 0
-808 -1048 0
-809 -1049 0
-810 -1050 0
-808 -1228 0
-809 -1229 0
-810 -1230 0
-811 -2164 0
-812 -2165 0
-813 -2166 0
-811 -985 0
-812 -986 0
-813 -987 0
-811 -1165 0
-812 -1166 0
-813 -1167 0
-814 -2428 0
-815 -2429 0
-816 -2430 0
-814 -2653 0
-815 -2654 0
-816 -2655 0
-814 -889 0
-815 -890 0
-816 -891 0
-817 -2065 0
-818 -2066 0
-819 -2067 0
-817 -2200 0
-818 -2201 0
-819 -2202 0
-817 -2497 0
-818 -2498 0
-819 -2499 0
-817 -913 0
-818 -914 0
-819 -915 0
-820 -2038 0
-821 -2039 0
-822 -2040 0
-820 -2248 0
-821 -2249 0
-822 -2250 0
-820 -1048 0
-821 -1049 0
-822 -1050 0
-823 -1180 0
-824 -1181 0
-825 -1182 0
-823 -2041 0
-824 -2042 0
-825 -2043 0
-823 -1177 0
-824 -1178 0
-825 -1179 0
-826 -1525 0
-827 -1526 0
-828 -1527 0
-826 -1249 0
-827 -1250 0
-828 -1251 0
-826 -1057 0
-827 -1058 0
-828 -1059 0
-826 -1711 0
-827 -1712 0
-828 -1713 0
-829 -2449 0
-830 -2450 0
-831 -2451 0
-829 -2275 0
-830 -2276 0
-831 -2277 0
-829 -916 0
-830 -917 0
-831 -918 0
-832 -1801 0
-833 -1802 0
-834 -1803 0
-832 -1813 0
-833 -1814 0
-834 -1815 0
-832 -2368 0
-833 -2369 0
-834 -2370 0
-832 -1063 0
-833 -1064 0
-834 -1065 0
-832 -2212 0
-833 -2213 0
-834 -2214 0
-835 -1018 0
-836 -1019 0
-837 -1020 0
-838 -2053 0
-839 -2054 0
-840 -2055 0
-838 -1063 0
-839 -1064 0
-840 -1065 0
-838 -1564 0
-839 -1565 0
-840 -1566 0
-838 -1768 0
-839 -1769 0
-840 -1770 0
-841 -1663 0
-842 -1664 0
-843 -1665 0
-841 -1063 0
-842 -1064 0
-843 -1065 0
-841 -1966 0
-842 -1967 0
-843 -1968 0
-844 -1063 0
-845 -1064 0
-846 -1065 0
-844 -2293 0
-845 -2294 0
-846 -2295 0
-844 -1876 0
-845 -1877 0
-846 -1878 0
-844 -1579 0
-845 -1580 0
-846 -1581 0
-844 -1996 0
-845 -1997 0
-846 -1998 0
-847 -2575 0
-848 -2576 0
-849 -2577 0
-847 -2653 0
-848 -2654 0
-849 -2655 0
-847 -2680 0
-848 -2681 0
-849 -2682 0
-847 -1228 0
-848 -1229 0
-849 -1230 0
-850 -1372 0
-851 -1373 0
-852 -1374 0
-850 -1453 0
-851 -1454 0
-852 -1455 0
-853 -2197 0
-854 -2198 0
-855 -2199 0
-853 -2494 0
-854 -2495 0
-855 -2496 0
-853 -2281 0
-854 -2282 0
-855 -2283 0
-856 -2065 0
-857 -2066 0
-858 -2067 0
-856 -2200 0
-857 -2201 0
-858 -2202 0
-856 -1591 0
-857 -1592 0
-858 -1593 0
-856 -1870 0
-857 -1871 0
-858 -1872 0
-856 -1219 0
-857 -1220 0
-858 -1221 0
-856 -1531 0
-857 -1532 0
-858 -1533 0
-859 -2209 0
-860 -2210 0
-861 -2211 0
-859 -1165 0
-860 -1166 0
-861 -1167 0
-859 -925 0
-860 -926 0
-861 -927 0
-862 -1612 0
-863 -1613 0
-864 -1614 0
-862 -1624 0
-863 -1625 0
-864 -1626 0
-862 -1480 0
-863 -1481 0
-864 -1482 0
-862 -1627 0
-863 -1628 0
-864 -1629 0
-862 -1717 0
-863 -1718 0
-864 -1719 0
-862 -1849 0
-863 -1850 0
-864 -1851 0
-862 -1741 0
-863 -1742 0
-864 -1743 0
-862 -1744 0
-863 -1745 0
-864 -1746 0
-862 -1648 0
-863 -1649 0
-864 -1650 0
-862 -913 0
-863 -914 0
-864 -915 0
-865 -2047 0
-866 -2048 0
-867 -2049 0
-865 -2071 0
-866 -2072 0
-867 -2073 0
-865 -907 0
-866 -908 0
-867 -909 0
-865 -1846 0
-866 -1847 0
-867 -1848 0
-865 -2152 0
-866 -2153 0
-867 -2154 0
-868 -1777 0
-869 -1778 0
-870 -1779 0
-868 -1819 0
-869 -1820 0
-870 -1821 0
-868 -1543 0
-869 -1544 0
-870 -1545 0
-868 -1723 0
-869 -1724 0
-870 -1725 0
-868 -2296 0
-869 -2297 0
-870 -2298 0
-868 -898 0
-869 -899 0
-870 -900 0
-868 -1642 0
-869 -1643 0
-870 -1644 0
-868 -1765 0
-869 -1766 0
-870 -1767 0
-868 -1396 0
-869 -1397 0
-870 -1398 0
-868 -1771 0
-869 -1772 0
-870 -1773 0
-871 -2434 0
-872 -2435 0
-873 -2436 0
-871 -1936 0
-872 -1937 0
-873 -1938 0
-871 -2056 0
-872 -2057 0
-873 -2058 0
-871 -889 0
-872 -890 0
-873 -891 0
-871 -1738 0
-872 -1739 0
-873 -1740 0
-874 -1018 0
-875 -1019 0
-876 -1020 0
-877 -1276 0
-878 -1277 0
-879 -1278 0
-877 -2098 0
-878 -2099 0
-879 -2100 0
-877 -1786 0
-878 -1787 0
-879 -1788 0
-877 -1789 0
-878 -1790 0
-879 -1791 0
-877 -925 0
-878 -926 0
-879 -927 0
-880 -2473 0
-881 -2474 0
-882 -2475 0
-880 -2080 0
-881 -2081 0
-882 -2082 0
-880 -1057 0
-881 -1058 0
-882 -1059 0
-886 -1642 0
-887 -1643 0
-888 -1644 0
-886 -1729 0
-887 -1730 0
-888 -1731 0
-886 -898 0
-887 -899 0
-888 -900 0
-889 -952 0
-890 -953 0
-891 -954 0
-889 -895 0
-890 -896 0
-891 -897 0
-889 -1081 0
-890 -1082 0
-891 -1083 0
-889 -1117 0
-890 -1118 0
-891 -1119 0
-889 -1090 0
-890 -1091 0
-891 -1092 0
-889 -1102 0
-890 -1103 0
-891 -1104 0
-892 -1543 0
-893 -1544 0
-894 -1545 0
-892 -2431 0
-893 -2432 0
-894 -2433 0
-892 -1534 0
-893 -1535 0
-894 -1536 0
-892 -898 0
-893 -899 0
-894 -900 0
-895 -1597 0
-896 -1598 0
-897 -1599 0
-895 -1603 0
-896 -1604 0
-897 -1605 0
-895 -1732 0
-896 -1733 0
-897 -1734 0
-895 -1738 0
-896 -1739 0
-897 -1740 0
-898 -949 0
-899 -950 0
-900 -951 0
-898 -901 0
-899 -902 0
-900 -903 0
-898 -1084 0
-899 -1085 0
-900 -1086 0
-898 -1093 0
-899 -1094 0
-900 -1095 0
-901 -1945 0
-902 -1946 0
-903 -1947 0
-901 -2515 0
-902 -2516 0
-903 -2517 0
-904 -2431 0
-905 -2432 0
-906 -2433 0
-904 -1393 0
-905 -1394 0
-906 -1395 0
-904 -907 0
-905 -908 0
-906 -909 0
-907 -946 0
-908 -947 0
-909 -948 0
-907 -1084 0
-908 -1085 0
-909 -1086 0
-910 -1648 0
-911 -1649 0
-912 -1650 0
-910 -913 0
-911 -914 0
-912 -915 0
-910 -2488 0
-911 -2489 0
-912 -2490 0
-910 -1999 0
-911 -2000 0
-912 -2001 0
-913 -943 0
-914 -944 0
-915 -945 0
-913 -1081 0
-914 -1082 0
-915 -1083 0
-913 -1120 0
-914 -1121 0
-915 -1122 0
-913 -1096 0
-914 -1097 0
-915 -1098 0
-913 -1099 0
-914 -1100 0
-915 -1101 0
-913 -1105 0
-914 -1106 0
-915 -1107 0
-916 -922 0
-917 -923 0
-918 -924 0
-916 -1090 0
-917 -1091 0
-918 -1092 0
-916 -1093 0
-917 -1094 0
-918 -1095 0
-916 -1096 0
-917 -1097 0
-918 -1098 0
-916 -1123 0
-917 -1124 0
-918 -1125 0
-916 -970 0
-917 -971 0
-918 -972 0
-916 -1129 0
-917 -1130 0
-918 -1131 0
-916 -1132 0
-917 -1133 0
-918 -1134 0
-919 -925 0
-920 -926 0
-921 -927 0
-919 -2623 0
-920 -2624 0
-921 -2625 0
-919 -1537 0
-920 -1538 0
-921 -1539 0
-919 -1813 0
-920 -1814 0
-921 -1815 0
-922 -2182 0
-923 -2183 0
-924 -2184 0
-922 -1603 0
-923 -1604 0
-924 -1605 0
-922 -1948 0
-923 -1949 0
-924 -1950 0
-922 -1687 0
-923 -1688 0
-924 -1689 0
-922 -2194 0
-923 -2195 0
-924 -2196 0
-922 -1408 0
-923 -1409 0
-924 -1410 0
-922 -1462 0
-923 -1463 0
-924 -1464 0
-922 -1615 0
-923 -1616 0
-924 -1617 0
-922 -1618 0
-923 -1619 0
-924 -1620 0
-922 -1414 0
-923 -1415 0
-924 -1416 0
-922 -2164 0
-923 -2165 0
-924 -2166 0
-922 -1492 0
-923 -1493 0
-924 -1494 0
-922 -1594 0
-923 -1595 0
-924 -1596 0
-922 -1864 0
-923 -1865 0
-924 -1866 0
-925 -1099 0
-926 -1100 0
-927 -1101 0
-925 -1126 0
-926 -1127 0
-927 -1128 0
-925 -1135 0
-926 -1136 0
-927 -1137 0
-928 -1111 0
-929 -1112 0
-930 -1113 0
-928 -1105 0
-929 -1106 0
-930 -1107 0
-928 -1138 0
-929 -1139 0
-930 -1140 0
-934 -1114 0
-935 -1115 0
-936 -1116 0
-937 -1006 0
-938 -1007 0
-939 -1008 0
-937 -1102 0
-938 -1103 0
-939 -1104 0
-940 -1675 0
-941 -1676 0
-942 -1677 0
-940 -1678 0
-941 -1679 0
-942 -1680 0
-943 -2434 0
-944 -2435 0
-945 -2436 0
-943 -2443 0
-944 -2444 0
-945 -2445 0
-946 -1978 0
-947 -1979 0
-948 -1980 0
-946 -1483 0
-947 -1484 0
-948 -1485 0
-946 -1753 0
-947 -1754 0
-948 -1755 0
-946 -1396 0
-947 -1397 0
-948 -1398 0
-949 -1210 0
-950 -1211 0
-951 -1212 0
-949 -1846 0
-950 -1847 0
-951 -1848 0
-949 -2059 0
-950 -2060 0
-951 -2061 0
-952 -1855 0
-953 -1856 0
-954 -1857 0
-952 -1654 0
-953 -1655 0
-954 -1656 0
-952 -1849 0
-953 -1850 0
-954 -1851 0
-955 -1054 0
-956 -1055 0
-957 -1056 0
-958 -1051 0
-959 -1052 0
-960 -1053 0
-958 -1009 0
-959 -1010 0
-960 -1011 0
-958 -1114 0
-959 -1115 0
-960 -1116 0
-961 -1042 0
-962 -1043 0
-963 -1044 0
-964 -1141 0
-965 -1142 0
-966 -1143 0
-964 -1039 0
-965 -1040 0
-966 -1041 0
-964 -1111 0
-965 -1112 0
-966 -1113 0
-967 -1939 0
-968 -1940 0
-969 -1941 0
-967 -1048 0
-968 -1049 0
-969 -1050 0
-967 -1195 0
-968 -1196 0
-969 -1197 0
-970 -1690 0
-971 -1691 0
-972 -1692 0
-970 -2617 0
-971 -2618 0
-972 -2619 0
-970 -1942 0
-971 -1943 0
-972 -1944 0
-973 -1141 0
-974 -1142 0
-975 -1143 0
-973 -1015 0
-974 -1016 0
-975 -1017 0
-976 -1138 0
-977 -1139 0
-978 -1140 0
-979 -1012 0
-980 -1013 0
-981 -1014 0
-982 -1204 0
-983 -1205 0
-984 -1206 0
-982 -1438 0
-983 -1439 0
-984 -1440 0
-982 -1063 0
-983 -1064 0
-984 -1065 0
-985 -1117 0
-986 -1118 0
-987 -1119 0
-985 -1126 0
-986 -1127 0
-987 -1128 0
-985 -1021 0
-986 -1022 0
-987 -1023 0
-985 -1024 0
-986 -1025 0
-987 -1026 0
-988 -991 0
-989 -992 0
-990 -993 0
-988 -2596 0
-989 -2597 0
-990 -2598 0
-988 -1459 0
-989 -1460 0
-990 -1461 0
-988 -1462 0
-989 -1463 0
-990 -1464 0
-988 -1186 0
-989 -1187 0
-990 -1188 0
-988 -1354 0
-989 -1355 0
-990 -1356 0
-988 -1414 0
-989 -1415 0
-990 -1416 0
-988 -1570 0
-989 -1571 0
-990 -1572 0
-988 -1381 0
-989 -1382 0
-990 -1383 0
-988 -1588 0
-989 -1589 0
-990 -1590 0
-988 -1261 0
-989 -1262 0
-990 -1263 0
-988 -1267 0
-989 -1268 0
-990 -1269 0
-991 -1120 0
-992 -1121 0
-993 -1122 0
-991 -1123 0
-992 -1124 0
-993 -1125 0
-994 -1129 0
-995 -1130 0
-996 -1131 0
-997 -1144 0
-998 -1145 0
-999 -1146 0
-997 -1132 0
-998 -1133 0
-999 -1134 0
-997 -1027 0
-998 -1028 0
-999 -1029 0
-1000 -1147 0
-1001 -1148 0
-1002 -1149 0
-1000 -1135 0
-1001 -1136 0
-1002 -1137 0
-1003 -2473 0
-1004 -2474 0
-1005 -2475 0
-1003 -1249 0
-1004 -1250 0
-1005 -1251 0
-1003 -2413 0
-1004 -2414 0
-1005 -2415 0
-1003 -1057 0
-1004 -1058 0
-1005 -1059 0
-1006 -1504 0
-1007 -1505 0
-1008 -1506 0
-1006 -2086 0
-1007 -2087 0
-1008 -2088 0
-1006 -1423 0
-1007 -1424 0
-1008 -1425 0
-1009 -2632 0
-1010 -2633 0
-1011 -2634 0
-1009 -2245 0
-1010 -2246 0
-1011 -2247 0
-1009 -2137 0
-1010 -2138 0
-1011 -2139 0
-1012 -1432 0
-1013 -1433 0
-1014 -1434 0
-1012 -1957 0
-1013 -1958 0
-1014 -1959 0
-1012 -2185 0
-1013 -2186 0
-1014 -2187 0
-1012 -1795 0
-1013 -1796 0
-1014 -1797 0
-1012 -1822 0
-1013 -1823 0
-1014 -1824 0
-1015 -1204 0
-1016 -1205 0
-1017 -1206 0
-1015 -2167 0
-1016 -2168 0
-1017 -2169 0
-1015 -1438 0
-1016 -1439 0
-1017 -1440 0
-1015 -1237 0
-1016 -1238 0
-1017 -1239 0
-1015 -2302 0
-1016 -2303 0
-1017 -2304 0
-1015 -1420 0
-1016 -1421 0
-1017 -1422 0
-1018 -2191 0
-1019 -2192 0
-1020 -2193 0
-1018 -1825 0
-1019 -1826 0
-1020 -1827 0
-1018 -1186 0
-1019 -1187 0
-1020 -1188 0
-1018 -1192 0
-1019 -1193 0
-1020 -1194 0
-1018 -1207 0
-1019 -1208 0
-1020 -1209 0
-1018 -2671 0
-1019 -2672 0
-1020 -2673 0
-1018 -1651 0
-1019 -1652 0
-1020 -1653 0
-1021 -2491 0
-1022 -2492 0
-1023 -2493 0
-1021 -2470 0
-1022 -2471 0
-1023 -2472 0
-1021 -2452 0
-1022 -2453 0
-1023 -2454 0
-1024 -1954 0
-1025 -1955 0
-1026 -1956 0
-1024 -2137 0
-1025 -2138 0
-1026 -2139 0
-1027 -1759 0
-1028 -1760 0
-1029 -1761 0
-1027 -1222 0
-1028 -1223 0
-1029 -1224 0
-1030 -1429 0
-1031 -1430 0
-1032 -1431 0
-1030 -1441 0
-1031 -1442 0
-1032 -1443 0
-1030 -1063 0
-1031 -1064 0
-1032 -1065 0
-1030 -2368 0
-1031 -2369 0
-1032 -2370 0
-1033 -1234 0
-1034 -1235 0
-1035 -1236 0
-1033 -1063 0
-1034 -1064 0
-1035 -1065 0
-1033 -1213 0
-1034 -1214 0
-1035 -1215 0
-1036 -1588 0
-1037 -1589 0
-1038 -1590 0
-1036 -1591 0
-1037 -1592 0
-1038 -1593 0
-1039 -1441 0
-1040 -1442 0
-1041 -1443 0
-1039 -2128 0
-1040 -2129 0
-1041 -2130 0
-1039 -2092 0
-1040 -2093 0
-1041 -2094 0
-1039 -2155 0
-1040 -2156 0
-1041 -2157 0
-1039 -1426 0
-1040 -1427 0
-1041 -1428 0
-1039 -1429 0
-1040 -1430 0
-1041 -1431 0
-1039 -1435 0
-1040 -1436 0
-1041 -1437 0
-1042 -1363 0
-1043 -1364 0
-1044 -1365 0
-1042 -1234 0
-1043 -1235 0
-1044 -1236 0
-1042 -1213 0
-1043 -1214 0
-1044 -1215 0
-1042 -1252 0
-1043 -1253 0
-1044 -1254 0
-1042 -1258 0
-1043 -1259 0
-1044 -1260 0
-1045 -1075 0
-1046 -1076 0
-1047 -1077 0
-1048 -1087 0
-1049 -1088 0
-1050 -1089 0
-1048 -1069 0
-1049 -1070 0
-1050 -1071 0
-1051 -2005 0
-1052 -2006 0
-1053 -2007 0
-1051 -2389 0
-1052 -2390 0
-1053 -2391 0
-1051 -1285 0
-1052 -1286 0
-1053 -1287 0
-1051 -2536 0
-1052 -2537 0
-1053 -2538 0
-1051 -2158 0
-1052 -2159 0
-1053 -2160 0
-1051 -2161 0
-1052 -2162 0
-1053 -2163 0
-1051 -1852 0
-1052 -1853 0
-1053 -1854 0
-1054 -1189 0
-1055 -1190 0
-1056 -1191 0
-1054 -1567 0
-1055 -1568 0
-1056 -1569 0
-1054 -1195 0
-1055 -1196 0
-1056 -1197 0
-1054 -1486 0
-1055 -1487 0
-1056 -1488 0
-1054 -1216 0
-1055 -1217 0
-1056 -1218 0
-1054 -1495 0
-1055 -1496 0
-1056 -1497 0
-1054 -2563 0
-1055 -2564 0
-1056 -2565 0
-1057 -1078 0
-1058 -1079 0
-1059 -1080 0
-1060 -2017 0
-1061 -2018 0
-1062 -2019 0
-1060 -2188 0
-1061 -2189 0
-1062 -2190 0
-1060 -1456 0
-1061 -1457 0
-1062 -1458 0
-1060 -1063 0
-1061 -1064 0
-1062 -1065 0
-1060 -1207 0
-1061 -1208 0
-1062 -1209 0
-1063 -1144 0
-1064 -1145 0
-1065 -1146 0
-1063 -1147 0
-1064 -1148 0
-1065 -1149 0
-1063 -1066 0
-1064 -1067 0
-1065 -1068 0
-1063 -1108 0
-1064 -1109 0
-1065 -1110 0
-1066 -1801 0
-1067 -1802 0
-1068 -1803 0
-1066 -1462 0
-1067 -1463 0
-1068 -1464 0
-1066 -1381 0
-1067 -1382 0
-1068 -1383 0
-1066 -1270 0
-1067 -1271 0
-1068 -1272 0
-1069 -1228 0
-1070 -1229 0
-1071 -1230 0
-1069 -2119 0
-1070 -2120 0
-1071 -2121 0
-1069 -2443 0
-1070 -2444 0
-1071 -2445 0
-1069 -2680 0
-1070 -2681 0
-1071 -2682 0
-1072 -2197 0
-1073 -2198 0
-1074 -2199 0
-1072 -2494 0
-1073 -2495 0
-1074 -2496 0
-1072 -2059 0
-1073 -2060 0
-1074 -2061 0
-1075 -1870 0
-1076 -1871 0
-1077 -1872 0
-1075 -1621 0
-1076 -1622 0
-1077 -1623 0
-1075 -1591 0
-1076 -1592 0
-1077 -1593 0
-1078 -1297 0
-1079 -1298 0
-1080 -1299 0
-1078 -1264 0
-1079 -1265 0
-1080 -1266 0
-1078 -1294 0
-1079 -1295 0
-1080 -1296 0
-1081 -2077 0
-1082 -2078 0
-1083 -2079 0
-1081 -2488 0
-1082 -2489 0
-1083 -2490 0
-1081 -2428 0
-1082 -2429 0
-1083 -2430 0
-1081 -1507 0
-1082 -1508 0
-1083 -1509 0
-1084 -2431 0
-1085 -2432 0
-1086 -2433 0
-1084 -1222 0
-1085 -1223 0
-1086 -1224 0
-1084 -1225 0
-1085 -1226 0
-1086 -1227 0
-1087 -1240 0
-1088 -1241 0
-1089 -1242 0
-1087 -1282 0
-1088 -1283 0
-1089 -1284 0
-1087 -1306 0
-1088 -1307 0
-1089 -1308 0
-1087 -2311 0
-1088 -2312 0
-1089 -2313 0
-1090 -1432 0
-1091 -1433 0
-1092 -1434 0
-1090 -1603 0
-1091 -1604 0
-1092 -1605 0
-1090 -1540 0
-1091 -1541 0
-1092 -1542 0
-1093 -1777 0
-1094 -1778 0
-1095 -1779 0
-1093 -1861 0
-1094 -1862 0
-1095 -1863 0
-1096 -2497 0
-1097 -2498 0
-1098 -2499 0
-1096 -1741 0
-1097 -1742 0
-1098 -1743 0
-1099 -1237 0
-1100 -1238 0
-1101 -1239 0
-1099 -2008 0
-1100 -2009 0
-1101 -2010 0
-1102 -1795 0
-1103 -1796 0
-1104 -1797 0
-1102 -2131 0
-1103 -2132 0
-1104 -2133 0
-1105 -2167 0
-1106 -2168 0
-1107 -2169 0
-1105 -1237 0
-1106 -1238 0
-1107 -1239 0
-1105 -2551 0
-1106 -2552 0
-1107 -2553 0
-1108 -2365 0
-1109 -2366 0
-1110 -2367 0
-1111 -1300 0
-1112 -1301 0
-1113 -1302 0
-1111 -2677 0
-1112 -2678 0
-1113 -2679 0
-1114 -2089 0
-1115 -2090 0
-1116 -2091 0
-1114 -1300 0
-1115 -1301 0
-1116 -1302 0
-1114 -2536 0
-1115 -2537 0
-1116 -2538 0
-1117 -2056 0
-1118 -2057 0
-1119 -2058 0
-1117 -2653 0
-1118 -2654 0
-1119 -2655 0
-1120 -1744 0
-1121 -1745 0
-1122 -1746 0
-1120 -2200 0
-1121 -2201 0
-1122 -2202 0
-1123 -1318 0
-1124 -1319 0
-1125 -1320 0
-1123 -1255 0
-1124 -1256 0
-1125 -1257 0
-1126 -1801 0
-1127 -1802 0
-1128 -1803 0
-1126 -1546 0
-1127 -1547 0
-1128 -1548 0
-1126 -2098 0
-1127 -2099 0
-1128 -2100 0
-1126 -2419 0
-1127 -2420 0
-1128 -2421 0
-1126 -1270 0
-1127 -1271 0
-1128 -1272 0
-1126 -1867 0
-1127 -1868 0
-1128 -1869 0
-1129 -1552 0
-1130 -1553 0
-1131 -1554 0
-1129 -1981 0
-1130 -1982 0
-1131 -1983 0
-1132 -2134 0
-1133 -2135 0
-1134 -2136 0
-1132 -1759 0
-1133 -1760 0
-1134 -1761 0
-1135 -2533 0
-1136 -2534 0
-1137 -2535 0
-1135 -2422 0
-1136 -2423 0
-1137 -2424 0
-1138 -1645 0
-1139 -1646 0
-1140 -1647 0
-1141 -1438 0
-1142 -1439 0
-1143 -1440 0
-1141 -1441 0
-1142 -1442 0
-1143 -1443 0
-1144 -1234 0
-1145 -1235 0
-1146 -1236 0
-1144 -1390 0
-1145 -1391 0
-1146 -1392 0
-1144 -1564 0
-1145 -1565 0
-1146 -1566 0
-1147 -1498 0
-1148 -1499 0
-1149 -1500 0
-1147 -1438 0
-1148 -1439 0
-1149 -1440 0
-1147 -1441 0
-1148 -1442 0
-1149 -1443 0
-1147 -2560 0
-1148 -2561 0
-1149 -2562 0
-1150 -2674 0
-1151 -2675 0
-1152 -2676 0
-1159 -1357 0
-1160 -1358 0
-1161 -1359 0
-1165 -1843 0
-1166 -1844 0
-1167 -1845 0
-1168 -2590 0
-1169 -2591 0
-1170 -2592 0
-1168 -1360 0
-1169 -1361 0
-1170 -1362 0
-1168 -1357 0
-1169 -1358 0
-1170 -1359 0
-1171 -2554 0
-1172 -2555 0
-1173 -2556 0
-1174 -2584 0
-1175 -2585 0
-1176 -2586 0
-1177 -1768 0
-1178 -1769 0
-1179 -1770 0
-1180 -2581 0
-1181 -2582 0
-1182 -2583 0
-1183 -2233 0
-1184 -2234 0
-1185 -2235 0
-1183 -2224 0
-1184 -2225 0
-1185 -2226 0
-1186 -2371 0
-1187 -2372 0
-1188 -2373 0
-1186 -2023 0
-1187 -2024 0
-1188 -2025 0
-1186 -2032 0
-1187 -2033 0
-1188 -2034 0
-1189 -2674 0
-1190 -2675 0
-1191 -2676 0
-1192 -2089 0
-1193 -2090 0
-1194 -2091 0
-1192 -1510 0
-1193 -1511 0
-1194 -1512 0
-1195 -2686 0
-1196 -2687 0
-1197 -2688 0
-1195 -2020 0
-1196 -2021 0
-1197 -2022 0
-1195 -2674 0
-1196 -2675 0
-1197 -2676 0
-1198 -1255 0
-1199 -1256 0
-1200 -1257 0
-1198 -1288 0
-1199 -1289 0
-1200 -1290 0
-1201 -1522 0
-1202 -1523 0
-1203 -1524 0
-1201 -1468 0
-1202 -1469 0
-1203 -1470 0
-1204 -2461 0
-1205 -2462 0
-1206 -2463 0
-1204 -2020 0
-1205 -2021 0
-1206 -2022 0
-1207 -1843 0
-1208 -1844 0
-1209 -1845 0
-1210 -2539 0
-1211 -2540 0
-1212 -2541 0
-1213 -1864 0
-1214 -1865 0
-1215 -1866 0
-1213 -1273 0
-1214 -1274 0
-1215 -1275 0
-1216 -1246 0
-1217 -1247 0
-1218 -1248 0
-1216 -1594 0
-1217 -1595 0
-1218 -1596 0
-1219 -2602 0
-1220 -2603 0
-1221 -2604 0
-1222 -1258 0
-1223 -1259 0
-1224 -1260 0
-1222 -1252 0
-1223 -1253 0
-1224 -1254 0
-1225 -2005 0
-1226 -2006 0
-1227 -2007 0
-1228 -1498 0
-1229 -1499 0
-1230 -1500 0
-1228 -2560 0
-1229 -2561 0
-1230 -2562 0
-1228 -1474 0
-1229 -1475 0
-1230 -1476 0
-1237 -2020 0
-1238 -2021 0
-1239 -2022 0
-1240 -1261 0
-1241 -1262 0
-1242 -1263 0
-1240 -1264 0
-1241 -1265 0
-1242 -1266 0
-1240 -1267 0
-1241 -1268 0
-1242 -1269 0
-1243 -2035 0
-1244 -2036 0
-1245 -2037 0
-1243 -2353 0
-1244 -2354 0
-1245 -2355 0
-1246 -1486 0
-1247 -1487 0
-1248 -1488 0
-1246 -1984 0
-1247 -1985 0
-1248 -1986 0
-1249 -1939 0
-1250 -1940 0
-1251 -1941 0
-1249 -2647 0
-1250 -2648 0
-1251 -2649 0
-1252 -1945 0
-1253 -1946 0
-1254 -1947 0
-1252 -1273 0
-1253 -1274 0
-1254 -1275 0
-1255 -1285 0
-1256 -1286 0
-1257 -1287 0
-1255 -1852 0
-1256 -1853 0
-1257 -1854 0
-1258 -1351 0
-1259 -1352 0
-1260 -1353 0
-1258 -1759 0
-1259 -1760 0
-1260 -1761 0
-1264 -1279 0
-1265 -1280 0
-1266 -1281 0
-1264 -1282 0
-1265 -1283 0
-1266 -1284 0
-1267 -1306 0
-1268 -1307 0
-1269 -1308 0
-1267 -1561 0
-1268 -1562 0
-1269 -1563 0
-1270 -1501 0
-1271 -1502 0
-1272 -1503 0
-1273 -1360 0
-1274 -1361 0
-1275 -1362 0
-1276 -2644 0
-1277 -2645 0
-1278 -2646 0
-1276 -1600 0
-1277 -1601 0
-1278 -1602 0
-1279 -1294 0
-1280 -1295 0
-1281 -1296 0
-1282 -1297 0
-1283 -1298 0
-1284 -1299 0
-1282 -1291 0
-1283 -1292 0
-1284 -1293 0
-1282 -2029 0
-1283 -2030 0
-1284 -2031 0
-1285 -2134 0
-1286 -2135 0
-1287 -2136 0
-1288 -1303 0
-1289 -1304 0
-1290 -1305 0
-1288 -1309 0
-1289 -1310 0
-1290 -1311 0
-1291 -1345 0
-1292 -1346 0
-1293 -1347 0
-1294 -1336 0
-1295 -1337 0
-1296 -1338 0
-1297 -1480 0
-1298 -1481 0
-1299 -1482 0
-1297 -1333 0
-1298 -1334 0
-1299 -1335 0
-1300 -1825 0
-1301 -1826 0
-1302 -1827 0
-1300 -2671 0
-1301 -2672 0
-1302 -2673 0
-1303 -1450 0
-1304 -1451 0
-1305 -1452 0
-1303 -1399 0
-1304 -1400 0
-1305 -1401 0
-1306 -2614 0
-1307 -2615 0
-1308 -2616 0
-1309 -1882 0
-1310 -1883 0
-1311 -1884 0
-1312 -1447 0
-1313 -1448 0
-1314 -1449 0
-1312 -1399 0
-1313 -1400 0
-1314 -1401 0
-1315 -2665 0
-1316 -2666 0
-1317 -2667 0
-1315 -1342 0
-1316 -1343 0
-1317 -1344 0
-1315 -1336 0
-1316 -1337 0
-1317 -1338 0
-1318 -2536 0
-1319 -2537 0
-1320 -2538 0
-1318 -1852 0
-1319 -1853 0
-1320 -1854 0
-1321 -1327 0
-1322 -1328 0
-1323 -1329 0
-1321 -1330 0
-1322 -1331 0
-1323 -1332 0
-1324 -1489 0
-1325 -1490 0
-1326 -1491 0
-1324 -1477 0
-1325 -1478 0
-1326 -1479 0
-1327 -1357 0
-1328 -1358 0
-1329 -1359 0
-1327 -1360 0
-1328 -1361 0
-1329 -1362 0
-1330 -1804 0
-1331 -1805 0
-1332 -1806 0
-1330 -1357 0
-1331 -1358 0
-1332 -1359 0
-1333 -1660 0
-1334 -1661 0
-1335 -1662 0
-1339 -1804 0
-1340 -1805 0
-1341 -1806 0
-1339 -1951 0
-1340 -1952 0
-1341 -1953 0
-1339 -1345 0
-1340 -1346 0
-1341 -1347 0
-1342 -1348 0
-1343 -1349 0
-1344 -1350 0
-1342 -1807 0
-1343 -1808 0
-1344 -1809 0
-1342 -1660 0
-1343 -1661 0
-1344 -1662 0
-1342 -2689 0
-1343 -2690 0
-1344 -2691 0
-1351 -2149 0
-1352 -2150 0
-1353 -2151 0
-1351 -1792 0
-1352 -1793 0
-1353 -1794 0
-1351 -1363 0
-1352 -1364 0
-1353 -1365 0
-1354 -1951 0
-1355 -1952 0
-1356 -1953 0
-1354 -1816 0
-1355 -1817 0
-1356 -1818 0
-1357 -1708 0
-1358 -1709 0
-1359 -1710 0
-1363 -1948 0
-1364 -1949 0
-1365 -1950 0
-1366 -1810 0
-1367 -1811 0
-1368 -1812 0
-1369 -2542 0
-1370 -2543 0
-1371 -2544 0
-1369 -1810 0
-1370 -1811 0
-1371 -1812 0
-1372 -1387 0
-1373 -1388 0
-1374 -1389 0
-1372 -1384 0
-1373 -1385 0
-1374 -1386 0
-1375 -1885 0
-1376 -1886 0
-1377 -1887 0
-1375 -1444 0
-1376 -1445 0
-1377 -1446 0
-1375 -1381 0
-1376 -1382 0
-1377 -1383 0
-1378 -1861 0
-1379 -1862 0
-1380 -1863 0
-1378 -2587 0
-1379 -2588 0
-1380 -2589 0
-1381 -1531 0
-1382 -1532 0
-1383 -1533 0
-1381 -2023 0
-1382 -2024 0
-1383 -2025 0
-1381 -1453 0
-1382 -1454 0
-1383 -1455 0
-1381 -1561 0
-1382 -1562 0
-1383 -1563 0
-1381 -2689 0
-1382 -2690 0
-1383 -2691 0
-1381 -1501 0
-1382 -1502 0
-1383 -1503 0
-1384 -1453 0
-1385 -1454 0
-1386 -1455 0
-1387 -1927 0
-1388 -1928 0
-1389 -1929 0
-1387 -1750 0
-1388 -1751 0
-1389 -1752 0
-1387 -1861 0
-1388 -1862 0
-1389 -1863 0
-1390 -1483 0
-1391 -1484 0
-1392 -1485 0
-1393 -1780 0
-1394 -1781 0
-1395 -1782 0
-1393 -2608 0
-1394 -2609 0
-1395 -2610 0
-1396 -1909 0
-1397 -1910 0
-1398 -1911 0
-1396 -1780 0
-1397 -1781 0
-1398 -1782 0
-1396 -1783 0
-1397 -1784 0
-1398 -1785 0
-1396 -2548 0
-1397 -2549 0
-1398 -2550 0
-1396 -1792 0
-1397 -1793 0
-1398 -1794 0
-1396 -1699 0
-1397 -1700 0
-1398 -1701 0
-1396 -2140 0
-1397 -2141 0
-1398 -2142 0
-1399 -1828 0
-1400 -1829 0
-1401 -1830 0
-1399 -1834 0
-1400 -1835 0
-1401 -1836 0
-1402 -2032 0
-1403 -2033 0
-1404 -2034 0
-1402 -2326 0
-1403 -2327 0
-1404 -2328 0
-1402 -2362 0
-1403 -2363 0
-1404 -2364 0
-1402 -2332 0
-1403 -2333 0
-1404 -2334 0
-1402 -2023 0
-1403 -2024 0
-1404 -2025 0
-1402 -1843 0
-1403 -1844 0
-1404 -1845 0
-1408 -1642 0
-1409 -1643 0
-1410 -1644 0
-1408 -1624 0
-1409 -1625 0
-1410 -1626 0
-1408 -2518 0
-1409 -2519 0
-1410 -2520 0
-1408 -1636 0
-1409 -1637 0
-1410 -1638 0
-1408 -1612 0
-1409 -1613 0
-1410 -1614 0
-1408 -1723 0
-1409 -1724 0
-1410 -1725 0
-1408 -1729 0
-1409 -1730 0
-1410 -1731 0
-1411 -1663 0
-1412 -1664 0
-1413 -1665 0
-1411 -1798 0
-1412 -1799 0
-1413 -1800 0
-1411 -1708 0
-1412 -1709 0
-1413 -1710 0
-1411 -1966 0
-1412 -1967 0
-1413 -1968 0
-1414 -2317 0
-1415 -2318 0
-1416 -2319 0
-1414 -1549 0
-1415 -1550 0
-1416 -1551 0
-1414 -1633 0
-1415 -1634 0
-1416 -1635 0
-1414 -2377 0
-1415 -2378 0
-1416 -2379 0
-1414 -2251 0
-1415 -2252 0
-1416 -2253 0
-1414 -2611 0
-1415 -2612 0
-1416 -2613 0
-1414 -1516 0
-1415 -1517 0
-1416 -1518 0
-1417 -1543 0
-1418 -1544 0
-1419 -1545 0
-1417 -2380 0
-1418 -2381 0
-1419 -2382 0
-1417 -1534 0
-1418 -1535 0
-1419 -1536 0
-1420 -1732 0
-1421 -1733 0
-1422 -1734 0
-1420 -1738 0
-1421 -1739 0
-1422 -1740 0
-1420 -1924 0
-1421 -1925 0
-1422 -1926 0
-1429 -2509 0
-1430 -2510 0
-1431 -2511 0
-1429 -1537 0
-1430 -1538 0
-1431 -1539 0
-1435 -2008 0
-1436 -2009 0
-1437 -2010 0
-1435 -1999 0
-1436 -2000 0
-1437 -2001 0
-1444 -1915 0
-1445 -1916 0
-1446 -1917 0
-1447 -1510 0
-1448 -1511 0
-1449 -1512 0
-1450 -1504 0
-1451 -1505 0
-1452 -1506 0
-1450 -2086 0
-1451 -2087 0
-1452 -2088 0
-1450 -2104 0
-1451 -2105 0
-1452 -2106 0
-1456 -2554 0
-1457 -2555 0
-1458 -2556 0
-1456 -1843 0
-1457 -1844 0
-1458 -1845 0
-1459 -2062 0
-1460 -2063 0
-1461 -2064 0
-1459 -2032 0
-1460 -2033 0
-1461 -2034 0
-1462 -2035 0
-1463 -2036 0
-1464 -2037 0
-1462 -2371 0
-1463 -2372 0
-1464 -2373 0
-1462 -2353 0
-1463 -2354 0
-1464 -2355 0
-1465 -2332 0
-1466 -2333 0
-1467 -2334 0
-1465 -1843 0
-1466 -1844 0
-1467 -1845 0
-1468 -2383 0
-1469 -2384 0
-1470 -2385 0
-1468 -2230 0
-1469 -2231 0
-1470 -2232 0
-1471 -2251 0
-1472 -2252 0
-1473 -2253 0
-1474 -2119 0
-1475 -2120 0
-1476 -2121 0
-1474 -2440 0
-1475 -2441 0
-1476 -2442 0
-1477 -1519 0
-1478 -1520 0
-1479 -1521 0
-1477 -1834 0
-1478 -1835 0
-1479 -1836 0
-1477 -1504 0
-1478 -1505 0
-1479 -1506 0
-1480 -2029 0
-1481 -2030 0
-1482 -2031 0
-1480 -2401 0
-1481 -2402 0
-1482 -2403 0
-1483 -1699 0
-1484 -1700 0
-1485 -1701 0
-1486 -1597 0
-1487 -1598 0
-1488 -1599 0
-1486 -1507 0
-1487 -1508 0
-1488 -1509 0
-1489 -1555 0
-1490 -1556 0
-1491 -1557 0
-1489 -1528 0
-1490 -1529 0
-1491 -1530 0
-1492 -1501 0
-1493 -1502 0
-1494 -1503 0
-1492 -2362 0
-1493 -2363 0
-1494 -2364 0
-1492 -2239 0
-1493 -2240 0
-1494 -2241 0
-1495 -1552 0
-1496 -1553 0
-1497 -1554 0
-1495 -1507 0
-1496 -1508 0
-1497 -1509 0
-1495 -1540 0
-1496 -1541 0
-1497 -1542 0
-1498 -2575 0
-1499 -2576 0
-1500 -2577 0
-1498 -2443 0
-1499 -2444 0
-1500 -2445 0
-1501 -1546 0
-1502 -1547 0
-1503 -1548 0
-1501 -2347 0
-1502 -2348 0
-1503 -2349 0
-1501 -2191 0
-1502 -2192 0
-1503 -2193 0
-1507 -1582 0
-1508 -1583 0
-1509 -1584 0
-1507 -2476 0
-1508 -2477 0
-1509 -2478 0
-1507 -1576 0
-1508 -1577 0
-1509 -1578 0
-1510 -1888 0
-1511 -1889 0
-1512 -1890 0
-1513 -1573 0
-1514 -1574 0
-1515 -1575 0
-1513 -1651 0
-1514 -1652 0
-1515 -1653 0
-1516 -1570 0
-1517 -1571 0
-1518 -1572 0
-1519 -1657 0
-1520 -1658 0
-1521 -1659 0
-1522 -2269 0
-1523 -2270 0
-1524 -2271 0
-1525 -1669 0
-1526 -1670 0
-1527 -1671 0
-1525 -1675 0
-1526 -1676 0
-1527 -1677 0
-1531 -1840 0
-1532 -1841 0
-1533 -1842 0
-1531 -1579 0
-1532 -1580 0
-1533 -1581 0
-1534 -1756 0
-1535 -1757 0
-1536 -1758 0
-1537 -1606 0
-1538 -1607 0
-1539 -1608 0
-1540 -2398 0
-1541 -2399 0
-1542 -2400 0
-1540 -1567 0
-1541 -1568 0
-1542 -1569 0
-1540 -2026 0
-1541 -2027 0
-1542 -2028 0
-1543 -1780 0
-1544 -1781 0
-1545 -1782 0
-1543 -1750 0
-1544 -1751 0
-1545 -1752 0
-1543 -2692 0
-1544 -2693 0
-1545 -2694 0
-1546 -2239 0
-1547 -2240 0
-1548 -2241 0
-1549 -1585 0
-1550 -1586 0
-1551 -1587 0
-1549 -1588 0
-1550 -1589 0
-1551 -1590 0
-1555 -1825 0
-1556 -1826 0
-1557 -1827 0
-1558 -1690 0
-1559 -1691 0
-1560 -1692 0
-1558 -2665 0
-1559 -2666 0
-1560 -2667 0
-1561 -2614 0
-1562 -2615 0
-1563 -2616 0
-1564 -1570 0
-1565 -1571 0
-1566 -1572 0
-1564 -2416 0
-1565 -2417 0
-1566 -2418 0
-1564 -1873 0
-1565 -1874 0
-1566 -1875 0
-1567 -1597 0
-1568 -1598 0
-1569 -1599 0
-1567 -1615 0
-1568 -1616 0
-1569 -1617 0
-1567 -1603 0
-1568 -1604 0
-1569 -1605 0
-1573 -1879 0
-1574 -1880 0
-1575 -1881 0
-1576 -1933 0
-1577 -1934 0
-1578 -1935 0
-1579 -1621 0
-1580 -1622 0
-1581 -1623 0
-1579 -1591 0
-1580 -1592 0
-1581 -1593 0
-1585 -2074 0
-1586 -2075 0
-1587 -2076 0
-1588 -1876 0
-1589 -1877 0
-1590 -1878 0
-1591 -1876 0
-1592 -1877 0
-1593 -1878 0
-1594 -1636 0
-1595 -1637 0
-1596 -1638 0
-1600 -2590 0
-1601 -2591 0
-1602 -2592 0
-1600 -2587 0
-1601 -2588 0
-1602 -2589 0
-1600 -1774 0
-1601 -1775 0
-1602 -1776 0
-1603 -2095 0
-1604 -2096 0
-1605 -2097 0
-1606 -1813 0
-1607 -1814 0
-1608 -1815 0
-1606 -1996 0
-1607 -1997 0
-1608 -1998 0
-1609 -1648 0
-1610 -1649 0
-1611 -1650 0
-1609 -1627 0
-1610 -1628 0
-1611 -1629 0
-1609 -2122 0
-1610 -2123 0
-1611 -2124 0
-1609 -2074 0
-1610 -2075 0
-1611 -2076 0
-1612 -1681 0
-1613 -1682 0
-1614 -1683 0
-1615 -2518 0
-1616 -2519 0
-1617 -2520 0
-1615 -1633 0
-1616 -1634 0
-1617 -1635 0
-1618 -1627 0
-1619 -1628 0
-1620 -1629 0
-1621 -1972 0
-1622 -1973 0
-1623 -1974 0
-1624 -2395 0
-1625 -2396 0
-1626 -2397 0
-1627 -1687 0
-1628 -1688 0
-1629 -1689 0
-1627 -2401 0
-1628 -2402 0
-1629 -2403 0
-1627 -1672 0
-1628 -1673 0
-1629 -1674 0
-1630 -1918 0
-1631 -1919 0
-1632 -1920 0
-1630 -1867 0
-1631 -1868 0
-1632 -1869 0
-1639 -1666 0
-1640 -1667 0
-1641 -1668 0
-1642 -1693 0
-1643 -1694 0
-1644 -1695 0
-1645 -1684 0
-1646 -1685 0
-1647 -1686 0
-1648 -2299 0
-1649 -2300 0
-1650 -2301 0
-1648 -1822 0
-1649 -1823 0
-1650 -1824 0
-1648 -2395 0
-1649 -2396 0
-1650 -2397 0
-1648 -2527 0
-1649 -2528 0
-1650 -2529 0
-1648 -2029 0
-1649 -2030 0
-1650 -2031 0
-1651 -2257 0
-1652 -2258 0
-1653 -2259 0
-1651 -2677 0
-1652 -2678 0
-1653 -2679 0
-1654 -1969 0
-1655 -1970 0
-1656 -1971 0
-1654 -1975 0
-1655 -1976 0
-1656 -1977 0
-1654 -1984 0
-1655 -1985 0
-1656 -1986 0
-1657 -1879 0
-1658 -1880 0
-1659 -1881 0
-1657 -1900 0
-1658 -1901 0
-1659 -1902 0
-1663 -1747 0
-1664 -1748 0
-1665 -1749 0
-1666 -1714 0
-1667 -1715 0
-1668 -1716 0
-1666 -1702 0
-1667 -1703 0
-1668 -1704 0
-1666 -2026 0
-1667 -2027 0
-1668 -2028 0
-1669 -1720 0
-1670 -1721 0
-1671 -1722 0
-1672 -2386 0
-1673 -2387 0
-1674 -2388 0
-1672 -2503 0
-1673 -2504 0
-1674 -2505 0
-1672 -2530 0
-1673 -2531 0
-1674 -2532 0
-1675 -1705 0
-1676 -1706 0
-1677 -1707 0
-1675 -1711 0
-1676 -1712 0
-1677 -1713 0
-1678 -2365 0
-1679 -2366 0
-1680 -2367 0
-1678 -2131 0
-1679 -2132 0
-1680 -2133 0
-1678 -1705 0
-1679 -1706 0
-1680 -1707 0
-1681 -1741 0
-1682 -1742 0
-1683 -1743 0
-1684 -1816 0
-1685 -1817 0
-1686 -1818 0
-1687 -2095 0
-1688 -2096 0
-1689 -2097 0
-1690 -2542 0
-1691 -2543 0
-1692 -2544 0
-1690 -2080 0
-1691 -2081 0
-1692 -2082 0
-1690 -2113 0
-1691 -2114 0
-1692 -2115 0
-1693 -1777 0
-1694 -1778 0
-1695 -1779 0
-1696 -2500 0
-1697 -2501 0
-1698 -2502 0
-1699 -1747 0
-1700 -1748 0
-1701 -1749 0
-1699 -1771 0
-1700 -1772 0
-1701 -1773 0
-1702 -1831 0
-1703 -1832 0
-1704 -1833 0
-1702 -1837 0
-1703 -1838 0
-1704 -1839 0
-1708 -1930 0
-1709 -1931 0
-1710 -1932 0
-1711 -1960 0
-1712 -1961 0
-1713 -1962 0
-1711 -2647 0
-1712 -2648 0
-1713 -2649 0
-1714 -1918 0
-1715 -1919 0
-1716 -1920 0
-1717 -1957 0
-1718 -1958 0
-1719 -1959 0
-1717 -1795 0
-1718 -1796 0
-1719 -1797 0
-1717 -1963 0
-1718 -1964 0
-1719 -1965 0
-1720 -2449 0
-1721 -2450 0
-1722 -2451 0
-1720 -1942 0
-1721 -1943 0
-1722 -1944 0
-1723 -1894 0
-1724 -1895 0
-1725 -1896 0
-1726 -2683 0
-1727 -2684 0
-1728 -2685 0
-1726 -1936 0
-1727 -1937 0
-1728 -1938 0
-1726 -1738 0
-1727 -1739 0
-1728 -1740 0
-1729 -1798 0
-1730 -1799 0
-1731 -1800 0
-1729 -1864 0
-1730 -1865 0
-1731 -1866 0
-1732 -2572 0
-1733 -2573 0
-1734 -2574 0
-1735 -1801 0
-1736 -1802 0
-1737 -1803 0
-1735 -2368 0
-1736 -2369 0
-1737 -2370 0
-1738 -2668 0
-1739 -2669 0
-1740 -2670 0
-1741 -1957 0
-1742 -1958 0
-1743 -1959 0
-1744 -2602 0
-1745 -2603 0
-1746 -2604 0
-1744 -1795 0
-1745 -1796 0
-1746 -1797 0
-1744 -2527 0
-1745 -2528 0
-1746 -2529 0
-1750 -1819 0
-1751 -1820 0
-1752 -1821 0
-1753 -1930 0
-1754 -1931 0
-1755 -1932 0
-1753 -1873 0
-1754 -1874 0
-1755 -1875 0
-1753 -2146 0
-1754 -2147 0
-1755 -2148 0
-1756 -1891 0
-1757 -1892 0
-1758 -1893 0
-1762 -1954 0
-1763 -1955 0
-1764 -1956 0
-1765 -1906 0
-1766 -1907 0
-1767 -1908 0
-1765 -1909 0
-1766 -1910 0
-1767 -1911 0
-1765 -1894 0
-1766 -1895 0
-1767 -1896 0
-1768 -1987 0
-1769 -1988 0
-1770 -1989 0
-1768 -1786 0
-1769 -1787 0
-1770 -1788 0
-1768 -1789 0
-1769 -1790 0
-1770 -1791 0
-1768 -2041 0
-1769 -2042 0
-1770 -2043 0
-1771 -1906 0
-1772 -1907 0
-1773 -1908 0
-1774 -1954 0
-1775 -1955 0
-1776 -1956 0
-1777 -1792 0
-1778 -1793 0
-1779 -1794 0
-1780 -2380 0
-1781 -2381 0
-1782 -2382 0
-1789 -2053 0
-1790 -2054 0
-1791 -2055 0
-1795 -2392 0
-1796 -2393 0
-1797 -2394 0
-1801 -2683 0
-1802 -2684 0
-1803 -2685 0
-1801 -2002 0
-1802 -2003 0
-1803 -2004 0
-1801 -2125 0
-1802 -2126 0
-1803 -2127 0
-1801 -2035 0
-1802 -2036 0
-1803 -2037 0
-1801 -2143 0
-1802 -2144 0
-1803 -2145 0
-1801 -2302 0
-1802 -2303 0
-1803 -2304 0
-1804 -1807 0
-1805 -1808 0
-1806 -1809 0
-1807 -1810 0
-1808 -1811 0
-1809 -1812 0
-1810 -2377 0
-1811 -2378 0
-1812 -2379 0
-1813 -1987 0
-1814 -1988 0
-1815 -1989 0
-1813 -1936 0
-1814 -1937 0
-1815 -1938 0
-1813 -2152 0
-1814 -2153 0
-1815 -2154 0
-1819 -2182 0
-1820 -2183 0
-1821 -2184 0
-1819 -2194 0
-1820 -2195 0
-1821 -2196 0
-1819 -2416 0
-1820 -2417 0
-1821 -2418 0
-1819 -2140 0
-1820 -2141 0
-1821 -2142 0
-1819 -2146 0
-1820 -2147 0
-1821 -2148 0
-1822 -1921 0
-1823 -1922 0
-1824 -1923 0
-1825 -2371 0
-1826 -2372 0
-1827 -2373 0
-1834 -2143 0
-1835 -2144 0
-1836 -2145 0
-1840 -2065 0
-1841 -2066 0
-1842 -2067 0
-1840 -2215 0
-1841 -2216 0
-1842 -2217 0
-1843 -2164 0
-1844 -2165 0
-1845 -2166 0
-1843 -2209 0
-1844 -2210 0
-1845 -2211 0
-1843 -2170 0
-1844 -2171 0
-1845 -2172 0
-1846 -2011 0
-1847 -2012 0
-1848 -2013 0
-1846 -2014 0
-1847 -2015 0
-1848 -2016 0
-1846 -1993 0
-1847 -1994 0
-1848 -1995 0
-1849 -2299 0
-1850 -2300 0
-1851 -2301 0
-1849 -1972 0
-1850 -1973 0
-1851 -1974 0
-1849 -1963 0
-1850 -1964 0
-1851 -1965 0
-1858 -1984 0
-1859 -1985 0
-1860 -1986 0
-1873 -1978 0
-1874 -1979 0
-1875 -1980 0
-1873 -1966 0
-1874 -1967 0
-1875 -1968 0
-1876 -1975 0
-1877 -1976 0
-1878 -1977 0
-1876 -2686 0
-1877 -2687 0
-1878 -2688 0
-1879 -2518 0
-1880 -2519 0
-1881 -2520 0
-1879 -2266 0
-1880 -2267 0
-1881 -2268 0
-1885 -2500 0
-1886 -2501 0
-1887 -2502 0
-1891 -2608 0
-1892 -2609 0
-1893 -2610 0
-1897 -1963 0
-1898 -1964 0
-1899 -1965 0
-1897 -2026 0
-1898 -2027 0
-1899 -2028 0
-1903 -2083 0
-1904 -2084 0
-1905 -2085 0
-1903 -2638 0
-1904 -2639 0
-1905 -2640 0
-1909 -2500 0
-1910 -2501 0
-1911 -2502 0
-1912 -2392 0
-1913 -2393 0
-1914 -2394 0
-1912 -2638 0
-1913 -2639 0
-1914 -2640 0
-1918 -2383 0
-1919 -2384 0
-1920 -2385 0
-1921 -1933 0
-1922 -1934 0
-1923 -1935 0
-1924 -2302 0
-1925 -2303 0
-1926 -2304 0
-1930 -2506 0
-1931 -2507 0
-1932 -2508 0
-1933 -2401 0
-1934 -2402 0
-1935 -2403 0
-1939 -2413 0
-1940 -2414 0
-1941 -2415 0
-1939 -2674 0
-1940 -2675 0
-1941 -2676 0
-1942 -2080 0
-1943 -2081 0
-1944 -2082 0
-1948 -2557 0
-1949 -2558 0
-1950 -2559 0
-1948 -2317 0
-1949 -2318 0
-1950 -2319 0
-1954 -2044 0
-1955 -2045 0
-1956 -2046 0
-1969 -2545 0
-1970 -2546 0
-1971 -2547 0
-1969 -2287 0
-1970 -2288 0
-1971 -2289 0
-1969 -2599 0
-1970 -2600 0
-1971 -2601 0
-1969 -2566 0
-1970 -2567 0
-1971 -2568 0
-1975 -2278 0
-1976 -2279 0
-1977 -2280 0
-1978 -2548 0
-1979 -2549 0
-1980 -2550 0
-1981 -2086 0
-1982 -2087 0
-1983 -2088 0
-1987 -2623 0
-1988 -2624 0
-1989 -2625 0
-1990 -2062 0
-1991 -2063 0
-1992 -2064 0
-1993 -2047 0
-1994 -2048 0
-1995 -2049 0
-1996 -2038 0
-1997 -2039 0
-1998 -2040 0
-1996 -2248 0
-1997 -2249 0
-1998 -2250 0
-1999 -2107 0
-2000 -2108 0
-2001 -2109 0
-1999 -2128 0
-2000 -2129 0
-2001 -2130 0
-2002 -2212 0
-2003 -2213 0
-2004 -2214 0
-2005 -2431 0
-2006 -2432 0
-2007 -2433 0
-2005 -2110 0
-2006 -2111 0
-2007 -2112 0
-2008 -2461 0
-2009 -2462 0
-2010 -2463 0
-2008 -2020 0
-2009 -2021 0
-2010 -2022 0
-2008 -2116 0
-2009 -2117 0
-2010 -2118 0
-2008 -2092 0
-2009 -2093 0
-2010 -2094 0
-2014 -2041 0
-2015 -2042 0
-2016 -2043 0
-2014 -2059 0
-2015 -2060 0
-2016 -2061 0
-2017 -2251 0
-2018 -2252 0
-2019 -2253 0
-2023 -2338 0
-2024 -2339 0
-2025 -2340 0
-2023 -2191 0
-2024 -2192 0
-2025 -2193 0
-2026 -2155 0
-2027 -2156 0
-2028 -2157 0
-2026 -2218 0
-2027 -2219 0
-2028 -2220 0
-2029 -2311 0
-2030 -2312 0
-2031 -2313 0
-2032 -2347 0
-2033 -2348 0
-2034 -2349 0
-2032 -2305 0
-2033 -2306 0
-2034 -2307 0
-2032 -2335 0
-2033 -2336 0
-2034 -2337 0
-2038 -2344 0
-2039 -2345 0
-2040 -2346 0
-2038 -2329 0
-2039 -2330 0
-2040 -2331 0
-2044 -2137 0
-2045 -2138 0
-2046 -2139 0
-2047 -2068 0
-2048 -2069 0
-2049 -2070 0
-2047 -2101 0
-2048 -2102 0
-2049 -2103 0
-2050 -2617 0
-2051 -2618 0
-2052 -2619 0
-2050 -2149 0
-2051 -2150 0
-2052 -2151 0
-2053 -2098 0
-2054 -2099 0
-2055 -2100 0
-2056 -2167 0
-2057 -2168 0
-2058 -2169 0
-2056 -2668 0
-2057 -2669 0
-2058 -2670 0
-2059 -2254 0
-2060 -2255 0
-2061 -2256 0
-2062 -2356 0
-2063 -2357 0
-2064 -2358 0
-2062 -2620 0
-2063 -2621 0
-2064 -2622 0
-2065 -2386 0
-2066 -2387 0
-2067 -2388 0
-2065 -2074 0
-2066 -2075 0
-2067 -2076 0
-2068 -2308 0
-2069 -2309 0
-2070 -2310 0
-2071 -2284 0
-2072 -2285 0
-2073 -2286 0
-2074 -2497 0
-2075 -2498 0
-2076 -2499 0
-2077 -2206 0
-2078 -2207 0
-2079 -2208 0
-2077 -2128 0
-2078 -2129 0
-2079 -2130 0
-2077 -2092 0
-2078 -2093 0
-2079 -2094 0
-2080 -2446 0
-2081 -2447 0
-2082 -2448 0
-2083 -2122 0
-2084 -2123 0
-2085 -2124 0
-2089 -2671 0
-2090 -2672 0
-2091 -2673 0
-2092 -2533 0
-2093 -2534 0
-2094 -2535 0
-2092 -2530 0
-2093 -2531 0
-2094 -2532 0
-2098 -2125 0
-2099 -2126 0
-2100 -2127 0
-2101 -2152 0
-2102 -2153 0
-2103 -2154 0
-2104 -2275 0
-2105 -2276 0
-2106 -2277 0
-2104 -2266 0
-2105 -2267 0
-2106 -2268 0
-2107 -2203 0
-2108 -2204 0
-2109 -2205 0
-2110 -2161 0
-2111 -2162 0
-2112 -2163 0
-2110 -2590 0
-2111 -2591 0
-2112 -2592 0
-2110 -2212 0
-2111 -2213 0
-2112 -2214 0
-2110 -2221 0
-2111 -2222 0
-2112 -2223 0
-2110 -2587 0
-2111 -2588 0
-2112 -2589 0
-2113 -2617 0
-2114 -2618 0
-2115 -2619 0
-2119 -2407 0
-2120 -2408 0
-2121 -2409 0
-2119 -2425 0
-2120 -2426 0
-2121 -2427 0
-2122 -2476 0
-2123 -2477 0
-2124 -2478 0
-2128 -2488 0
-2129 -2489 0
-2130 -2490 0
-2128 -2509 0
-2129 -2510 0
-2130 -2511 0
-2131 -2398 0
-2132 -2399 0
-2133 -2400 0
-2137 -2350 0
-2138 -2351 0
-2139 -2352 0
-2140 -2263 0
-2141 -2264 0
-2142 -2265 0
-2143 -2260 0
-2144 -2261 0
-2145 -2262 0
-2143 -2335 0
-2144 -2336 0
-2145 -2337 0
-2143 -2191 0
-2144 -2192 0
-2145 -2193 0
-2146 -2521 0
-2147 -2522 0
-2148 -2523 0
-2149 -2158 0
-2150 -2159 0
-2151 -2160 0
-2155 -2530 0
-2156 -2531 0
-2157 -2532 0
-2155 -2398 0
-2156 -2399 0
-2157 -2400 0
-2161 -2623 0
-2162 -2624 0
-2163 -2625 0
-2164 -2362 0
-2165 -2363 0
-2166 -2364 0
-2164 -2353 0
-2165 -2354 0
-2166 -2355 0
-2167 -2272 0
-2168 -2273 0
-2169 -2274 0
-2170 -2554 0
-2171 -2555 0
-2172 -2556 0
-2173 -2641 0
-2174 -2642 0
-2175 -2643 0
-2179 -2278 0
-2180 -2279 0
-2181 -2280 0
-2185 -2398 0
-2186 -2399 0
-2187 -2400 0
-2188 -2554 0
-2189 -2555 0
-2190 -2556 0
-2188 -2635 0
-2189 -2636 0
-2190 -2637 0
-2188 -2575 0
-2189 -2576 0
-2190 -2577 0
-2188 -2524 0
-2189 -2525 0
-2190 -2526 0
-2188 -2281 0
-2189 -2282 0
-2190 -2283 0
-2188 -2203 0
-2189 -2204 0
-2190 -2205 0
-2191 -2326 0
-2192 -2327 0
-2193 -2328 0
-2194 -2557 0
-2195 -2558 0
-2196 -2559 0
-2200 -2602 0
-2201 -2603 0
-2202 -2604 0
-2206 -2428 0
-2207 -2429 0
-2208 -2430 0
-2209 -2326 0
-2210 -2327 0
-2211 -2328 0
-2209 -2353 0
-2210 -2354 0
-2211 -2355 0
-2218 -2518 0
-2219 -2519 0
-2220 -2520 0
-2221 -2605 0
-2222 -2606 0
-2223 -2607 0
-2227 -2539 0
-2228 -2540 0
-2229 -2541 0
-2230 -2320 0
-2231 -2321 0
-2232 -2322 0
-2233 -2290 0
-2234 -2291 0
-2235 -2292 0
-2236 -2299 0
-2237 -2300 0
-2238 -2301 0
-2236 -2476 0
-2237 -2477 0
-2238 -2478 0
-2239 -2620 0
-2240 -2621 0
-2241 -2622 0
-2239 -2341 0
-2240 -2342 0
-2241 -2343 0
-2242 -2485 0
-2243 -2486 0
-2244 -2487 0
-2245 -2350 0
-2246 -2351 0
-2247 -2352 0
-2248 -2374 0
-2249 -2375 0
-2250 -2376 0
-2254 -2494 0
-2255 -2495 0
-2256 -2496 0
-2254 -2281 0
-2255 -2282 0
-2256 -2283 0
-2266 -2461 0
-2267 -2462 0
-2268 -2463 0
-2269 -2605 0
-2270 -2606 0
-2271 -2607 0
-2269 -2656 0
-2270 -2657 0
-2271 -2658 0
-2272 -2302 0
-2273 -2303 0
-2274 -2304 0
-2272 -2551 0
-2273 -2552 0
-2274 -2553 0
-2284 -2467 0
-2285 -2468 0
-2286 -2469 0
-2284 -2458 0
-2285 -2459 0
-2286 -2460 0
-2284 -2404 0
-2285 -2405 0
-2286 -2406 0
-2287 -2641 0
-2288 -2642 0
-2289 -2643 0
-2290 -2437 0
-2291 -2438 0
-2292 -2439 0
-2293 -2455 0
-2294 -2456 0
-2295 -2457 0
-2296 -2416 0
-2297 -2417 0
-2298 -2418 0
-2296 -2548 0
-2297 -2549 0
-2298 -2550 0
-2305 -2332 0
-2306 -2333 0
-2307 -2334 0
-2311 -2668 0
-2312 -2669 0
-2313 -2670 0
-2311 -2599 0
-2312 -2600 0
-2313 -2601 0
-2311 -2527 0
-2312 -2528 0
-2313 -2529 0
-2314 -2584 0
-2315 -2585 0
-2316 -2586 0
-2329 -2440 0
-2330 -2441 0
-2331 -2442 0
-2329 -2584 0
-2330 -2585 0
-2331 -2586 0
-2338 -2410 0
-2339 -2411 0
-2340 -2412 0
-2344 -2635 0
-2345 -2636 0
-2346 -2637 0
-2347 -2362 0
-2348 -2363 0
-2349 -2364 0
-2350 -2692 0
-2351 -2693 0
-2352 -2694 0
-2356 -2554 0
-2357 -2555 0
-2358 -2556 0
-2359 -2569 0
-2360 -2570 0
-2361 -2571 0
-2365 -2617 0
-2366 -2618 0
-2367 -2619 0
-2365 -2398 0
-2366 -2399 0
-2367 -2400 0
-2368 -2509 0
-2369 -2510 0
-2370 -2511 0
-2374 -2434 0
-2375 -2435 0
-2376 -2436 0
-2374 -2443 0
-2375 -2444 0
-2376 -2445 0
-2377 -2542 0
-2378 -2543 0
-2379 -2544 0
-2380 -2608 0
-2381 -2609 0
-2382 -2610 0
-2386 -2686 0
-2387 -2687 0
-2388 -2688 0
-2386 -2674 0
-2387 -2675 0
-2388 -2676 0
-2389 -2581 0
-2390 -2582 0
-2391 -2583 0
-2392 -2611 0
-2393 -2612 0
-2394 -2613 0
-2410 -2650 0
-2411 -2651 0
-2412 -2652 0
-2413 -2449 0
-2414 -2450 0
-2415 -2451 0
-2413 -2464 0
-2414 -2465 0
-2415 -2466 0
-2419 -2563 0
-2420 -2564 0
-2421 -2565 0
-2422 -2563 0
-2423 -2564 0
-2424 -2565 0
-2425 -2452 0
-2426 -2453 0
-2427 -2454 0
-2425 -2482 0
-2426 -2483 0
-2427 -2484 0
-2437 -2662 0
-2438 -2663 0
-2439 -2664 0
-2437 -2650 0
-2438 -2651 0
-2439 -2652 0
-2440 -2599 0
-2441 -2600 0
-2442 -2601 0
-2446 -2473 0
-2447 -2474 0
-2448 -2475 0
-2452 -2593 0
-2453 -2594 0
-2454 -2595 0
-2452 -2659 0
-2453 -2660 0
-2454 -2661 0
-2455 -2560 0
-2456 -2561 0
-2457 -2562 0
-2461 -2518 0
-2462 -2519 0
-2463 -2520 0
-2461 -2530 0
-2462 -2531 0
-2463 -2532 0
-2464 -2674 0
-2465 -2675 0
-2466 -2676 0
-2467 -2539 0
-2468 -2540 0
-2469 -2541 0
-2467 -2581 0
-2468 -2582 0
-2469 -2583 0
-2470 -2635 0
-2471 -2636 0
-2472 -2637 0
-2470 -2485 0
-2471 -2486 0
-2472 -2487 0
-2473 -2512 0
-2474 -2513 0
-2475 -2514 0
-2476 -2488 0
-2477 -2489 0
-2478 -2490 0
-2479 -2524 0
-2480 -2525 0
-2481 -2526 0
-2479 -2515 0
-2480 -2516 0
-2481 -2517 0
-2482 -2551 0
-2483 -2552 0
-2484 -2553 0
-2485 -2491 0
-2486 -2492 0
-2487 -2493 0
-2485 -2545 0
-2486 -2546 0
-2487 -2547 0
-2485 -2602 0
-2486 -2603 0
-2487 -2604 0
-2485 -2527 0
-2486 -2528 0
-2487 -2529 0
-2491 -2593 0
-2492 -2594 0
-2493 -2595 0
-2536 -2581 0
-2537 -2582 0
-2538 -2583 0
-2542 -2665 0
-2543 -2666 0
-2544 -2667 0
-2545 -2593 0
-2546 -2594 0
-2547 -2595 0
-2563 -2686 0
-2564 -2687 0
-2565 -2688 0
-2569 -2572 0
-2570 -2573 0
-2571 -2574 0
-2578 -2614 0
-2579 -2615 0
-2580 -2616 0
-2578 -2647 0
-2579 -2648 0
-2580 -2649 0
-2584 -2599 0
-2585 -2600 0
-2586 -2601 0
-2584 -2611 0
-2585 -2612 0
-2586 -2613 0
-2587 -2605 0
-2588 -2606 0
-2589 -2607 0
-2590 -2632 0
-2591 -2633 0
-2592 -2634 0
-2596 -2692 0
-2597 -2693 0
-2598 -2694 0
-2599 -2641 0
-2600 -2642 0
-2601 -2643 0
-2602 -2635 0
-2603 -2636 0
-2604 -2637 0
-2611 -2638 0
-2612 -2639 0
-2613 -2640 0
-2665 -2689 0
-2666 -2690 0
-2667 -2691 0
-2668 -2683 0
-2669 -2684 0
-2670 -2685 0
-2671 -2677 0
-2672 -2678 0
-2673 -2679 0
1 0
1154 0
