p cnf 1614 4644
1 2 3 0
4 5 6 0
7 8 9 0
10 11 12 0
13 14 15 0
16 17 18 0
19 20 21 0
22 23 24 0
25 26 27 0
28 29 30 0
31 32 33 0
34 35 36 0
37 38 39 0
40 41 42 0
43 44 45 0
46 47 48 0
49 50 51 0
52 53 54 0
55 56 57 0
58 59 60 0
61 62 63 0
64 65 66 0
67 68 69 0
70 71 72 0
73 74 75 0
76 77 78 0
79 80 81 0
82 83 84 0
85 86 87 0
88 89 90 0
91 92 93 0
94 95 96 0
97 98 99 0
100 101 102 0
103 104 105 0
106 107 108 0
109 110 111 0
112 113 114 0
115 116 117 0
118 119 120 0
121 122 123 0
124 125 126 0
127 128 129 0
130 131 132 0
133 134 135 0
136 137 138 0
139 140 141 0
142 143 144 0
145 146 147 0
148 149 150 0
151 152 153 0
154 155 156 0
157 158 159 0
160 161 162 0
163 164 165 0
166 167 168 0
169 170 171 0
172 173 174 0
175 176 177 0
178 179 180 0
181 182 183 0
184 185 186 0
187 188 189 0
190 191 192 0
193 194 195 0
196 197 198 0
199 200 201 0
202 203 204 0
205 206 207 0
208 209 210 0
211 212 213 0
214 215 216 0
217 218 219 0
220 221 222 0
223 224 225 0
226 227 228 0
229 230 231 0
232 233 234 0
235 236 237 0
238 239 240 0
241 242 243 0
244 245 246 0
247 248 249 0
250 251 252 0
253 254 255 0
256 257 258 0
259 260 261 0
262 263 264 0
265 266 267 0
268 269 270 0
271 272 273 0
274 275 276 0
277 278 279 0
280 281 282 0
283 284 285 0
286 287 288 0
289 290 291 0
292 293 294 0
295 296 297 0
298 299 300 0
301 302 303 0
304 305 306 0
307 308 309 0
310 311 312 0
313 314 315 0
316 317 318 0
319 320 321 0
322 323 324 0
325 326 327 0
328 329 330 0
331 332 333 0
334 335 336 0
337 338 339 0
340 341 342 0
343 344 345 0
346 347 348 0
349 350 351 0
352 353 354 0
355 356 357 0
358 359 360 0
361 362 363 0
364 365 366 0
367 368 369 0
370 371 372 0
373 374 375 0
376 377 378 0
379 380 381 0
382 383 384 0
385 386 387 0
388 389 390 0
391 392 393 0
394 395 396 0
397 398 399 0
400 401 402 0
403 404 405 0
406 407 408 0
409 410 411 0
412 413 414 0
415 416 417 0
418 419 420 0
421 422 423 0
424 425 426 0
427 428 429 0
430 431 432 0
433 434 435 0
436 437 438 0
439 440 441 0
442 443 444 0
445 446 447 0
448 449 450 0
451 452 453 0
454 455 456 0
457 458 459 0
460 461 462 0
463 464 465 0
466 467 468 0
469 470 471 0
472 473 474 0
475 476 477 0
478 479 480 0
481 482 483 0
484 485 486 0
487 488 489 0
490 491 492 0
493 494 495 0
496 497 498 0
499 500 501 0
502 503 504 0
505 506 507 0
508 509 510 0
511 512 513 0
514 515 516 0
517 518 519 0
520 521 522 0
523 524 525 0
526 527 528 0
529 530 531 0
532 533 534 0
535 536 537 0
538 539 540 0
541 542 543 0
544 545 546 0
547 548 549 0
550 551 552 0
553 554 555 0
556 557 558 0
559 560 561 0
562 563 564 0
565 566 567 0
568 569 570 0
571 572 573 0
574 575 576 0
577 578 579 0
580 581 582 0
583 584 585 0
586 587 588 0
589 590 591 0
592 593 594 0
595 596 597 0
598 599 600 0
601 602 603 0
604 605 606 0
607 608 609 0
610 611 612 0
613 614 615 0
616 617 618 0
619 620 621 0
622 623 624 0
625 626 627 0
628 629 630 0
631 632 633 0
634 635 636 0
637 638 639 0
640 641 642 0
643 644 645 0
646 647 648 0
649 650 651 0
652 653 654 0
655 656 657 0
658 659 660 0
661 662 663 0
664 665 666 0
667 668 669 0
670 671 672 0
673 674 675 0
676 677 678 0
679 680 681 0
682 683 684 0
685 686 687 0
688 689 690 0
691 692 693 0
694 695 696 0
697 698 699 0
700 701 702 0
703 704 705 0
706 707 708 0
709 710 711 0
712 713 714 0
715 716 717 0
718 719 720 0
721 722 723 0
724 725 726 0
727 728 729 0
730 731 732 0
733 734 735 0
736 737 738 0
739 740 741 0
742 743 744 0
745 746 747 0
748 749 750 0
751 752 753 0
754 755 756 0
757 758 759 0
760 761 762 0
763 764 765 0
766 767 768 0
769 770 771 0
772 773 774 0
775 776 777 0
778 779 780 0
781 782 783 0
784 785 786 0
787 788 789 0
790 791 792 0
793 794 795 0
796 797 798 0
799 800 801 0
802 803 804 0
805 806 807 0
808 809 810 0
811 812 813 0
814 815 816 0
817 818 819 0
820 821 822 0
823 824 825 0
826 827 828 0
829 830 831 0
832 833 834 0
835 836 837 0
838 839 840 0
841 842 843 0
844 845 846 0
847 848 849 0
850 851 852 0
853 854 855 0
856 857 858 0
859 860 861 0
862 863 864 0
865 866 867 0
868 869 870 0
871 872 873 0
874 875 876 0
877 878 879 0
880 881 882 0
883 884 885 0
886 887 888 0
889 890 891 0
892 893 894 0
895 896 897 0
898 899 900 0
901 902 903 0
904 905 906 0
907 908 909 0
910 911 912 0
913 914 915 0
916 917 918 0
919 920 921 0
922 923 924 0
925 926 927 0
928 929 930 0
931 932 933 0
934 935 936 0
937 938 939 0
940 941 942 0
943 944 945 0
946 947 948 0
949 950 951 0
952 953 954 0
955 956 957 0
958 959 960 0
961 962 963 0
964 965 966 0
967 968 969 0
970 971 972 0
973 974 975 0
976 977 978 0
979 980 981 0
982 983 984 0
985 986 987 0
988 989 990 0
991 992 993 0
994 995 996 0
997 998 999 0
1000 1001 1002 0
1003 1004 1005 0
1006 1007 1008 0
1009 1010 1011 0
1012 1013 1014 0
1015 1016 1017 0
1018 1019 1020 0
1021 1022 1023 0
1024 1025 1026 0
1027 1028 1029 0
1030 1031 1032 0
1033 1034 1035 0
1036 1037 1038 0
1039 1040 1041 0
1042 1043 1044 0
1045 1046 1047 0
1048 1049 1050 0
1051 1052 1053 0
1054 1055 1056 0
1057 1058 1059 0
1060 1061 1062 0
1063 1064 1065 0
1066 1067 1068 0
1069 1070 1071 0
1072 1073 1074 0
1075 1076 1077 0
1078 1079 1080 0
1081 1082 1083 0
1084 1085 1086 0
1087 1088 1089 0
1090 1091 1092 0
1093 1094 1095 0
1096 1097 1098 0
1099 1100 1101 0
1102 1103 1104 0
1105 1106 1107 0
1108 1109 1110 0
1111 1112 1113 0
1114 1115 1116 0
1117 1118 1119 0
1120 1121 1122 0
1123 1124 1125 0
1126 1127 1128 0
1129 1130 1131 0
1132 1133 1134 0
1135 1136 1137 0
1138 1139 1140 0
1141 1142 1143 0
1144 1145 1146 0
1147 1148 1149 0
1150 1151 1152 0
1153 1154 1155 0
1156 1157 1158 0
1159 1160 1161 0
1162 1163 1164 0
1165 1166 1167 0
1168 1169 1170 0
1171 1172 1173 0
1174 1175 1176 0
1177 1178 1179 0
1180 1181 1182 0
1183 1184 1185 0
1186 1187 1188 0
1189 1190 1191 0
1192 1193 1194 0
1195 1196 1197 0
1198 1199 1200 0
1201 1202 1203 0
1204 1205 1206 0
1207 1208 1209 0
1210 1211 1212 0
1213 1214 1215 0
1216 1217 1218 0
1219 1220 1221 0
1222 1223 1224 0
1225 1226 1227 0
1228 1229 1230 0
1231 1232 1233 0
1234 1235 1236 0
1237 1238 1239 0
1240 1241 1242 0
1243 1244 1245 0
1246 1247 1248 0
1249 1250 1251 0
1252 1253 1254 0
1255 1256 1257 0
1258 1259 1260 0
1261 1262 1263 0
1264 1265 1266 0
1267 1268 1269 0
1270 1271 1272 0
1273 1274 1275 0
1276 1277 1278 0
1279 1280 1281 0
1282 1283 1284 0
1285 1286 1287 0
1288 1289 1290 0
1291 1292 1293 0
1294 1295 1296 0
1297 1298 1299 0
1300 1301 1302 0
1303 1304 1305 0
1306 1307 1308 0
1309 1310 1311 0
1312 1313 1314 0
1315 1316 1317 0
1318 1319 1320 0
1321 1322 1323 0
1324 1325 1326 0
1327 1328 1329 0
1330 1331 1332 0
1333 1334 1335 0
1336 1337 1338 0
1339 1340 1341 0
1342 1343 1344 0
1345 1346 1347 0
1348 1349 1350 0
1351 1352 1353 0
1354 1355 1356 0
1357 1358 1359 0
1360 1361 1362 0
1363 1364 1365 0
1366 1367 1368 0
1369 1370 1371 0
1372 1373 1374 0
1375 1376 1377 0
1378 1379 1380 0
1381 1382 1383 0
1384 1385 1386 0
1387 1388 1389 0
1390 1391 1392 0
1393 1394 1395 0
1396 1397 1398 0
1399 1400 1401 0
1402 1403 1404 0
1405 1406 1407 0
1408 1409 1410 0
1411 1412 1413 0
1414 1415 1416 0
1417 1418 1419 0
1420 1421 1422 0
1423 1424 1425 0
1426 1427 1428 0
1429 1430 1431 0
1432 1433 1434 0
1435 1436 1437 0
1438 1439 1440 0
1441 1442 1443 0
1444 1445 1446 0
1447 1448 1449 0
1450 1451 1452 0
1453 1454 1455 0
1456 1457 1458 0
1459 1460 1461 0
1462 1463 1464 0
1465 1466 1467 0
1468 1469 1470 0
1471 1472 1473 0
1474 1475 1476 0
1477 1478 1479 0
1480 1481 1482 0
1483 1484 1485 0
1486 1487 1488 0
1489 1490 1491 0
1492 1493 1494 0
1495 1496 1497 0
1498 1499 1500 0
1501 1502 1503 0
1504 1505 1506 0
1507 1508 1509 0
1510 1511 1512 0
1513 1514 1515 0
1516 1517 1518 0
1519 1520 1521 0
1522 1523 1524 0
1525 1526 1527 0
1528 1529 1530 0
1531 1532 1533 0
1534 1535 1536 0
1537 1538 1539 0
1540 1541 1542 0
1543 1544 1545 0
1546 1547 1548 0
1549 1550 1551 0
1552 1553 1554 0
1555 1556 1557 0
1558 1559 1560 0
1561 1562 1563 0
1564 1565 1566 0
1567 1568 1569 0
1570 1571 1572 0
1573 1574 1575 0
1576 1577 1578 0
1579 1580 1581 0
1582 1583 1584 0
1585 1586 1587 0
1588 1589 1590 0
1591 1592 1593 0
1594 1595 1596 0
1597 1598 1599 0
1600 1601 1602 0
1603 1604 1605 0
1606 1607 1608 0
1609 1610 1611 0
1612 1613 1614 0
-1 -823 0
-2 -824 0
-3 -825 0
-1 -1408 0
-2 -1409 0
-3 -1410 0
-1 -820 0
-2 -821 0
-3 -822 0
-1 -1411 0
-2 -1412 0
-3 -1413 0
-1 -61 0
-2 -62 0
-3 -63 0
-1 -1462 0
-2 -1463 0
-3 -1464 0
-1 -178 0
-2 -179 0
-3 -180 0
-1 -1174 0
-2 -1175 0
-3 -1176 0
-4 -1435 0
-5 -1436 0
-6 -1437 0
-4 -1036 0
-5 -1037 0
-6 -1038 0
-4 -1042 0
-5 -1043 0
-6 -1044 0
-4 -1045 0
-5 -1046 0
-6 -1047 0
-4 -1057 0
-5 -1058 0
-6 -1059 0
-4 -94 0
-5 -95 0
-6 -96 0
-4 -100 0
-5 -101 0
-6 -102 0
-7 -1048 0
-8 -1049 0
-9 -1050 0
-7 -1549 0
-8 -1550 0
-9 -1551 0
-7 -157 0
-8 -158 0
-9 -159 0
-7 -73 0
-8 -74 0
-9 -75 0
-7 -1543 0
-8 -1544 0
-9 -1545 0
-10 -1570 0
-11 -1571 0
-12 -1572 0
-10 -220 0
-11 -221 0
-12 -222 0
-10 -61 0
-11 -62 0
-12 -63 0
-13 -118 0
-14 -119 0
-15 -120 0
-13 -1042 0
-14 -1043 0
-15 -1044 0
-13 -157 0
-14 -158 0
-15 -159 0
-13 -1492 0
-14 -1493 0
-15 -1494 0
-16 -982 0
-17 -983 0
-18 -984 0
-16 -988 0
-17 -989 0
-18 -990 0
-16 -178 0
-17 -179 0
-18 -180 0
-16 -100 0
-17 -101 0
-18 -102 0
-19 -1048 0
-20 -1049 0
-21 -1050 0
-19 -1051 0
-20 -1052 0
-21 -1053 0
-19 -943 0
-20 -944 0
-21 -945 0
-19 -1531 0
-20 -1532 0
-21 -1533 0
-19 -94 0
-20 -95 0
-21 -96 0
-19 -187 0
-20 -188 0
-21 -189 0
-19 -841 0
-20 -842 0
-21 -843 0
-22 -226 0
-23 -227 0
-24 -228 0
-22 -829 0
-23 -830 0
-24 -831 0
-22 -1315 0
-23 -1316 0
-24 -1317 0
-22 -67 0
-23 -68 0
-24 -69 0
-22 -1366 0
-23 -1367 0
-24 -1368 0
-25 -832 0
-26 -833 0
-27 -834 0
-25 -127 0
-26 -128 0
-27 -129 0
-25 -820 0
-26 -821 0
-27 -822 0
-25 -847 0
-26 -848 0
-27 -849 0
-28 -1066 0
-29 -1067 0
-30 -1068 0
-28 -229 0
-29 -230 0
-30 -231 0
-28 -73 0
-29 -74 0
-30 -75 0
-28 -1543 0
-29 -1544 0
-30 -1545 0
-31 -1051 0
-32 -1052 0
-33 -1053 0
-31 -157 0
-32 -158 0
-33 -159 0
-31 -178 0
-32 -179 0
-33 -180 0
-31 -946 0
-32 -947 0
-33 -948 0
-31 -1465 0
-32 -1466 0
-33 -1467 0
-34 -1303 0
-35 -1304 0
-36 -1305 0
-34 -1573 0
-35 -1574 0
-36 -1575 0
-34 -94 0
-35 -95 0
-36 -96 0
-34 -229 0
-35 -230 0
-36 -231 0
-37 -148 0
-38 -149 0
-39 -150 0
-37 -214 0
-38 -215 0
-39 -216 0
-37 -838 0
-38 -839 0
-39 -840 0
-37 -997 0
-38 -998 0
-39 -999 0
-40 -823 0
-41 -824 0
-42 -825 0
-40 -127 0
-41 -128 0
-42 -129 0
-40 -820 0
-41 -821 0
-42 -822 0
-43 -202 0
-44 -203 0
-45 -204 0
-43 -1228 0
-44 -1229 0
-45 -1230 0
-43 -1258 0
-44 -1259 0
-45 -1260 0
-43 -178 0
-44 -179 0
-45 -180 0
-46 -856 0
-47 -857 0
-48 -858 0
-46 -205 0
-47 -206 0
-48 -207 0
-46 -187 0
-47 -188 0
-48 -189 0
-49 -163 0
-50 -164 0
-51 -165 0
-49 -220 0
-50 -221 0
-51 -222 0
-49 -1411 0
-50 -1412 0
-51 -1413 0
-49 -1603 0
-50 -1604 0
-51 -1605 0
-49 -1075 0
-50 -1076 0
-51 -1077 0
-52 -202 0
-53 -203 0
-54 -204 0
-52 -1234 0
-53 -1235 0
-54 -1236 0
-52 -1258 0
-53 -1259 0
-54 -1260 0
-52 -214 0
-53 -215 0
-54 -216 0
-52 -1273 0
-53 -1274 0
-54 -1275 0
-52 -1084 0
-53 -1085 0
-54 -1086 0
-55 -226 0
-56 -227 0
-57 -228 0
-55 -1225 0
-56 -1226 0
-57 -1227 0
-55 -991 0
-56 -992 0
-57 -993 0
-55 -1384 0
-56 -1385 0
-57 -1386 0
-58 -226 0
-59 -227 0
-60 -228 0
-58 -127 0
-59 -128 0
-60 -129 0
-58 -1414 0
-59 -1415 0
-60 -1416 0
-58 -991 0
-59 -992 0
-60 -993 0
-58 -1180 0
-59 -1181 0
-60 -1182 0
-58 -1150 0
-59 -1151 0
-60 -1152 0
-61 -271 0
-62 -272 0
-63 -273 0
-61 -241 0
-62 -242 0
-63 -243 0
-61 -394 0
-62 -395 0
-63 -396 0
-61 -361 0
-62 -362 0
-63 -363 0
-61 -64 0
-62 -65 0
-63 -66 0
-61 -295 0
-62 -296 0
-63 -297 0
-61 -304 0
-62 -305 0
-63 -306 0
-64 -841 0
-65 -842 0
-66 -843 0
-64 -397 0
-65 -398 0
-66 -399 0
-64 -1507 0
-65 -1508 0
-66 -1509 0
-67 -223 0
-68 -224 0
-69 -225 0
-67 -394 0
-68 -395 0
-69 -396 0
-67 -292 0
-68 -293 0
-69 -294 0
-70 -853 0
-71 -854 0
-72 -855 0
-70 -1339 0
-71 -1340 0
-72 -1341 0
-70 -220 0
-71 -221 0
-72 -222 0
-70 -229 0
-71 -230 0
-72 -231 0
-73 -268 0
-74 -269 0
-75 -270 0
-73 -76 0
-74 -77 0
-75 -78 0
-73 -445 0
-74 -446 0
-75 -447 0
-73 -394 0
-74 -395 0
-75 -396 0
-73 -253 0
-74 -254 0
-75 -255 0
-73 -256 0
-74 -257 0
-75 -258 0
-76 -1156 0
-77 -1157 0
-78 -1158 0
-76 -1006 0
-77 -1007 0
-78 -1008 0
-76 -1072 0
-77 -1073 0
-78 -1074 0
-76 -397 0
-77 -398 0
-78 -399 0
-79 -832 0
-80 -833 0
-81 -834 0
-79 -157 0
-80 -158 0
-81 -159 0
-79 -1522 0
-80 -1523 0
-81 -1524 0
-82 -820 0
-83 -821 0
-84 -822 0
-82 -178 0
-83 -179 0
-84 -180 0
-82 -847 0
-83 -848 0
-84 -849 0
-85 -826 0
-86 -827 0
-87 -828 0
-85 -1225 0
-86 -1226 0
-87 -1227 0
-85 -322 0
-86 -323 0
-87 -324 0
-85 -142 0
-86 -143 0
-87 -144 0
-88 -1132 0
-89 -1133 0
-90 -1134 0
-88 -1159 0
-89 -1160 0
-90 -1161 0
-88 -844 0
-89 -845 0
-90 -846 0
-88 -100 0
-89 -101 0
-90 -102 0
-88 -1333 0
-89 -1334 0
-90 -1335 0
-88 -376 0
-89 -377 0
-90 -378 0
-91 -1567 0
-92 -1568 0
-93 -1569 0
-91 -94 0
-92 -95 0
-93 -96 0
-91 -1555 0
-92 -1556 0
-93 -1557 0
-91 -391 0
-92 -392 0
-93 -393 0
-94 -319 0
-95 -320 0
-96 -321 0
-94 -499 0
-95 -500 0
-96 -501 0
-94 -388 0
-95 -389 0
-96 -390 0
-94 -394 0
-95 -395 0
-96 -396 0
-94 -457 0
-95 -458 0
-96 -459 0
-94 -103 0
-95 -104 0
-96 -105 0
-94 -463 0
-95 -464 0
-96 -465 0
-94 -301 0
-95 -302 0
-96 -303 0
-97 -1525 0
-98 -1526 0
-99 -1527 0
-97 -100 0
-98 -101 0
-99 -102 0
-97 -391 0
-98 -392 0
-99 -393 0
-97 -1507 0
-98 -1508 0
-99 -1509 0
-97 -1333 0
-98 -1334 0
-99 -1335 0
-100 -334 0
-101 -335 0
-102 -336 0
-100 -508 0
-101 -509 0
-102 -510 0
-100 -394 0
-101 -395 0
-102 -396 0
-100 -400 0
-101 -401 0
-102 -402 0
-100 -298 0
-101 -299 0
-102 -300 0
-103 -1306 0
-104 -1307 0
-105 -1308 0
-103 -409 0
-104 -410 0
-105 -411 0
-103 -1012 0
-104 -1013 0
-105 -1014 0
-106 -853 0
-107 -854 0
-108 -855 0
-106 -328 0
-107 -329 0
-108 -330 0
-106 -1489 0
-107 -1490 0
-108 -1491 0
-106 -163 0
-107 -164 0
-108 -165 0
-109 -1036 0
-110 -1037 0
-111 -1038 0
-109 -484 0
-110 -485 0
-111 -486 0
-109 -1513 0
-110 -1514 0
-111 -1515 0
-112 -1036 0
-113 -1037 0
-114 -1038 0
-112 -487 0
-113 -488 0
-114 -489 0
-112 -1558 0
-113 -1559 0
-114 -1560 0
-112 -1486 0
-113 -1487 0
-114 -1488 0
-115 -961 0
-116 -962 0
-117 -963 0
-115 -328 0
-116 -329 0
-117 -330 0
-115 -994 0
-116 -995 0
-117 -996 0
-115 -187 0
-116 -188 0
-117 -189 0
-115 -955 0
-116 -956 0
-117 -957 0
-118 -349 0
-119 -350 0
-120 -351 0
-118 -394 0
-119 -395 0
-120 -396 0
-118 -259 0
-119 -260 0
-120 -261 0
-118 -481 0
-119 -482 0
-120 -483 0
-121 -322 0
-122 -323 0
-123 -324 0
-121 -214 0
-122 -215 0
-123 -216 0
-121 -1081 0
-122 -1082 0
-123 -1083 0
-121 -1441 0
-122 -1442 0
-123 -1443 0
-121 -1249 0
-122 -1250 0
-123 -1251 0
-124 -202 0
-125 -203 0
-126 -204 0
-124 -1105 0
-125 -1106 0
-126 -1107 0
-124 -328 0
-125 -329 0
-126 -330 0
-124 -964 0
-125 -965 0
-126 -966 0
-124 -994 0
-125 -995 0
-126 -996 0
-127 -544 0
-128 -545 0
-129 -546 0
-127 -130 0
-128 -131 0
-129 -132 0
-127 -394 0
-128 -395 0
-129 -396 0
-127 -352 0
-128 -353 0
-129 -354 0
-127 -364 0
-128 -365 0
-129 -366 0
-127 -307 0
-128 -308 0
-129 -309 0
-127 -310 0
-128 -311 0
-129 -312 0
-130 -862 0
-131 -863 0
-132 -864 0
-130 -1360 0
-131 -1361 0
-132 -1362 0
-133 -148 0
-134 -149 0
-135 -150 0
-133 -367 0
-134 -368 0
-135 -369 0
-133 -1129 0
-134 -1130 0
-135 -1131 0
-133 -1339 0
-134 -1340 0
-135 -1341 0
-136 -826 0
-137 -827 0
-138 -828 0
-136 -142 0
-137 -143 0
-138 -144 0
-136 -1000 0
-137 -1001 0
-138 -1002 0
-139 -367 0
-140 -368 0
-141 -369 0
-139 -1285 0
-140 -1286 0
-141 -1287 0
-139 -1216 0
-140 -1217 0
-141 -1218 0
-139 -1489 0
-140 -1490 0
-141 -1491 0
-139 -1228 0
-140 -1229 0
-141 -1230 0
-139 -163 0
-140 -164 0
-141 -165 0
-139 -1261 0
-140 -1262 0
-141 -1263 0
-142 -394 0
-143 -395 0
-144 -396 0
-142 -355 0
-143 -356 0
-144 -357 0
-145 -340 0
-146 -341 0
-147 -342 0
-145 -394 0
-146 -395 0
-147 -396 0
-145 -154 0
-146 -155 0
-147 -156 0
-145 -160 0
-146 -161 0
-147 -162 0
-148 -337 0
-149 -338 0
-150 -339 0
-148 -280 0
-149 -281 0
-150 -282 0
-148 -394 0
-149 -395 0
-150 -396 0
-148 -175 0
-149 -176 0
-150 -177 0
-151 -1138 0
-152 -1139 0
-153 -1140 0
-151 -370 0
-152 -371 0
-153 -372 0
-151 -1108 0
-152 -1109 0
-153 -1110 0
-151 -172 0
-152 -173 0
-153 -174 0
-151 -856 0
-152 -857 0
-153 -858 0
-154 -1267 0
-155 -1268 0
-156 -1269 0
-154 -409 0
-155 -410 0
-156 -411 0
-154 -868 0
-155 -869 0
-156 -870 0
-157 -550 0
-158 -551 0
-159 -552 0
-157 -394 0
-158 -395 0
-159 -396 0
-157 -460 0
-158 -461 0
-159 -462 0
-157 -418 0
-158 -419 0
-159 -420 0
-160 -1216 0
-161 -1217 0
-162 -1218 0
-160 -1267 0
-161 -1268 0
-162 -1269 0
-160 -421 0
-161 -422 0
-162 -423 0
-160 -1417 0
-161 -1418 0
-162 -1419 0
-160 -1516 0
-161 -1517 0
-162 -1518 0
-163 -496 0
-164 -497 0
-165 -498 0
-163 -343 0
-164 -344 0
-165 -345 0
-163 -394 0
-164 -395 0
-165 -396 0
-163 -286 0
-164 -287 0
-165 -288 0
-163 -289 0
-164 -290 0
-165 -291 0
-163 -169 0
-164 -170 0
-165 -171 0
-163 -424 0
-164 -425 0
-165 -426 0
-163 -427 0
-164 -428 0
-165 -429 0
-166 -1123 0
-167 -1124 0
-168 -1125 0
-166 -1078 0
-167 -1079 0
-168 -1080 0
-166 -382 0
-167 -383 0
-168 -384 0
-166 -1246 0
-167 -1247 0
-168 -1248 0
-166 -172 0
-167 -173 0
-168 -174 0
-169 -1552 0
-170 -1553 0
-171 -1554 0
-169 -1039 0
-170 -1040 0
-171 -1041 0
-169 -1270 0
-170 -1271 0
-171 -1272 0
-169 -1426 0
-170 -1427 0
-171 -1428 0
-172 -346 0
-173 -347 0
-174 -348 0
-172 -394 0
-173 -395 0
-174 -396 0
-172 -430 0
-173 -431 0
-174 -432 0
-175 -1186 0
-176 -1187 0
-177 -1188 0
-175 -1177 0
-176 -1178 0
-177 -1179 0
-175 -1135 0
-176 -1136 0
-177 -1137 0
-175 -1138 0
-176 -1139 0
-177 -1140 0
-175 -433 0
-176 -434 0
-177 -435 0
-178 -184 0
-179 -185 0
-180 -186 0
-178 -502 0
-179 -503 0
-180 -504 0
-178 -385 0
-179 -386 0
-180 -387 0
-178 -451 0
-179 -452 0
-180 -453 0
-178 -394 0
-179 -395 0
-180 -396 0
-178 -358 0
-179 -359 0
-180 -360 0
-181 -1123 0
-182 -1124 0
-183 -1125 0
-181 -1069 0
-182 -1070 0
-183 -1071 0
-181 -1147 0
-182 -1148 0
-183 -1149 0
-181 -874 0
-182 -875 0
-183 -876 0
-181 -187 0
-182 -188 0
-183 -189 0
-181 -391 0
-182 -392 0
-183 -393 0
-181 -889 0
-182 -890 0
-183 -891 0
-181 -940 0
-182 -941 0
-183 -942 0
-184 -1222 0
-185 -1223 0
-186 -1224 0
-184 -1525 0
-185 -1526 0
-186 -1527 0
-184 -397 0
-185 -398 0
-186 -399 0
-184 -1039 0
-185 -1040 0
-186 -1041 0
-184 -1477 0
-185 -1478 0
-186 -1479 0
-187 -190 0
-188 -191 0
-189 -192 0
-187 -439 0
-188 -440 0
-189 -441 0
-187 -442 0
-188 -443 0
-189 -444 0
-187 -505 0
-188 -506 0
-189 -507 0
-187 -394 0
-188 -395 0
-189 -396 0
-187 -403 0
-188 -404 0
-189 -405 0
-187 -574 0
-188 -575 0
-189 -576 0
-190 -1570 0
-191 -1571 0
-192 -1572 0
-190 -433 0
-191 -434 0
-192 -435 0
-190 -1591 0
-191 -1592 0
-192 -1593 0
-190 -1354 0
-191 -1355 0
-192 -1356 0
-190 -1099 0
-191 -1100 0
-192 -1101 0
-190 -958 0
-191 -959 0
-192 -960 0
-193 -331 0
-194 -332 0
-195 -333 0
-193 -199 0
-194 -200 0
-195 -201 0
-193 -394 0
-194 -395 0
-195 -396 0
-196 -202 0
-197 -203 0
-198 -204 0
-196 -1054 0
-197 -1055 0
-198 -1056 0
-196 -1069 0
-197 -1070 0
-198 -1071 0
-196 -391 0
-197 -392 0
-198 -393 0
-196 -1063 0
-197 -1064 0
-198 -1065 0
-199 -877 0
-200 -878 0
-201 -879 0
-199 -1132 0
-200 -1133 0
-201 -1134 0
-199 -397 0
-200 -398 0
-201 -399 0
-202 -559 0
-203 -560 0
-204 -561 0
-202 -379 0
-203 -380 0
-204 -381 0
-202 -448 0
-203 -449 0
-204 -450 0
-202 -394 0
-203 -395 0
-204 -396 0
-205 -211 0
-206 -212 0
-207 -213 0
-205 -562 0
-206 -563 0
-207 -564 0
-205 -394 0
-206 -395 0
-207 -396 0
-208 -1306 0
-209 -1307 0
-210 -1308 0
-208 -880 0
-209 -881 0
-210 -882 0
-208 -1318 0
-209 -1319 0
-210 -1320 0
-208 -214 0
-209 -215 0
-210 -216 0
-208 -844 0
-209 -845 0
-210 -846 0
-208 -391 0
-209 -392 0
-210 -393 0
-211 -1231 0
-212 -1232 0
-213 -1233 0
-211 -397 0
-212 -398 0
-213 -399 0
-211 -1594 0
-212 -1595 0
-213 -1596 0
-214 -436 0
-215 -437 0
-216 -438 0
-214 -565 0
-215 -566 0
-216 -567 0
-214 -244 0
-215 -245 0
-216 -246 0
-214 -394 0
-215 -395 0
-216 -396 0
-214 -532 0
-215 -533 0
-216 -534 0
-217 -850 0
-218 -851 0
-219 -852 0
-217 -1447 0
-218 -1448 0
-219 -1449 0
-217 -367 0
-218 -368 0
-219 -369 0
-217 -220 0
-218 -221 0
-219 -222 0
-217 -871 0
-218 -872 0
-219 -873 0
-220 -394 0
-221 -395 0
-222 -396 0
-220 -469 0
-221 -470 0
-222 -471 0
-223 -829 0
-224 -830 0
-225 -831 0
-223 -1321 0
-224 -1322 0
-225 -1323 0
-223 -613 0
-224 -614 0
-225 -615 0
-226 -556 0
-227 -557 0
-228 -558 0
-226 -394 0
-227 -395 0
-228 -396 0
-226 -523 0
-227 -524 0
-228 -525 0
-226 -472 0
-227 -473 0
-228 -474 0
-229 -277 0
-230 -278 0
-231 -279 0
-229 -520 0
-230 -521 0
-231 -522 0
-229 -454 0
-230 -455 0
-231 -456 0
-229 -394 0
-230 -395 0
-231 -396 0
-229 -250 0
-230 -251 0
-231 -252 0
-229 -529 0
-230 -530 0
-231 -531 0
-229 -475 0
-230 -476 0
-231 -477 0
-232 -283 0
-233 -284 0
-234 -285 0
-232 -394 0
-233 -395 0
-234 -396 0
-232 -247 0
-233 -248 0
-234 -249 0
-235 -316 0
-236 -317 0
-237 -318 0
-235 -238 0
-236 -239 0
-237 -240 0
-235 -394 0
-236 -395 0
-237 -396 0
-235 -478 0
-236 -479 0
-237 -480 0
-238 -397 0
-239 -398 0
-240 -399 0
-238 -1189 0
-239 -1190 0
-240 -1191 0
-241 -862 0
-242 -863 0
-243 -864 0
-241 -841 0
-242 -842 0
-243 -843 0
-241 -886 0
-242 -887 0
-243 -888 0
-241 -634 0
-242 -635 0
-243 -636 0
-241 -889 0
-242 -890 0
-243 -891 0
-244 -1021 0
-245 -1022 0
-246 -1023 0
-244 -1324 0
-245 -1325 0
-246 -1326 0
-244 -487 0
-245 -488 0
-246 -489 0
-244 -1351 0
-245 -1352 0
-246 -1353 0
-244 -844 0
-245 -845 0
-246 -846 0
-244 -997 0
-245 -998 0
-246 -999 0
-247 -1582 0
-248 -1583 0
-249 -1584 0
-247 -865 0
-248 -866 0
-249 -867 0
-247 -1396 0
-248 -1397 0
-249 -1398 0
-247 -1003 0
-248 -1004 0
-249 -1005 0
-247 -1585 0
-248 -1586 0
-249 -1587 0
-247 -1576 0
-248 -1577 0
-249 -1578 0
-247 -421 0
-248 -422 0
-249 -423 0
-247 -1345 0
-248 -1346 0
-249 -1347 0
-247 -1420 0
-248 -1421 0
-249 -1422 0
-250 -1447 0
-251 -1448 0
-252 -1449 0
-250 -883 0
-251 -884 0
-252 -885 0
-250 -433 0
-251 -434 0
-252 -435 0
-250 -1162 0
-251 -1163 0
-252 -1164 0
-250 -1357 0
-251 -1358 0
-252 -1359 0
-253 -1156 0
-254 -1157 0
-255 -1158 0
-253 -1312 0
-254 -1313 0
-255 -1314 0
-253 -1192 0
-254 -1193 0
-255 -1194 0
-253 -1093 0
-254 -1094 0
-255 -1095 0
-253 -1381 0
-254 -1382 0
-255 -1383 0
-253 -613 0
-254 -614 0
-255 -615 0
-256 -883 0
-257 -884 0
-258 -885 0
-256 -619 0
-257 -620 0
-258 -621 0
-259 -1612 0
-260 -1613 0
-261 -1614 0
-259 -1042 0
-260 -1043 0
-261 -1044 0
-259 -592 0
-260 -593 0
-261 -594 0
-262 -1282 0
-263 -1283 0
-264 -1284 0
-262 -1558 0
-263 -1559 0
-264 -1560 0
-262 -643 0
-263 -644 0
-264 -645 0
-262 -1561 0
-263 -1562 0
-264 -1563 0
-265 -1279 0
-266 -1280 0
-267 -1281 0
-265 -1513 0
-266 -1514 0
-267 -1515 0
-265 -1291 0
-266 -1292 0
-267 -1293 0
-265 -643 0
-266 -644 0
-267 -645 0
-268 -1312 0
-269 -1313 0
-270 -1314 0
-268 -883 0
-269 -884 0
-270 -885 0
-268 -643 0
-269 -644 0
-270 -645 0
-271 -1570 0
-272 -1571 0
-273 -1572 0
-271 -703 0
-272 -704 0
-273 -705 0
-271 -1411 0
-272 -1412 0
-273 -1413 0
-271 -886 0
-272 -887 0
-273 -888 0
-274 -823 0
-275 -824 0
-276 -825 0
-274 -1336 0
-275 -1337 0
-276 -1338 0
-274 -1408 0
-275 -1409 0
-276 -1410 0
-274 -1360 0
-275 -1361 0
-276 -1362 0
-277 -487 0
-278 -488 0
-279 -489 0
-277 -985 0
-278 -986 0
-279 -987 0
-277 -925 0
-278 -926 0
-279 -927 0
-280 -1339 0
-281 -1340 0
-282 -1341 0
-280 -1342 0
-281 -1343 0
-282 -1344 0
-280 -589 0
-281 -590 0
-282 -591 0
-280 -1357 0
-281 -1358 0
-282 -1359 0
-283 -1567 0
-284 -1568 0
-285 -1569 0
-283 -1453 0
-284 -1454 0
-285 -1455 0
-283 -1345 0
-284 -1346 0
-285 -1347 0
-283 -490 0
-284 -491 0
-285 -492 0
-286 -1228 0
-287 -1229 0
-288 -1230 0
-286 -1444 0
-287 -1445 0
-288 -1446 0
-286 -589 0
-287 -590 0
-288 -591 0
-289 -1480 0
-290 -1481 0
-291 -1482 0
-289 -592 0
-290 -593 0
-291 -594 0
-289 -1090 0
-290 -1091 0
-291 -1092 0
-289 -1075 0
-290 -1076 0
-291 -1077 0
-292 -1321 0
-293 -1322 0
-294 -1323 0
-292 -709 0
-293 -710 0
-294 -711 0
-292 -1351 0
-293 -1352 0
-294 -1353 0
-295 -817 0
-296 -818 0
-297 -819 0
-295 -733 0
-296 -734 0
-297 -735 0
-295 -1507 0
-296 -1508 0
-297 -1509 0
-298 -1042 0
-299 -1043 0
-300 -1044 0
-298 -982 0
-299 -983 0
-300 -984 0
-298 -634 0
-299 -635 0
-300 -636 0
-301 -1555 0
-302 -1556 0
-303 -1557 0
-301 -1537 0
-302 -1538 0
-303 -1539 0
-301 -1540 0
-302 -1541 0
-303 -1542 0
-301 -1573 0
-302 -1574 0
-303 -1575 0
-301 -643 0
-302 -644 0
-303 -645 0
-301 -1045 0
-302 -1046 0
-303 -1047 0
-301 -1048 0
-302 -1049 0
-303 -1050 0
-304 -817 0
-305 -818 0
-306 -819 0
-304 -1363 0
-305 -1364 0
-306 -1365 0
-304 -742 0
-305 -743 0
-306 -744 0
-304 -1168 0
-305 -1169 0
-306 -1170 0
-304 -1174 0
-305 -1175 0
-306 -1176 0
-304 -889 0
-305 -890 0
-306 -891 0
-304 -940 0
-305 -941 0
-306 -942 0
-304 -1459 0
-305 -1460 0
-306 -1461 0
-304 -1114 0
-305 -1115 0
-306 -1116 0
-304 -967 0
-305 -968 0
-306 -969 0
-307 -598 0
-308 -599 0
-309 -600 0
-307 -1024 0
-308 -1025 0
-309 -1026 0
-307 -1150 0
-308 -1151 0
-309 -1152 0
-310 -832 0
-311 -833 0
-312 -834 0
-310 -835 0
-311 -836 0
-312 -837 0
-310 -1144 0
-311 -1145 0
-312 -1146 0
-310 -862 0
-311 -863 0
-312 -864 0
-310 -1276 0
-311 -1277 0
-312 -1278 0
-310 -604 0
-311 -605 0
-312 -606 0
-313 -1579 0
-314 -1580 0
-315 -1581 0
-313 -370 0
-314 -371 0
-315 -372 0
-313 -1129 0
-314 -1130 0
-315 -1131 0
-313 -325 0
-314 -326 0
-315 -327 0
-316 -1315 0
-317 -1316 0
-318 -1317 0
-316 -901 0
-317 -902 0
-318 -903 0
-316 -1195 0
-317 -1196 0
-318 -1197 0
-319 -664 0
-320 -665 0
-321 -666 0
-319 -1330 0
-320 -1331 0
-321 -1332 0
-319 -1510 0
-320 -1511 0
-321 -1512 0
-322 -712 0
-323 -713 0
-324 -714 0
-322 -394 0
-323 -395 0
-324 -396 0
-322 -526 0
-323 -527 0
-324 -528 0
-325 -715 0
-326 -716 0
-327 -717 0
-325 -394 0
-326 -395 0
-327 -396 0
-328 -553 0
-329 -554 0
-330 -555 0
-328 -394 0
-329 -395 0
-330 -396 0
-328 -535 0
-329 -536 0
-330 -537 0
-331 -1096 0
-332 -1097 0
-333 -1098 0
-331 -580 0
-332 -581 0
-333 -582 0
-331 -1132 0
-332 -1133 0
-333 -1134 0
-331 -1333 0
-332 -1334 0
-333 -1335 0
-334 -892 0
-335 -893 0
-336 -894 0
-334 -1132 0
-335 -1133 0
-336 -1134 0
-334 -1390 0
-335 -1391 0
-336 -1392 0
-334 -682 0
-335 -683 0
-336 -684 0
-337 -598 0
-338 -599 0
-339 -600 0
-337 -1414 0
-338 -1415 0
-339 -1416 0
-337 -1357 0
-338 -1358 0
-339 -1359 0
-340 -1582 0
-341 -1583 0
-342 -1584 0
-340 -601 0
-341 -602 0
-342 -603 0
-340 -1516 0
-341 -1517 0
-342 -1518 0
-340 -1576 0
-341 -1577 0
-342 -1578 0
-343 -598 0
-344 -599 0
-345 -600 0
-343 -853 0
-344 -854 0
-345 -855 0
-343 -925 0
-344 -926 0
-345 -927 0
-346 -1453 0
-347 -1454 0
-348 -1455 0
-346 -601 0
-347 -602 0
-348 -603 0
-349 -1126 0
-350 -1127 0
-351 -1128 0
-349 -1522 0
-350 -1523 0
-351 -1524 0
-349 -1141 0
-350 -1142 0
-351 -1143 0
-352 -1102 0
-353 -1103 0
-354 -1104 0
-352 -1030 0
-353 -1031 0
-354 -1032 0
-352 -634 0
-353 -635 0
-354 -636 0
-355 -1264 0
-356 -1265 0
-357 -1266 0
-355 -613 0
-356 -614 0
-357 -615 0
-358 -604 0
-359 -605 0
-360 -606 0
-358 -847 0
-359 -848 0
-360 -849 0
-361 -757 0
-362 -758 0
-363 -759 0
-361 -1462 0
-362 -1463 0
-363 -1464 0
-364 -664 0
-365 -665 0
-366 -666 0
-364 -1024 0
-365 -1025 0
-366 -1026 0
-364 -1330 0
-365 -1331 0
-366 -1332 0
-367 -628 0
-368 -629 0
-369 -630 0
-367 -652 0
-368 -653 0
-369 -654 0
-367 -511 0
-368 -512 0
-369 -513 0
-367 -568 0
-368 -569 0
-369 -570 0
-367 -394 0
-368 -395 0
-369 -396 0
-367 -700 0
-368 -701 0
-369 -702 0
-370 -631 0
-371 -632 0
-372 -633 0
-370 -667 0
-371 -668 0
-372 -669 0
-370 -724 0
-371 -725 0
-372 -726 0
-370 -514 0
-371 -515 0
-372 -516 0
-370 -571 0
-371 -572 0
-372 -573 0
-370 -394 0
-371 -395 0
-372 -396 0
-373 -1303 0
-374 -1304 0
-375 -1305 0
-373 -391 0
-374 -392 0
-375 -393 0
-373 -1333 0
-374 -1334 0
-375 -1335 0
-373 -376 0
-374 -377 0
-375 -378 0
-373 -1201 0
-374 -1202 0
-375 -1203 0
-376 -394 0
-377 -395 0
-378 -396 0
-376 -583 0
-377 -584 0
-378 -585 0
-379 -1264 0
-380 -1265 0
-381 -1266 0
-379 -1288 0
-380 -1289 0
-381 -1290 0
-379 -1240 0
-380 -1241 0
-381 -1242 0
-379 -613 0
-380 -614 0
-381 -615 0
-382 -658 0
-383 -659 0
-384 -660 0
-382 -727 0
-383 -728 0
-384 -729 0
-382 -394 0
-383 -395 0
-384 -396 0
-385 -1141 0
-386 -1142 0
-387 -1143 0
-385 -982 0
-386 -983 0
-387 -984 0
-385 -1243 0
-386 -1244 0
-387 -1245 0
-385 -634 0
-386 -635 0
-387 -636 0
-385 -1039 0
-386 -1040 0
-387 -1041 0
-388 -1372 0
-389 -1373 0
-390 -1374 0
-388 -1012 0
-389 -1013 0
-390 -1014 0
-388 -733 0
-389 -734 0
-390 -735 0
-391 -637 0
-392 -638 0
-393 -639 0
-391 -730 0
-392 -731 0
-393 -732 0
-391 -736 0
-392 -737 0
-393 -738 0
-391 -394 0
-392 -395 0
-393 -396 0
-391 -406 0
-392 -407 0
-393 -408 0
-391 -622 0
-392 -623 0
-393 -624 0
-394 -484 0
-395 -485 0
-396 -486 0
-394 -487 0
-395 -488 0
-396 -489 0
-394 -433 0
-395 -434 0
-396 -435 0
-394 -754 0
-395 -755 0
-396 -756 0
-394 -490 0
-395 -491 0
-396 -492 0
-394 -493 0
-395 -494 0
-396 -495 0
-394 -634 0
-395 -635 0
-396 -636 0
-394 -643 0
-395 -644 0
-396 -645 0
-394 -757 0
-395 -758 0
-396 -759 0
-394 -709 0
-395 -710 0
-396 -711 0
-394 -655 0
-395 -656 0
-396 -657 0
-394 -664 0
-395 -665 0
-396 -666 0
-394 -766 0
-395 -767 0
-396 -768 0
-394 -733 0
-395 -734 0
-396 -735 0
-394 -742 0
-395 -743 0
-396 -744 0
-394 -598 0
-395 -599 0
-396 -600 0
-394 -601 0
-395 -602 0
-396 -603 0
-394 -604 0
-395 -605 0
-396 -606 0
-394 -676 0
-395 -677 0
-396 -678 0
-394 -682 0
-395 -683 0
-396 -684 0
-394 -397 0
-395 -398 0
-396 -399 0
-394 -409 0
-395 -410 0
-396 -411 0
-394 -412 0
-395 -413 0
-396 -414 0
-394 -613 0
-395 -614 0
-396 -615 0
-394 -577 0
-395 -578 0
-396 -579 0
-394 -580 0
-395 -581 0
-396 -582 0
-394 -619 0
-395 -620 0
-396 -621 0
-394 -589 0
-395 -590 0
-396 -591 0
-394 -592 0
-395 -593 0
-396 -594 0
-394 -421 0
-395 -422 0
-396 -423 0
-394 -703 0
-395 -704 0
-396 -705 0
-397 -640 0
-398 -641 0
-399 -642 0
-397 -739 0
-398 -740 0
-399 -741 0
-397 -745 0
-398 -746 0
-399 -747 0
-397 -679 0
-398 -680 0
-399 -681 0
-397 -415 0
-398 -416 0
-399 -417 0
-397 -616 0
-398 -617 0
-399 -618 0
-400 -1159 0
-401 -1160 0
-402 -1161 0
-400 -1363 0
-401 -1364 0
-402 -1365 0
-400 -742 0
-401 -743 0
-402 -744 0
-403 -1123 0
-404 -1124 0
-405 -1125 0
-403 -1498 0
-404 -1499 0
-405 -1500 0
-403 -643 0
-404 -644 0
-405 -645 0
-403 -958 0
-404 -959 0
-405 -960 0
-403 -1048 0
-404 -1049 0
-405 -1050 0
-406 -1219 0
-407 -1220 0
-408 -1221 0
-406 -412 0
-407 -413 0
-408 -414 0
-406 -1147 0
-407 -1148 0
-408 -1149 0
-409 -646 0
-410 -647 0
-411 -648 0
-409 -691 0
-410 -692 0
-411 -693 0
-409 -415 0
-410 -416 0
-411 -417 0
-412 -586 0
-413 -587 0
-414 -588 0
-415 -892 0
-416 -893 0
-417 -894 0
-415 -1213 0
-416 -1214 0
-417 -1215 0
-415 -1222 0
-416 -1223 0
-417 -1224 0
-415 -838 0
-416 -839 0
-417 -840 0
-415 -1072 0
-416 -1073 0
-417 -1074 0
-415 -898 0
-416 -899 0
-417 -900 0
-418 -1465 0
-419 -1466 0
-420 -1467 0
-418 -1492 0
-419 -1493 0
-420 -1494 0
-421 -670 0
-422 -671 0
-423 -672 0
-421 -673 0
-422 -674 0
-423 -675 0
-421 -607 0
-422 -608 0
-423 -609 0
-421 -694 0
-422 -695 0
-423 -696 0
-424 -1216 0
-425 -1217 0
-426 -1218 0
-424 -1111 0
-425 -1112 0
-426 -1113 0
-424 -676 0
-425 -677 0
-426 -678 0
-424 -1603 0
-425 -1604 0
-426 -1605 0
-427 -1135 0
-428 -1136 0
-429 -1137 0
-427 -682 0
-428 -683 0
-429 -684 0
-430 -1138 0
-431 -1139 0
-432 -1140 0
-430 -682 0
-431 -683 0
-432 -684 0
-430 -1600 0
-431 -1601 0
-432 -1602 0
-433 -595 0
-434 -596 0
-435 -597 0
-433 -649 0
-434 -650 0
-435 -651 0
-433 -610 0
-434 -611 0
-435 -612 0
-433 -685 0
-434 -686 0
-435 -687 0
-433 -688 0
-434 -689 0
-435 -690 0
-433 -697 0
-434 -698 0
-435 -699 0
-436 -973 0
-437 -974 0
-438 -975 0
-436 -1273 0
-437 -1274 0
-438 -1275 0
-436 -634 0
-437 -635 0
-438 -636 0
-439 -1588 0
-440 -1589 0
-441 -1590 0
-439 -682 0
-440 -683 0
-441 -684 0
-439 -1393 0
-440 -1394 0
-441 -1395 0
-439 -955 0
-440 -956 0
-441 -957 0
-442 -1531 0
-443 -1532 0
-444 -1533 0
-442 -1474 0
-443 -1475 0
-444 -1476 0
-445 -931 0
-446 -932 0
-447 -933 0
-445 -766 0
-446 -767 0
-447 -768 0
-448 -1105 0
-449 -1106 0
-450 -1107 0
-448 -676 0
-449 -677 0
-450 -678 0
-448 -1240 0
-449 -1241 0
-450 -1242 0
-451 -1027 0
-452 -1028 0
-453 -1029 0
-451 -703 0
-452 -704 0
-453 -705 0
-451 -1411 0
-452 -1412 0
-453 -1413 0
-454 -1447 0
-455 -1448 0
-456 -1449 0
-454 -598 0
-455 -599 0
-456 -600 0
-454 -1483 0
-455 -1484 0
-456 -1485 0
-454 -1444 0
-455 -1445 0
-456 -1446 0
-457 -931 0
-458 -932 0
-459 -933 0
-457 -1051 0
-458 -1052 0
-459 -1053 0
-457 -754 0
-458 -755 0
-459 -756 0
-457 -1060 0
-458 -1061 0
-459 -1062 0
-460 -1048 0
-461 -1049 0
-462 -1050 0
-460 -1051 0
-461 -1052 0
-462 -1053 0
-460 -709 0
-461 -710 0
-462 -711 0
-463 -757 0
-464 -758 0
-465 -759 0
-463 -1435 0
-464 -1436 0
-465 -1437 0
-466 -682 0
-467 -683 0
-468 -684 0
-466 -1600 0
-467 -1601 0
-468 -1602 0
-466 -865 0
-467 -866 0
-468 -867 0
-466 -1585 0
-467 -1586 0
-468 -1587 0
-469 -1447 0
-470 -1448 0
-471 -1449 0
-469 -1339 0
-470 -1340 0
-471 -1341 0
-469 -676 0
-470 -677 0
-471 -678 0
-469 -1603 0
-470 -1604 0
-471 -1605 0
-469 -1504 0
-470 -1505 0
-471 -1506 0
-472 -1315 0
-473 -1316 0
-474 -1317 0
-472 -901 0
-473 -902 0
-474 -903 0
-472 -619 0
-473 -620 0
-474 -621 0
-475 -1303 0
-476 -1304 0
-477 -1305 0
-475 -1309 0
-476 -1310 0
-477 -1311 0
-475 -1162 0
-476 -1163 0
-477 -1164 0
-475 -613 0
-476 -614 0
-477 -615 0
-478 -1195 0
-479 -1196 0
-480 -1197 0
-478 -1381 0
-479 -1382 0
-480 -1383 0
-478 -613 0
-479 -614 0
-480 -615 0
-481 -1612 0
-482 -1613 0
-483 -1614 0
-481 -1141 0
-482 -1142 0
-483 -1143 0
-481 -754 0
-482 -755 0
-483 -756 0
-484 -547 0
-485 -548 0
-486 -549 0
-487 -760 0
-488 -761 0
-489 -762 0
-487 -718 0
-488 -719 0
-489 -720 0
-487 -625 0
-488 -626 0
-489 -627 0
-490 -721 0
-491 -722 0
-492 -723 0
-490 -748 0
-491 -749 0
-492 -750 0
-493 -706 0
-494 -707 0
-495 -708 0
-493 -547 0
-494 -548 0
-495 -549 0
-496 -1459 0
-497 -1460 0
-498 -1461 0
-496 -1204 0
-497 -1205 0
-498 -1206 0
-496 -1117 0
-497 -1118 0
-498 -1119 0
-496 -742 0
-497 -743 0
-498 -744 0
-496 -1426 0
-497 -1427 0
-498 -1428 0
-496 -1120 0
-497 -1121 0
-498 -1122 0
-499 -874 0
-500 -875 0
-501 -876 0
-499 -1036 0
-500 -1037 0
-501 -1038 0
-499 -976 0
-500 -977 0
-501 -978 0
-499 -1471 0
-500 -1472 0
-501 -1473 0
-499 -1540 0
-500 -1541 0
-501 -1542 0
-499 -841 0
-500 -842 0
-501 -843 0
-499 -766 0
-500 -767 0
-501 -768 0
-499 -1369 0
-500 -1370 0
-501 -1371 0
-502 -1141 0
-503 -1142 0
-504 -1143 0
-502 -1327 0
-503 -1328 0
-504 -1329 0
-502 -1477 0
-503 -1478 0
-504 -1479 0
-502 -742 0
-503 -743 0
-504 -744 0
-502 -1174 0
-503 -1175 0
-504 -1176 0
-505 -733 0
-506 -734 0
-507 -735 0
-505 -1498 0
-506 -1499 0
-507 -1500 0
-505 -1501 0
-506 -1502 0
-507 -1503 0
-508 -1036 0
-509 -1037 0
-510 -1038 0
-508 -979 0
-509 -980 0
-510 -981 0
-508 -1525 0
-509 -1526 0
-510 -1527 0
-508 -766 0
-509 -767 0
-510 -768 0
-511 -850 0
-512 -851 0
-513 -852 0
-511 -904 0
-512 -905 0
-513 -906 0
-514 -1153 0
-515 -1154 0
-516 -1155 0
-514 -907 0
-515 -908 0
-516 -909 0
-517 -1336 0
-518 -1337 0
-519 -1338 0
-517 -835 0
-518 -836 0
-519 -837 0
-517 -1000 0
-518 -1001 0
-519 -1002 0
-520 -853 0
-521 -854 0
-522 -855 0
-520 -664 0
-521 -665 0
-522 -666 0
-520 -883 0
-521 -884 0
-522 -885 0
-520 -1483 0
-521 -1484 0
-522 -1485 0
-520 -925 0
-521 -926 0
-522 -927 0
-523 -1384 0
-524 -1385 0
-525 -1386 0
-523 -1366 0
-524 -1367 0
-525 -1368 0
-523 -1501 0
-524 -1502 0
-525 -1503 0
-526 -577 0
-527 -578 0
-528 -579 0
-526 -1054 0
-527 -1055 0
-528 -1056 0
-526 -1081 0
-527 -1082 0
-528 -1083 0
-529 -1318 0
-530 -1319 0
-531 -1320 0
-529 -1339 0
-530 -1340 0
-531 -1341 0
-529 -676 0
-530 -677 0
-531 -678 0
-529 -1357 0
-530 -1358 0
-531 -1359 0
-532 -1021 0
-533 -1022 0
-534 -1023 0
-532 -1318 0
-533 -1319 0
-534 -1320 0
-532 -838 0
-533 -839 0
-534 -840 0
-532 -973 0
-533 -974 0
-534 -975 0
-532 -742 0
-533 -743 0
-534 -744 0
-532 -898 0
-533 -899 0
-534 -900 0
-535 -880 0
-536 -881 0
-537 -882 0
-535 -589 0
-536 -590 0
-537 -591 0
-538 -598 0
-539 -599 0
-540 -600 0
-538 -886 0
-539 -887 0
-540 -888 0
-538 -910 0
-539 -911 0
-540 -912 0
-538 -919 0
-539 -920 0
-540 -921 0
-541 -850 0
-542 -851 0
-543 -852 0
-541 -904 0
-542 -905 0
-543 -906 0
-541 -910 0
-542 -911 0
-543 -912 0
-541 -766 0
-542 -767 0
-543 -768 0
-544 -1336 0
-545 -1337 0
-546 -1338 0
-544 -1360 0
-545 -1361 0
-546 -1362 0
-544 -766 0
-545 -767 0
-546 -768 0
-544 -1180 0
-545 -1181 0
-546 -1182 0
-544 -1369 0
-545 -1370 0
-546 -1371 0
-544 -847 0
-545 -848 0
-546 -849 0
-547 -1036 0
-548 -1037 0
-549 -1038 0
-547 -1435 0
-548 -1436 0
-549 -1437 0
-550 -1522 0
-551 -1523 0
-552 -1524 0
-550 -946 0
-551 -947 0
-552 -948 0
-550 -1549 0
-551 -1550 0
-552 -1551 0
-553 -598 0
-554 -599 0
-555 -600 0
-553 -853 0
-554 -854 0
-555 -855 0
-553 -1414 0
-554 -1415 0
-555 -1416 0
-553 -1444 0
-554 -1445 0
-555 -1446 0
-556 -709 0
-557 -710 0
-558 -711 0
-556 -1501 0
-557 -1502 0
-558 -1503 0
-559 -964 0
-560 -965 0
-561 -966 0
-559 -1228 0
-560 -1229 0
-561 -1230 0
-559 -1234 0
-560 -1235 0
-561 -1236 0
-559 -754 0
-560 -755 0
-561 -756 0
-559 -949 0
-560 -950 0
-561 -951 0
-559 -1060 0
-560 -1061 0
-561 -1062 0
-559 -1063 0
-560 -1064 0
-561 -1065 0
-562 -856 0
-563 -857 0
-564 -858 0
-562 -1207 0
-563 -1208 0
-564 -1209 0
-562 -1087 0
-563 -1088 0
-564 -1089 0
-562 -1594 0
-563 -1595 0
-564 -1596 0
-565 -859 0
-566 -860 0
-567 -861 0
-565 -1234 0
-566 -1235 0
-567 -1236 0
-565 -754 0
-566 -755 0
-567 -756 0
-565 -1249 0
-566 -1250 0
-567 -1251 0
-568 -928 0
-569 -929 0
-570 -930 0
-568 -1339 0
-569 -1340 0
-570 -1341 0
-568 -1228 0
-569 -1229 0
-570 -1230 0
-568 -589 0
-569 -590 0
-570 -591 0
-571 -1432 0
-572 -1433 0
-573 -1434 0
-571 -1579 0
-572 -1580 0
-573 -1581 0
-571 -580 0
-572 -581 0
-573 -582 0
-571 -856 0
-572 -857 0
-573 -858 0
-571 -1516 0
-572 -1517 0
-573 -1518 0
-571 -1096 0
-572 -1097 0
-573 -1098 0
-574 -850 0
-575 -851 0
-576 -852 0
-574 -1336 0
-575 -1337 0
-576 -1338 0
-574 -889 0
-575 -890 0
-576 -891 0
-574 -841 0
-575 -842 0
-576 -843 0
-574 -1456 0
-575 -1457 0
-576 -1458 0
-574 -766 0
-575 -767 0
-576 -768 0
-574 -871 0
-575 -872 0
-576 -873 0
-577 -787 0
-578 -788 0
-579 -789 0
-577 -586 0
-578 -587 0
-579 -588 0
-583 -880 0
-584 -881 0
-585 -882 0
-583 -1342 0
-584 -1343 0
-585 -1344 0
-583 -916 0
-584 -917 0
-585 -918 0
-583 -844 0
-584 -845 0
-585 -846 0
-583 -589 0
-584 -590 0
-585 -591 0
-586 -1219 0
-587 -1220 0
-588 -1221 0
-586 -1054 0
-587 -1055 0
-588 -1056 0
-589 -775 0
-590 -776 0
-591 -777 0
-589 -625 0
-590 -626 0
-591 -627 0
-592 -595 0
-593 -596 0
-594 -597 0
-592 -793 0
-593 -794 0
-594 -795 0
-592 -778 0
-593 -779 0
-594 -780 0
-595 -1090 0
-596 -1091 0
-597 -1092 0
-595 -1099 0
-596 -1100 0
-597 -1101 0
-598 -769 0
-599 -770 0
-600 -771 0
-598 -610 0
-599 -611 0
-600 -612 0
-598 -781 0
-599 -782 0
-600 -783 0
-601 -772 0
-602 -773 0
-603 -774 0
-601 -607 0
-602 -608 0
-603 -609 0
-607 -1432 0
-608 -1433 0
-609 -1434 0
-607 -865 0
-608 -866 0
-609 -867 0
-607 -1516 0
-608 -1517 0
-609 -1518 0
-610 -1447 0
-611 -1448 0
-612 -1449 0
-610 -928 0
-611 -929 0
-612 -930 0
-610 -886 0
-611 -887 0
-612 -888 0
-613 -706 0
-614 -707 0
-615 -708 0
-613 -616 0
-614 -617 0
-615 -618 0
-616 -1156 0
-617 -1157 0
-618 -1158 0
-616 -1309 0
-617 -1310 0
-618 -1311 0
-616 -1342 0
-617 -1343 0
-618 -1344 0
-616 -985 0
-617 -986 0
-618 -987 0
-616 -916 0
-617 -917 0
-618 -918 0
-616 -1171 0
-617 -1172 0
-618 -1173 0
-619 -790 0
-620 -791 0
-621 -792 0
-622 -1567 0
-623 -1568 0
-624 -1569 0
-622 -868 0
-623 -869 0
-624 -870 0
-625 -1321 0
-626 -1322 0
-627 -1323 0
-625 -1351 0
-626 -1352 0
-627 -1353 0
-625 -1483 0
-626 -1484 0
-627 -1485 0
-625 -1444 0
-626 -1445 0
-627 -1446 0
-628 -1285 0
-629 -1286 0
-630 -1287 0
-628 -904 0
-629 -905 0
-630 -906 0
-628 -919 0
-629 -920 0
-630 -921 0
-628 -634 0
-629 -635 0
-630 -636 0
-631 -1108 0
-632 -1109 0
-633 -1110 0
-631 -907 0
-632 -908 0
-633 -909 0
-631 -643 0
-632 -644 0
-633 -645 0
-634 -784 0
-635 -785 0
-636 -786 0
-634 -640 0
-635 -641 0
-636 -642 0
-634 -646 0
-635 -647 0
-636 -648 0
-634 -796 0
-635 -797 0
-636 -798 0
-634 -799 0
-635 -800 0
-636 -801 0
-634 -802 0
-635 -803 0
-636 -804 0
-637 -979 0
-638 -980 0
-639 -981 0
-637 -1123 0
-638 -1124 0
-639 -1125 0
-637 -1555 0
-638 -1556 0
-639 -1557 0
-637 -1009 0
-638 -1010 0
-639 -1011 0
-637 -1507 0
-638 -1508 0
-639 -1509 0
-637 -934 0
-638 -935 0
-639 -936 0
-637 -643 0
-638 -644 0
-639 -645 0
-637 -1201 0
-638 -1202 0
-639 -1203 0
-640 -976 0
-641 -977 0
-642 -978 0
-640 -1213 0
-641 -1214 0
-642 -1215 0
-640 -1006 0
-641 -1007 0
-642 -1008 0
-640 -1165 0
-641 -1166 0
-642 -1167 0
-640 -1168 0
-641 -1169 0
-642 -1170 0
-640 -1171 0
-641 -1172 0
-642 -1173 0
-640 -1456 0
-641 -1457 0
-642 -1458 0
-640 -1102 0
-641 -1103 0
-642 -1104 0
-640 -841 0
-641 -842 0
-642 -843 0
-640 -1039 0
-641 -1040 0
-642 -1041 0
-640 -1189 0
-641 -1190 0
-642 -1191 0
-643 -811 0
-644 -812 0
-645 -813 0
-643 -784 0
-644 -785 0
-645 -786 0
-643 -649 0
-644 -650 0
-645 -651 0
-643 -718 0
-644 -719 0
-645 -720 0
-643 -721 0
-644 -722 0
-645 -723 0
-643 -805 0
-644 -806 0
-645 -807 0
-643 -751 0
-644 -752 0
-645 -753 0
-646 -1213 0
-647 -1214 0
-648 -1215 0
-646 -1015 0
-647 -1016 0
-648 -1017 0
-649 -1186 0
-650 -1187 0
-651 -1188 0
-649 -958 0
-650 -959 0
-651 -960 0
-652 -1447 0
-653 -1448 0
-654 -1449 0
-652 -1216 0
-653 -1217 0
-654 -1218 0
-652 -928 0
-653 -929 0
-654 -930 0
-652 -676 0
-653 -677 0
-654 -678 0
-652 -1417 0
-653 -1418 0
-654 -1419 0
-655 -661 0
-656 -662 0
-657 -663 0
-655 -670 0
-656 -671 0
-657 -672 0
-655 -685 0
-656 -686 0
-657 -687 0
-658 -664 0
-659 -665 0
-660 -666 0
-658 -1123 0
-659 -1124 0
-660 -1125 0
-658 -1033 0
-659 -1034 0
-660 -1035 0
-658 -1528 0
-659 -1529 0
-660 -1530 0
-658 -1510 0
-659 -1511 0
-660 -1512 0
-658 -1018 0
-659 -1019 0
-660 -1020 0
-661 -1039 0
-662 -1040 0
-663 -1041 0
-661 -970 0
-662 -971 0
-663 -972 0
-664 -796 0
-665 -797 0
-666 -798 0
-664 -673 0
-665 -674 0
-666 -675 0
-664 -775 0
-665 -776 0
-666 -777 0
-664 -688 0
-665 -689 0
-666 -690 0
-664 -781 0
-665 -782 0
-666 -783 0
-667 -1432 0
-668 -1433 0
-669 -1434 0
-667 -1135 0
-668 -1136 0
-669 -1137 0
-667 -1138 0
-668 -1139 0
-669 -1140 0
-667 -682 0
-668 -683 0
-669 -684 0
-667 -1393 0
-668 -1394 0
-669 -1395 0
-667 -865 0
-668 -866 0
-669 -867 0
-670 -1216 0
-671 -1217 0
-672 -1218 0
-670 -1420 0
-671 -1421 0
-672 -1422 0
-673 -1033 0
-674 -1034 0
-675 -1035 0
-673 -1417 0
-674 -1418 0
-675 -1419 0
-676 -679 0
-677 -680 0
-678 -681 0
-676 -691 0
-677 -692 0
-678 -693 0
-676 -697 0
-677 -698 0
-678 -699 0
-679 -916 0
-680 -917 0
-681 -918 0
-679 -898 0
-680 -899 0
-681 -900 0
-682 -748 0
-683 -749 0
-684 -750 0
-682 -694 0
-683 -695 0
-684 -696 0
-685 -1135 0
-686 -1136 0
-687 -1137 0
-685 -970 0
-686 -971 0
-687 -972 0
-688 -883 0
-689 -884 0
-690 -885 0
-688 -1138 0
-689 -1139 0
-690 -1140 0
-688 -1354 0
-689 -1355 0
-690 -1356 0
-691 -1306 0
-692 -1307 0
-693 -1308 0
-691 -1318 0
-692 -1319 0
-693 -1320 0
-691 -1111 0
-692 -1112 0
-693 -1113 0
-691 -898 0
-692 -899 0
-693 -900 0
-694 -1582 0
-695 -1583 0
-696 -1584 0
-694 -1588 0
-695 -1589 0
-696 -1590 0
-694 -1423 0
-695 -1424 0
-696 -1425 0
-697 -1591 0
-698 -1592 0
-699 -1593 0
-697 -1423 0
-698 -1424 0
-699 -1425 0
-697 -1357 0
-698 -1358 0
-699 -1359 0
-700 -703 0
-701 -704 0
-702 -705 0
-700 -919 0
-701 -920 0
-702 -921 0
-700 -871 0
-701 -872 0
-702 -873 0
-703 -799 0
-704 -800 0
-705 -801 0
-706 -1288 0
-707 -1289 0
-708 -1290 0
-706 -1093 0
-707 -1094 0
-708 -1095 0
-709 -763 0
-710 -764 0
-711 -765 0
-712 -757 0
-713 -758 0
-714 -759 0
-712 -817 0
-713 -818 0
-714 -819 0
-715 -922 0
-716 -923 0
-717 -924 0
-715 -817 0
-716 -818 0
-717 -819 0
-718 -1558 0
-719 -1559 0
-720 -1560 0
-721 -1561 0
-722 -1562 0
-723 -1563 0
-724 -1597 0
-725 -1598 0
-726 -1599 0
-724 -742 0
-725 -743 0
-726 -744 0
-727 -1372 0
-728 -1373 0
-729 -1374 0
-727 -733 0
-728 -734 0
-729 -735 0
-727 -1246 0
-728 -1247 0
-729 -1248 0
-730 -880 0
-731 -881 0
-732 -882 0
-730 -934 0
-731 -935 0
-732 -936 0
-730 -1054 0
-731 -1055 0
-732 -1056 0
-730 -733 0
-731 -734 0
-732 -735 0
-733 -808 0
-734 -809 0
-735 -810 0
-733 -739 0
-734 -740 0
-735 -741 0
-733 -805 0
-734 -806 0
-735 -807 0
-736 -874 0
-737 -875 0
-738 -876 0
-736 -1318 0
-737 -1319 0
-738 -1320 0
-736 -913 0
-737 -914 0
-738 -915 0
-736 -742 0
-737 -743 0
-738 -744 0
-739 -1525 0
-740 -1526 0
-741 -1527 0
-739 -1507 0
-740 -1508 0
-741 -1509 0
-742 -808 0
-743 -809 0
-744 -810 0
-742 -787 0
-743 -788 0
-744 -789 0
-742 -793 0
-743 -794 0
-744 -795 0
-742 -760 0
-743 -761 0
-744 -762 0
-742 -745 0
-743 -746 0
-744 -747 0
-742 -802 0
-743 -803 0
-744 -804 0
-745 -1597 0
-746 -1598 0
-747 -1599 0
-745 -877 0
-746 -878 0
-747 -879 0
-745 -1231 0
-746 -1232 0
-747 -1233 0
-745 -1117 0
-746 -1118 0
-747 -1119 0
-745 -1456 0
-746 -1457 0
-747 -1458 0
-745 -1477 0
-746 -1478 0
-747 -1479 0
-748 -1390 0
-749 -1391 0
-750 -1392 0
-748 -1423 0
-749 -1424 0
-750 -1425 0
-751 -1282 0
-752 -1283 0
-753 -1284 0
-751 -907 0
-752 -908 0
-753 -909 0
-760 -1021 0
-761 -1022 0
-762 -1023 0
-760 -922 0
-761 -923 0
-762 -924 0
-763 -1324 0
-764 -1325 0
-765 -1326 0
-763 -1351 0
-764 -1352 0
-765 -1353 0
-766 -811 0
-767 -812 0
-768 -813 0
-766 -814 0
-767 -815 0
-768 -816 0
-769 -928 0
-770 -929 0
-771 -930 0
-769 -925 0
-770 -926 0
-771 -927 0
-772 -1432 0
-773 -1433 0
-774 -1434 0
-772 -1450 0
-773 -1451 0
-774 -1452 0
-772 -1453 0
-773 -1454 0
-774 -1455 0
-775 -1450 0
-776 -1451 0
-777 -1452 0
-778 -1480 0
-779 -1481 0
-780 -1482 0
-778 -937 0
-779 -938 0
-780 -939 0
-778 -1402 0
-779 -1403 0
-780 -1404 0
-778 -1504 0
-779 -1505 0
-780 -1506 0
-781 -1024 0
-782 -1025 0
-783 -1026 0
-781 -1483 0
-782 -1484 0
-783 -1485 0
-781 -910 0
-782 -911 0
-783 -912 0
-784 -1291 0
-785 -1292 0
-786 -1293 0
-787 -913 0
-788 -914 0
-789 -915 0
-790 -1219 0
-791 -1220 0
-792 -1221 0
-790 -1255 0
-791 -1256 0
-792 -1257 0
-790 -901 0
-791 -902 0
-792 -903 0
-790 -913 0
-791 -914 0
-792 -915 0
-793 -967 0
-794 -968 0
-795 -969 0
-793 -937 0
-794 -938 0
-795 -939 0
-796 -1378 0
-797 -1379 0
-798 -1380 0
-799 -1399 0
-800 -1400 0
-801 -1401 0
-799 -1030 0
-800 -1031 0
-801 -1032 0
-799 -886 0
-800 -887 0
-801 -888 0
-799 -919 0
-800 -920 0
-801 -921 0
-799 -1378 0
-800 -1379 0
-801 -1380 0
-802 -973 0
-803 -974 0
-804 -975 0
-802 -1126 0
-803 -1127 0
-804 -1128 0
-802 -1204 0
-803 -1205 0
-804 -1206 0
-802 -1141 0
-803 -1142 0
-804 -1143 0
-802 -1300 0
-803 -1301 0
-804 -1302 0
-802 -1456 0
-803 -1457 0
-804 -1458 0
-802 -889 0
-803 -890 0
-804 -891 0
-805 -934 0
-806 -935 0
-807 -936 0
-805 -1297 0
-806 -1298 0
-807 -1299 0
-805 -1498 0
-806 -1499 0
-807 -1500 0
-808 -1501 0
-809 -1502 0
-810 -1503 0
-808 -922 0
-809 -923 0
-810 -924 0
-808 -1327 0
-809 -1328 0
-810 -1329 0
-808 -817 0
-809 -818 0
-810 -819 0
-811 -1540 0
-812 -1541 0
-813 -1542 0
-811 -910 0
-812 -911 0
-813 -912 0
-814 -976 0
-815 -977 0
-816 -978 0
-814 -979 0
-815 -980 0
-816 -981 0
-814 -931 0
-815 -932 0
-816 -933 0
-814 -934 0
-815 -935 0
-816 -936 0
-814 -1456 0
-815 -1457 0
-816 -1458 0
-817 -1348 0
-818 -1349 0
-819 -1350 0
-817 -1423 0
-818 -1424 0
-819 -1425 0
-817 -1387 0
-818 -1388 0
-819 -1389 0
-826 -1036 0
-827 -1037 0
-828 -1038 0
-829 -946 0
-830 -947 0
-831 -948 0
-829 -1183 0
-830 -1184 0
-831 -1185 0
-835 -1057 0
-836 -1058 0
-837 -1059 0
-838 -964 0
-839 -965 0
-840 -966 0
-838 -994 0
-839 -995 0
-840 -996 0
-838 -949 0
-839 -950 0
-840 -951 0
-844 -1198 0
-845 -1199 0
-846 -1200 0
-847 -1546 0
-848 -1547 0
-849 -1548 0
-856 -1252 0
-857 -1253 0
-858 -1254 0
-856 -982 0
-857 -983 0
-858 -984 0
-856 -988 0
-857 -989 0
-858 -990 0
-856 -1468 0
-857 -1469 0
-858 -1470 0
-859 -1048 0
-860 -1049 0
-861 -1050 0
-859 -943 0
-860 -944 0
-861 -945 0
-868 -1426 0
-869 -1427 0
-870 -1428 0
-877 -1009 0
-878 -1010 0
-879 -1011 0
-877 -1033 0
-878 -1034 0
-879 -1035 0
-877 -1003 0
-878 -1004 0
-879 -1005 0
-877 -1018 0
-878 -1019 0
-879 -1020 0
-880 -1006 0
-881 -1007 0
-882 -1008 0
-880 -970 0
-881 -971 0
-882 -972 0
-883 -973 0
-884 -974 0
-885 -975 0
-883 -1438 0
-884 -1439 0
-885 -1440 0
-883 -1141 0
-884 -1142 0
-885 -1143 0
-883 -1429 0
-884 -1430 0
-885 -1431 0
-892 -952 0
-893 -953 0
-894 -954 0
-895 -1279 0
-896 -1280 0
-897 -1281 0
-895 -1405 0
-896 -1406 0
-897 -1407 0
-895 -1291 0
-896 -1292 0
-897 -1293 0
-898 -1354 0
-899 -1355 0
-900 -1356 0
-898 -958 0
-899 -959 0
-900 -960 0
-907 -961 0
-908 -962 0
-909 -963 0
-907 -955 0
-908 -956 0
-909 -957 0
-910 -967 0
-911 -968 0
-912 -969 0
-910 -937 0
-911 -938 0
-912 -939 0
-916 -1210 0
-917 -1211 0
-918 -1212 0
-916 -1198 0
-917 -1199 0
-918 -1200 0
-919 -1480 0
-920 -1481 0
-921 -1482 0
-919 -937 0
-920 -938 0
-921 -939 0
-922 -1210 0
-923 -1211 0
-924 -1212 0
-925 -1429 0
-926 -1430 0
-927 -1431 0
-928 -1294 0
-929 -1295 0
-930 -1296 0
-928 -1429 0
-929 -1430 0
-930 -1431 0
-931 -1237 0
-932 -1238 0
-933 -1239 0
-934 -1564 0
-935 -1565 0
-936 -1566 0
-937 -1378 0
-938 -1379 0
-939 -1380 0
-940 -991 0
-941 -992 0
-942 -993 0
-940 -1387 0
-941 -1388 0
-942 -1389 0
-943 -1093 0
-944 -1094 0
-945 -1095 0
-946 -1315 0
-947 -1316 0
-948 -1317 0
-946 -1237 0
-947 -1238 0
-948 -1239 0
-946 -1195 0
-947 -1196 0
-948 -1197 0
-949 -1021 0
-950 -1022 0
-951 -1023 0
-949 -985 0
-950 -986 0
-951 -987 0
-949 -997 0
-950 -998 0
-951 -999 0
-952 -1252 0
-953 -1253 0
-954 -1254 0
-952 -1222 0
-953 -1223 0
-954 -1224 0
-952 -988 0
-953 -989 0
-954 -990 0
-955 -1282 0
-956 -1283 0
-957 -1284 0
-958 -1111 0
-959 -1112 0
-960 -1113 0
-961 -1153 0
-962 -1154 0
-963 -1155 0
-961 -1348 0
-962 -1349 0
-963 -1350 0
-964 -1213 0
-965 -1214 0
-966 -1215 0
-964 -973 0
-965 -974 0
-966 -975 0
-964 -1438 0
-965 -1439 0
-966 -1440 0
-964 -1015 0
-965 -1016 0
-966 -1017 0
-967 -1024 0
-968 -1025 0
-969 -1026 0
-970 -1306 0
-971 -1307 0
-972 -1308 0
-970 -1012 0
-971 -1013 0
-972 -1014 0
-973 -1105 0
-974 -1106 0
-975 -1107 0
-976 -1534 0
-977 -1535 0
-978 -1536 0
-976 -1027 0
-977 -1028 0
-978 -1029 0
-976 -1402 0
-977 -1403 0
-978 -1404 0
-979 -1534 0
-980 -1535 0
-981 -1536 0
-982 -1087 0
-983 -1088 0
-984 -1089 0
-982 -1096 0
-983 -1097 0
-984 -1098 0
-985 -1069 0
-986 -1070 0
-987 -1071 0
-985 -1198 0
-986 -1199 0
-987 -1200 0
-985 -1063 0
-986 -1064 0
-987 -1065 0
-985 -1078 0
-986 -1079 0
-987 -1080 0
-991 -1042 0
-992 -1043 0
-993 -1044 0
-991 -1174 0
-992 -1175 0
-993 -1176 0
-994 -1066 0
-995 -1067 0
-996 -1068 0
-994 -1072 0
-995 -1073 0
-996 -1074 0
-997 -1051 0
-998 -1052 0
-999 -1053 0
-997 -1060 0
-998 -1061 0
-999 -1062 0
-997 -1183 0
-998 -1184 0
-999 -1185 0
-1000 -1036 0
-1001 -1037 0
-1002 -1038 0
-1000 -1057 0
-1001 -1058 0
-1002 -1059 0
-1003 -1117 0
-1004 -1118 0
-1005 -1119 0
-1006 -1054 0
-1007 -1055 0
-1008 -1056 0
-1006 -1237 0
-1007 -1238 0
-1008 -1239 0
-1006 -1081 0
-1007 -1082 0
-1008 -1083 0
-1006 -1084 0
-1007 -1085 0
-1008 -1086 0
-1009 -1231 0
-1010 -1232 0
-1011 -1233 0
-1012 -1135 0
-1013 -1136 0
-1014 -1137 0
-1015 -1063 0
-1016 -1064 0
-1017 -1065 0
-1018 -1579 0
-1019 -1580 0
-1020 -1581 0
-1018 -1597 0
-1019 -1598 0
-1020 -1599 0
-1021 -1210 0
-1022 -1211 0
-1023 -1212 0
-1021 -1198 0
-1022 -1199 0
-1023 -1200 0
-1024 -1114 0
-1025 -1115 0
-1026 -1116 0
-1027 -1102 0
-1028 -1103 0
-1029 -1104 0
-1027 -1369 0
-1028 -1370 0
-1029 -1371 0
-1030 -1090 0
-1031 -1091 0
-1032 -1092 0
-1033 -1132 0
-1034 -1133 0
-1035 -1134 0
-1033 -1159 0
-1034 -1160 0
-1035 -1161 0
-1036 -1129 0
-1037 -1130 0
-1038 -1131 0
-1036 -1153 0
-1037 -1154 0
-1038 -1155 0
-1036 -1534 0
-1037 -1535 0
-1038 -1536 0
-1036 -1348 0
-1037 -1349 0
-1038 -1350 0
-1039 -1138 0
-1040 -1139 0
-1041 -1140 0
-1039 -1375 0
-1040 -1376 0
-1041 -1377 0
-1039 -1177 0
-1040 -1178 0
-1041 -1179 0
-1039 -1564 0
-1040 -1565 0
-1041 -1566 0
-1042 -1225 0
-1043 -1226 0
-1044 -1227 0
-1042 -1144 0
-1043 -1145 0
-1044 -1146 0
-1042 -1414 0
-1043 -1415 0
-1044 -1416 0
-1042 -1387 0
-1043 -1388 0
-1044 -1389 0
-1042 -1276 0
-1043 -1277 0
-1044 -1278 0
-1045 -1348 0
-1046 -1349 0
-1047 -1350 0
-1045 -1387 0
-1046 -1388 0
-1047 -1389 0
-1048 -1375 0
-1049 -1376 0
-1050 -1377 0
-1048 -1228 0
-1049 -1229 0
-1050 -1230 0
-1048 -1234 0
-1049 -1235 0
-1050 -1236 0
-1048 -1258 0
-1049 -1259 0
-1050 -1260 0
-1048 -1261 0
-1049 -1262 0
-1050 -1263 0
-1051 -1264 0
-1052 -1265 0
-1053 -1266 0
-1051 -1237 0
-1052 -1238 0
-1053 -1239 0
-1051 -1288 0
-1052 -1289 0
-1053 -1290 0
-1054 -1156 0
-1055 -1157 0
-1056 -1158 0
-1054 -1192 0
-1055 -1193 0
-1056 -1194 0
-1054 -1171 0
-1055 -1172 0
-1056 -1173 0
-1057 -1144 0
-1058 -1145 0
-1059 -1146 0
-1060 -1363 0
-1061 -1364 0
-1062 -1365 0
-1063 -1171 0
-1064 -1172 0
-1065 -1173 0
-1066 -1069 0
-1067 -1070 0
-1068 -1071 0
-1069 -1156 0
-1070 -1157 0
-1071 -1158 0
-1075 -1471 0
-1076 -1472 0
-1077 -1473 0
-1075 -1369 0
-1076 -1370 0
-1077 -1371 0
-1078 -1309 0
-1079 -1310 0
-1080 -1311 0
-1078 -1159 0
-1079 -1160 0
-1080 -1161 0
-1081 -1165 0
-1082 -1166 0
-1083 -1167 0
-1084 -1168 0
-1085 -1169 0
-1086 -1170 0
-1087 -1612 0
-1088 -1613 0
-1089 -1614 0
-1087 -1555 0
-1088 -1556 0
-1089 -1557 0
-1090 -1399 0
-1091 -1400 0
-1092 -1401 0
-1093 -1219 0
-1094 -1220 0
-1095 -1221 0
-1093 -1531 0
-1094 -1532 0
-1095 -1533 0
-1093 -1147 0
-1094 -1148 0
-1095 -1149 0
-1096 -1510 0
-1097 -1511 0
-1098 -1512 0
-1099 -1330 0
-1100 -1331 0
-1101 -1332 0
-1105 -1126 0
-1106 -1127 0
-1107 -1128 0
-1105 -1495 0
-1106 -1496 0
-1107 -1497 0
-1108 -1213 0
-1109 -1214 0
-1110 -1215 0
-1111 -1123 0
-1112 -1124 0
-1113 -1125 0
-1114 -1390 0
-1115 -1391 0
-1116 -1392 0
-1114 -1423 0
-1115 -1424 0
-1116 -1425 0
-1114 -1150 0
-1115 -1151 0
-1116 -1152 0
-1117 -1396 0
-1118 -1397 0
-1119 -1398 0
-1120 -1180 0
-1121 -1181 0
-1122 -1182 0
-1120 -1150 0
-1121 -1151 0
-1122 -1152 0
-1123 -1216 0
-1124 -1217 0
-1125 -1218 0
-1123 -1564 0
-1124 -1565 0
-1125 -1566 0
-1123 -1267 0
-1124 -1268 0
-1125 -1269 0
-1126 -1255 0
-1127 -1256 0
-1128 -1257 0
-1126 -1237 0
-1127 -1238 0
-1128 -1239 0
-1126 -1240 0
-1127 -1241 0
-1128 -1242 0
-1126 -1441 0
-1127 -1442 0
-1128 -1443 0
-1129 -1609 0
-1130 -1610 0
-1131 -1611 0
-1129 -1471 0
-1130 -1472 0
-1131 -1473 0
-1129 -1606 0
-1130 -1607 0
-1131 -1608 0
-1129 -1486 0
-1130 -1487 0
-1131 -1488 0
-1132 -1510 0
-1133 -1511 0
-1134 -1512 0
-1135 -1372 0
-1136 -1373 0
-1137 -1374 0
-1135 -1294 0
-1136 -1295 0
-1137 -1296 0
-1138 -1252 0
-1139 -1253 0
-1140 -1254 0
-1138 -1213 0
-1139 -1214 0
-1140 -1215 0
-1138 -1270 0
-1139 -1271 0
-1140 -1272 0
-1138 -1222 0
-1139 -1223 0
-1140 -1224 0
-1138 -1438 0
-1139 -1439 0
-1140 -1440 0
-1141 -1312 0
-1142 -1313 0
-1143 -1314 0
-1141 -1564 0
-1142 -1565 0
-1143 -1566 0
-1141 -1162 0
-1142 -1163 0
-1143 -1164 0
-1144 -1462 0
-1145 -1463 0
-1146 -1464 0
-1147 -1381 0
-1148 -1382 0
-1149 -1383 0
-1150 -1459 0
-1151 -1460 0
-1152 -1461 0
-1159 -1417 0
-1160 -1418 0
-1161 -1419 0
-1159 -1198 0
-1160 -1199 0
-1161 -1200 0
-1162 -1204 0
-1163 -1205 0
-1164 -1206 0
-1162 -1243 0
-1163 -1244 0
-1164 -1245 0
-1162 -1246 0
-1163 -1247 0
-1164 -1248 0
-1165 -1249 0
-1166 -1250 0
-1167 -1251 0
-1168 -1375 0
-1169 -1376 0
-1170 -1377 0
-1168 -1234 0
-1169 -1235 0
-1170 -1236 0
-1174 -1375 0
-1175 -1376 0
-1176 -1377 0
-1174 -1180 0
-1175 -1181 0
-1176 -1182 0
-1177 -1372 0
-1178 -1373 0
-1179 -1374 0
-1177 -1243 0
-1178 -1244 0
-1179 -1245 0
-1177 -1246 0
-1178 -1247 0
-1179 -1248 0
-1180 -1411 0
-1181 -1412 0
-1182 -1413 0
-1183 -1321 0
-1184 -1322 0
-1185 -1323 0
-1183 -1324 0
-1184 -1325 0
-1185 -1326 0
-1183 -1237 0
-1184 -1238 0
-1185 -1239 0
-1183 -1441 0
-1184 -1442 0
-1185 -1443 0
-1186 -1213 0
-1187 -1214 0
-1188 -1215 0
-1189 -1249 0
-1190 -1250 0
-1191 -1251 0
-1192 -1219 0
-1193 -1220 0
-1194 -1221 0
-1192 -1255 0
-1193 -1256 0
-1194 -1257 0
-1195 -1465 0
-1196 -1466 0
-1197 -1467 0
-1198 -1318 0
-1199 -1319 0
-1200 -1320 0
-1198 -1294 0
-1199 -1295 0
-1200 -1296 0
-1201 -1216 0
-1202 -1217 0
-1203 -1218 0
-1201 -1285 0
-1202 -1286 0
-1203 -1287 0
-1207 -1252 0
-1208 -1253 0
-1209 -1254 0
-1207 -1297 0
-1208 -1298 0
-1209 -1299 0
-1216 -1528 0
-1217 -1529 0
-1218 -1530 0
-1216 -1468 0
-1217 -1469 0
-1218 -1470 0
-1216 -1429 0
-1217 -1430 0
-1218 -1431 0
-1222 -1393 0
-1223 -1394 0
-1224 -1395 0
-1222 -1354 0
-1223 -1355 0
-1224 -1356 0
-1228 -1438 0
-1229 -1439 0
-1230 -1440 0
-1228 -1429 0
-1229 -1430 0
-1230 -1431 0
-1234 -1537 0
-1235 -1538 0
-1236 -1539 0
-1234 -1363 0
-1235 -1364 0
-1236 -1365 0
-1237 -1495 0
-1238 -1496 0
-1239 -1497 0
-1237 -1456 0
-1238 -1457 0
-1239 -1458 0
-1243 -1303 0
-1244 -1304 0
-1245 -1305 0
-1246 -1309 0
-1247 -1310 0
-1248 -1311 0
-1246 -1564 0
-1247 -1565 0
-1248 -1566 0
-1249 -1300 0
-1250 -1301 0
-1251 -1302 0
-1252 -1432 0
-1253 -1433 0
-1254 -1434 0
-1252 -1453 0
-1253 -1454 0
-1254 -1455 0
-1252 -1345 0
-1253 -1346 0
-1254 -1347 0
-1252 -1420 0
-1253 -1421 0
-1254 -1422 0
-1258 -1366 0
-1259 -1367 0
-1260 -1368 0
-1261 -1573 0
-1262 -1574 0
-1263 -1575 0
-1261 -1543 0
-1262 -1544 0
-1263 -1545 0
-1267 -1426 0
-1268 -1427 0
-1269 -1428 0
-1270 -1576 0
-1271 -1577 0
-1272 -1578 0
-1270 -1345 0
-1271 -1346 0
-1272 -1347 0
-1273 -1537 0
-1274 -1538 0
-1275 -1539 0
-1276 -1492 0
-1277 -1493 0
-1278 -1494 0
-1279 -1474 0
-1280 -1475 0
-1281 -1476 0
-1282 -1588 0
-1283 -1589 0
-1284 -1590 0
-1282 -1591 0
-1283 -1592 0
-1284 -1593 0
-1285 -1303 0
-1286 -1304 0
-1287 -1305 0
-1285 -1573 0
-1286 -1574 0
-1287 -1575 0
-1288 -1531 0
-1289 -1532 0
-1290 -1533 0
-1288 -1465 0
-1289 -1466 0
-1290 -1467 0
-1294 -1432 0
-1295 -1433 0
-1296 -1434 0
-1294 -1450 0
-1295 -1451 0
-1296 -1452 0
-1294 -1417 0
-1295 -1418 0
-1296 -1419 0
-1297 -1420 0
-1298 -1421 0
-1299 -1422 0
-1300 -1312 0
-1301 -1313 0
-1302 -1314 0
-1300 -1441 0
-1301 -1442 0
-1302 -1443 0
-1315 -1495 0
-1316 -1496 0
-1317 -1497 0
-1327 -1534 0
-1328 -1535 0
-1329 -1536 0
-1336 -1546 0
-1337 -1547 0
-1338 -1548 0
-1345 -1609 0
-1346 -1610 0
-1347 -1611 0
-1345 -1552 0
-1346 -1553 0
-1347 -1554 0
-1348 -1501 0
-1349 -1502 0
-1350 -1503 0
-1348 -1540 0
-1349 -1541 0
-1350 -1542 0
-1348 -1558 0
-1349 -1559 0
-1350 -1560 0
-1348 -1561 0
-1349 -1562 0
-1350 -1563 0
-1348 -1513 0
-1349 -1514 0
-1350 -1515 0
-1369 -1411 0
-1370 -1412 0
-1371 -1413 0
-1375 -1498 0
-1376 -1499 0
-1377 -1500 0
-1384 -1504 0
-1385 -1505 0
-1386 -1506 0
-1387 -1477 0
-1388 -1478 0
-1389 -1479 0
-1396 -1498 0
-1397 -1499 0
-1398 -1500 0
-1396 -1426 0
-1397 -1427 0
-1398 -1428 0
-1399 -1480 0
-1400 -1481 0
-1401 -1482 0
-1399 -1414 0
-1400 -1415 0
-1401 -1416 0
-1402 -1540 0
-1403 -1541 0
-1404 -1542 0
-1402 -1501 0
-1403 -1502 0
-1404 -1503 0
-1405 -1519 0
-1406 -1520 0
-1407 -1521 0
-1405 -1546 0
-1406 -1547 0
-1407 -1548 0
-1408 -1519 0
-1409 -1520 0
-1410 -1521 0
-1408 -1546 0
-1409 -1547 0
-1410 -1548 0
-1414 -1606 0
-1415 -1607 0
-1416 -1608 0
-1420 -1498 0
-1421 -1499 0
-1422 -1500 0
-1420 -1468 0
-1421 -1469 0
-1422 -1470 0
-1426 -1564 0
-1427 -1565 0
-1428 -1566 0
-1438 -1489 0
-1439 -1490 0
-1440 -1491 0
-1456 -1564 0
-1457 -1565 0
-1458 -1566 0
-1462 -1519 0
-1463 -1520 0
-1464 -1521 0
-1468 -1579 0
-1469 -1580 0
-1470 -1581 0
-1471 -1480 0
-1472 -1481 0
-1473 -1482 0
-1474 -1513 0
-1475 -1514 0
-1476 -1515 0
-1477 -1564 0
-1478 -1565 0
-1479 -1566 0
-1480 -1606 0
-1481 -1607 0
-1482 -1608 0
-1486 -1600 0
-1487 -1601 0
-1488 -1602 0
-1486 -1585 0
-1487 -1586 0
-1488 -1587 0
-1489 -1549 0
-1490 -1550 0
-1491 -1551 0
-1498 -1564 0
-1499 -1565 0
-1500 -1566 0
-1501 -1534 0
-1502 -1535 0
-1503 -1536 0
-1501 -1504 0
-1502 -1505 0
-1503 -1506 0
-1504 -1606 0
-1505 -1607 0
-1506 -1608 0
-1528 -1579 0
-1529 -1580 0
-1530 -1581 0
-1534 -1537 0
-1535 -1538 0
-1536 -1539 0
-1534 -1555 0
-1535 -1556 0
-1536 -1557 0
-1552 -1567 0
-1553 -1568 0
-1554 -1569 0
-1555 -1594 0
-1556 -1595 0
-1557 -1596 0
-1558 -1588 0
-1559 -1589 0
-1560 -1590 0
-1561 -1570 0
-1562 -1571 0
-1563 -1572 0
-1561 -1591 0
-1562 -1592 0
-1563 -1593 0
-1567 -1594 0
-1568 -1595 0
-1569 -1596 0
-1585 -1609 0
-1586 -1610 0
-1587 -1611 0
-1603 -1606 0
-1604 -1607 0
-1605 -1608 0
1 0
824 0
