p cnf 981 2660
1 2 3 0
4 5 6 0
7 8 9 0
10 11 12 0
13 14 15 0
16 17 18 0
19 20 21 0
22 23 24 0
25 26 27 0
28 29 30 0
31 32 33 0
34 35 36 0
37 38 39 0
40 41 42 0
43 44 45 0
46 47 48 0
49 50 51 0
52 53 54 0
55 56 57 0
58 59 60 0
61 62 63 0
64 65 66 0
67 68 69 0
70 71 72 0
73 74 75 0
76 77 78 0
79 80 81 0
82 83 84 0
85 86 87 0
88 89 90 0
91 92 93 0
94 95 96 0
97 98 99 0
100 101 102 0
103 104 105 0
106 107 108 0
109 110 111 0
112 113 114 0
115 116 117 0
118 119 120 0
121 122 123 0
124 125 126 0
127 128 129 0
130 131 132 0
133 134 135 0
136 137 138 0
139 140 141 0
142 143 144 0
145 146 147 0
148 149 150 0
151 152 153 0
154 155 156 0
157 158 159 0
160 161 162 0
163 164 165 0
166 167 168 0
169 170 171 0
172 173 174 0
175 176 177 0
178 179 180 0
181 182 183 0
184 185 186 0
187 188 189 0
190 191 192 0
193 194 195 0
196 197 198 0
199 200 201 0
202 203 204 0
205 206 207 0
208 209 210 0
211 212 213 0
214 215 216 0
217 218 219 0
220 221 222 0
223 224 225 0
226 227 228 0
229 230 231 0
232 233 234 0
235 236 237 0
238 239 240 0
241 242 243 0
244 245 246 0
247 248 249 0
250 251 252 0
253 254 255 0
256 257 258 0
259 260 261 0
262 263 264 0
265 266 267 0
268 269 270 0
271 272 273 0
274 275 276 0
277 278 279 0
280 281 282 0
283 284 285 0
286 287 288 0
289 290 291 0
292 293 294 0
295 296 297 0
298 299 300 0
301 302 303 0
304 305 306 0
307 308 309 0
310 311 312 0
313 314 315 0
316 317 318 0
319 320 321 0
322 323 324 0
325 326 327 0
328 329 330 0
331 332 333 0
334 335 336 0
337 338 339 0
340 341 342 0
343 344 345 0
346 347 348 0
349 350 351 0
352 353 354 0
355 356 357 0
358 359 360 0
361 362 363 0
364 365 366 0
367 368 369 0
370 371 372 0
373 374 375 0
376 377 378 0
379 380 381 0
382 383 384 0
385 386 387 0
388 389 390 0
391 392 393 0
394 395 396 0
397 398 399 0
400 401 402 0
403 404 405 0
406 407 408 0
409 410 411 0
412 413 414 0
415 416 417 0
418 419 420 0
421 422 423 0
424 425 426 0
427 428 429 0
430 431 432 0
433 434 435 0
436 437 438 0
439 440 441 0
442 443 444 0
445 446 447 0
448 449 450 0
451 452 453 0
454 455 456 0
457 458 459 0
460 461 462 0
463 464 465 0
466 467 468 0
469 470 471 0
472 473 474 0
475 476 477 0
478 479 480 0
481 482 483 0
484 485 486 0
487 488 489 0
490 491 492 0
493 494 495 0
496 497 498 0
499 500 501 0
502 503 504 0
505 506 507 0
508 509 510 0
511 512 513 0
514 515 516 0
517 518 519 0
520 521 522 0
523 524 525 0
526 527 528 0
529 530 531 0
532 533 534 0
535 536 537 0
538 539 540 0
541 542 543 0
544 545 546 0
547 548 549 0
550 551 552 0
553 554 555 0
556 557 558 0
559 560 561 0
562 563 564 0
565 566 567 0
568 569 570 0
571 572 573 0
574 575 576 0
577 578 579 0
580 581 582 0
583 584 585 0
586 587 588 0
589 590 591 0
592 593 594 0
595 596 597 0
598 599 600 0
601 602 603 0
604 605 606 0
607 608 609 0
610 611 612 0
613 614 615 0
616 617 618 0
619 620 621 0
622 623 624 0
625 626 627 0
628 629 630 0
631 632 633 0
634 635 636 0
637 638 639 0
640 641 642 0
643 644 645 0
646 647 648 0
649 650 651 0
652 653 654 0
655 656 657 0
658 659 660 0
661 662 663 0
664 665 666 0
667 668 669 0
670 671 672 0
673 674 675 0
676 677 678 0
679 680 681 0
682 683 684 0
685 686 687 0
688 689 690 0
691 692 693 0
694 695 696 0
697 698 699 0
700 701 702 0
703 704 705 0
706 707 708 0
709 710 711 0
712 713 714 0
715 716 717 0
718 719 720 0
721 722 723 0
724 725 726 0
727 728 729 0
730 731 732 0
733 734 735 0
736 737 738 0
739 740 741 0
742 743 744 0
745 746 747 0
748 749 750 0
751 752 753 0
754 755 756 0
757 758 759 0
760 761 762 0
763 764 765 0
766 767 768 0
769 770 771 0
772 773 774 0
775 776 777 0
778 779 780 0
781 782 783 0
784 785 786 0
787 788 789 0
790 791 792 0
793 794 795 0
796 797 798 0
799 800 801 0
802 803 804 0
805 806 807 0
808 809 810 0
811 812 813 0
814 815 816 0
817 818 819 0
820 821 822 0
823 824 825 0
826 827 828 0
829 830 831 0
832 833 834 0
835 836 837 0
838 839 840 0
841 842 843 0
844 845 846 0
847 848 849 0
850 851 852 0
853 854 855 0
856 857 858 0
859 860 861 0
862 863 864 0
865 866 867 0
868 869 870 0
871 872 873 0
874 875 876 0
877 878 879 0
880 881 882 0
883 884 885 0
886 887 888 0
889 890 891 0
892 893 894 0
895 896 897 0
898 899 900 0
901 902 903 0
904 905 906 0
907 908 909 0
910 911 912 0
913 914 915 0
916 917 918 0
919 920 921 0
922 923 924 0
925 926 927 0
928 929 930 0
931 932 933 0
934 935 936 0
937 938 939 0
940 941 942 0
943 944 945 0
946 947 948 0
949 950 951 0
952 953 954 0
955 956 957 0
958 959 960 0
961 962 963 0
964 965 966 0
967 968 969 0
970 971 972 0
973 974 975 0
976 977 978 0
979 980 981 0
-1 -775 0
-2 -776 0
-3 -777 0
-1 -778 0
-2 -779 0
-3 -780 0
-1 -49 0
-2 -50 0
-3 -51 0
-1 -841 0
-2 -842 0
-3 -843 0
-1 -871 0
-2 -872 0
-3 -873 0
-4 -775 0
-5 -776 0
-6 -777 0
-4 -571 0
-5 -572 0
-6 -573 0
-4 -946 0
-5 -947 0
-6 -948 0
-4 -88 0
-5 -89 0
-6 -90 0
-4 -856 0
-5 -857 0
-6 -858 0
-7 -64 0
-8 -65 0
-9 -66 0
-7 -145 0
-8 -146 0
-9 -147 0
-7 -673 0
-8 -674 0
-9 -675 0
-7 -949 0
-8 -950 0
-9 -951 0
-10 -778 0
-11 -779 0
-12 -780 0
-10 -106 0
-11 -107 0
-12 -108 0
-10 -601 0
-11 -602 0
-12 -603 0
-13 -100 0
-14 -101 0
-15 -102 0
-13 -775 0
-14 -776 0
-15 -777 0
-13 -700 0
-14 -701 0
-15 -702 0
-13 -598 0
-14 -599 0
-15 -600 0
-13 -145 0
-14 -146 0
-15 -147 0
-13 -859 0
-14 -860 0
-15 -861 0
-13 -934 0
-14 -935 0
-15 -936 0
-16 -790 0
-17 -791 0
-18 -792 0
-16 -64 0
-17 -65 0
-18 -66 0
-16 -562 0
-17 -563 0
-18 -564 0
-16 -832 0
-17 -833 0
-18 -834 0
-19 -658 0
-20 -659 0
-21 -660 0
-19 -661 0
-20 -662 0
-21 -663 0
-19 -865 0
-20 -866 0
-21 -867 0
-22 -100 0
-23 -101 0
-24 -102 0
-22 -217 0
-23 -218 0
-24 -219 0
-22 -922 0
-23 -923 0
-24 -924 0
-25 -841 0
-26 -842 0
-27 -843 0
-25 -154 0
-26 -155 0
-27 -156 0
-25 -157 0
-26 -158 0
-27 -159 0
-25 -961 0
-26 -962 0
-27 -963 0
-28 -901 0
-29 -902 0
-30 -903 0
-28 -784 0
-29 -785 0
-30 -786 0
-28 -91 0
-29 -92 0
-30 -93 0
-28 -949 0
-29 -950 0
-30 -951 0
-28 -940 0
-29 -941 0
-30 -942 0
-31 -784 0
-32 -785 0
-33 -786 0
-31 -169 0
-32 -170 0
-33 -171 0
-31 -157 0
-32 -158 0
-33 -159 0
-34 -868 0
-35 -869 0
-36 -870 0
-34 -199 0
-35 -200 0
-36 -201 0
-34 -157 0
-35 -158 0
-36 -159 0
-34 -874 0
-35 -875 0
-36 -876 0
-37 -571 0
-38 -572 0
-39 -573 0
-37 -127 0
-38 -128 0
-39 -129 0
-37 -217 0
-38 -218 0
-39 -219 0
-40 -751 0
-41 -752 0
-42 -753 0
-40 -958 0
-41 -959 0
-42 -960 0
-40 -49 0
-41 -50 0
-42 -51 0
-40 -361 0
-41 -362 0
-42 -363 0
-43 -571 0
-44 -572 0
-45 -573 0
-43 -715 0
-44 -716 0
-45 -717 0
-43 -154 0
-44 -155 0
-45 -156 0
-43 -217 0
-44 -218 0
-45 -219 0
-43 -880 0
-44 -881 0
-45 -882 0
-46 -364 0
-47 -365 0
-48 -366 0
-46 -694 0
-47 -695 0
-48 -696 0
-46 -577 0
-47 -578 0
-48 -579 0
-46 -49 0
-47 -50 0
-48 -51 0
-46 -886 0
-47 -887 0
-48 -888 0
-46 -562 0
-47 -563 0
-48 -564 0
-49 -277 0
-50 -278 0
-51 -279 0
-49 -298 0
-50 -299 0
-51 -300 0
-49 -148 0
-50 -149 0
-51 -150 0
-49 -160 0
-50 -161 0
-51 -162 0
-49 -70 0
-50 -71 0
-51 -72 0
-49 -73 0
-50 -74 0
-51 -75 0
-49 -367 0
-50 -368 0
-51 -369 0
-49 -76 0
-50 -77 0
-51 -78 0
-49 -52 0
-50 -53 0
-51 -54 0
-49 -220 0
-50 -221 0
-51 -222 0
-49 -94 0
-50 -95 0
-51 -96 0
-49 -232 0
-50 -233 0
-51 -234 0
-49 -235 0
-50 -236 0
-51 -237 0
-52 -955 0
-53 -956 0
-54 -957 0
-52 -916 0
-53 -917 0
-54 -918 0
-52 -664 0
-53 -665 0
-54 -666 0
-52 -727 0
-53 -728 0
-54 -729 0
-52 -940 0
-53 -941 0
-54 -942 0
-52 -370 0
-53 -371 0
-54 -372 0
-55 -223 0
-56 -224 0
-57 -225 0
-55 -841 0
-56 -842 0
-57 -843 0
-55 -154 0
-56 -155 0
-57 -156 0
-55 -607 0
-56 -608 0
-57 -609 0
-58 -223 0
-59 -224 0
-60 -225 0
-58 -841 0
-59 -842 0
-60 -843 0
-58 -157 0
-59 -158 0
-60 -159 0
-58 -739 0
-59 -740 0
-60 -741 0
-61 -565 0
-62 -566 0
-63 -567 0
-61 -157 0
-62 -158 0
-63 -159 0
-61 -238 0
-62 -239 0
-63 -240 0
-61 -910 0
-62 -911 0
-63 -912 0
-64 -310 0
-65 -311 0
-66 -312 0
-64 -67 0
-65 -68 0
-66 -69 0
-64 -367 0
-65 -368 0
-66 -369 0
-64 -166 0
-65 -167 0
-66 -168 0
-67 -370 0
-68 -371 0
-69 -372 0
-67 -832 0
-68 -833 0
-69 -834 0
-70 -574 0
-71 -575 0
-72 -576 0
-70 -733 0
-71 -734 0
-72 -735 0
-73 -730 0
-74 -731 0
-75 -732 0
-73 -379 0
-74 -380 0
-75 -381 0
-73 -877 0
-74 -878 0
-75 -879 0
-76 -655 0
-77 -656 0
-78 -657 0
-76 -664 0
-77 -665 0
-78 -666 0
-76 -388 0
-77 -389 0
-78 -390 0
-76 -913 0
-77 -914 0
-78 -915 0
-79 -784 0
-80 -785 0
-81 -786 0
-79 -919 0
-80 -920 0
-81 -921 0
-79 -895 0
-80 -896 0
-81 -897 0
-79 -586 0
-80 -587 0
-81 -588 0
-79 -358 0
-80 -359 0
-81 -360 0
-79 -91 0
-80 -92 0
-81 -93 0
-82 -787 0
-83 -788 0
-84 -789 0
-82 -793 0
-83 -794 0
-84 -795 0
-82 -907 0
-83 -908 0
-84 -909 0
-82 -286 0
-83 -287 0
-84 -288 0
-82 -115 0
-83 -116 0
-84 -117 0
-85 -364 0
-86 -365 0
-87 -366 0
-85 -973 0
-86 -974 0
-87 -975 0
-85 -88 0
-86 -89 0
-87 -90 0
-85 -856 0
-86 -857 0
-87 -858 0
-88 -367 0
-89 -368 0
-90 -369 0
-91 -268 0
-92 -269 0
-93 -270 0
-91 -190 0
-92 -191 0
-93 -192 0
-91 -367 0
-92 -368 0
-93 -369 0
-94 -844 0
-95 -845 0
-96 -846 0
-94 -883 0
-95 -884 0
-96 -885 0
-94 -418 0
-95 -419 0
-96 -420 0
-97 -796 0
-98 -797 0
-99 -798 0
-97 -322 0
-98 -323 0
-99 -324 0
-97 -115 0
-98 -116 0
-99 -117 0
-97 -862 0
-98 -863 0
-99 -864 0
-100 -250 0
-101 -251 0
-102 -252 0
-100 -181 0
-101 -182 0
-102 -183 0
-100 -292 0
-101 -293 0
-102 -294 0
-100 -367 0
-101 -368 0
-102 -369 0
-100 -229 0
-101 -230 0
-102 -231 0
-100 -103 0
-101 -104 0
-102 -105 0
-103 -790 0
-104 -791 0
-105 -792 0
-103 -916 0
-104 -917 0
-105 -918 0
-103 -859 0
-104 -860 0
-105 -861 0
-103 -370 0
-104 -371 0
-105 -372 0
-103 -562 0
-104 -563 0
-105 -564 0
-106 -289 0
-107 -290 0
-108 -291 0
-106 -367 0
-107 -368 0
-108 -369 0
-106 -112 0
-107 -113 0
-108 -114 0
-109 -352 0
-110 -353 0
-111 -354 0
-109 -793 0
-110 -794 0
-111 -795 0
-109 -796 0
-110 -797 0
-111 -798 0
-109 -115 0
-110 -116 0
-111 -117 0
-112 -676 0
-113 -677 0
-114 -678 0
-112 -970 0
-113 -971 0
-114 -972 0
-112 -403 0
-113 -404 0
-114 -405 0
-115 -349 0
-116 -350 0
-117 -351 0
-115 -367 0
-116 -368 0
-117 -369 0
-115 -274 0
-116 -275 0
-117 -276 0
-115 -124 0
-116 -125 0
-117 -126 0
-118 -679 0
-119 -680 0
-120 -681 0
-118 -835 0
-119 -836 0
-120 -837 0
-118 -352 0
-119 -353 0
-120 -354 0
-118 -127 0
-119 -128 0
-120 -129 0
-118 -814 0
-119 -815 0
-120 -816 0
-118 -817 0
-119 -818 0
-120 -819 0
-121 -325 0
-122 -326 0
-123 -327 0
-121 -145 0
-122 -146 0
-123 -147 0
-121 -583 0
-122 -584 0
-123 -585 0
-121 -817 0
-122 -818 0
-123 -819 0
-124 -820 0
-125 -821 0
-126 -822 0
-124 -655 0
-125 -656 0
-126 -657 0
-124 -799 0
-125 -800 0
-126 -801 0
-124 -910 0
-125 -911 0
-126 -912 0
-124 -388 0
-125 -389 0
-126 -390 0
-127 -334 0
-128 -335 0
-129 -336 0
-127 -163 0
-128 -164 0
-129 -165 0
-127 -367 0
-128 -368 0
-129 -369 0
-127 -394 0
-128 -395 0
-129 -396 0
-127 -328 0
-128 -329 0
-129 -330 0
-127 -196 0
-128 -197 0
-129 -198 0
-130 -745 0
-131 -746 0
-132 -747 0
-130 -217 0
-131 -218 0
-132 -219 0
-130 -286 0
-131 -287 0
-132 -288 0
-130 -805 0
-131 -806 0
-132 -807 0
-133 -565 0
-134 -566 0
-135 -567 0
-133 -286 0
-134 -287 0
-135 -288 0
-133 -808 0
-134 -809 0
-135 -810 0
-133 -247 0
-134 -248 0
-135 -249 0
-136 -901 0
-137 -902 0
-138 -903 0
-136 -565 0
-137 -566 0
-138 -567 0
-136 -352 0
-137 -353 0
-138 -354 0
-136 -784 0
-137 -785 0
-138 -786 0
-136 -157 0
-137 -158 0
-138 -159 0
-136 -808 0
-137 -809 0
-138 -810 0
-139 -868 0
-140 -869 0
-141 -870 0
-139 -838 0
-140 -839 0
-141 -840 0
-139 -322 0
-140 -323 0
-141 -324 0
-139 -580 0
-140 -581 0
-141 -582 0
-139 -802 0
-140 -803 0
-141 -804 0
-139 -862 0
-140 -863 0
-141 -864 0
-139 -199 0
-140 -200 0
-141 -201 0
-142 -364 0
-143 -365 0
-144 -366 0
-142 -775 0
-143 -776 0
-144 -777 0
-142 -871 0
-143 -872 0
-144 -873 0
-142 -145 0
-143 -146 0
-144 -147 0
-142 -562 0
-143 -563 0
-144 -564 0
-145 -271 0
-146 -272 0
-147 -273 0
-145 -367 0
-146 -368 0
-147 -369 0
-145 -475 0
-146 -476 0
-147 -477 0
-145 -439 0
-146 -440 0
-147 -441 0
-145 -295 0
-146 -296 0
-147 -297 0
-148 -769 0
-149 -770 0
-150 -771 0
-148 -886 0
-149 -887 0
-150 -888 0
-148 -730 0
-149 -731 0
-150 -732 0
-148 -481 0
-149 -482 0
-150 -483 0
-151 -364 0
-152 -365 0
-153 -366 0
-151 -154 0
-152 -155 0
-153 -156 0
-151 -880 0
-152 -881 0
-153 -882 0
-151 -937 0
-152 -938 0
-153 -939 0
-154 -301 0
-155 -302 0
-156 -303 0
-154 -367 0
-155 -368 0
-156 -369 0
-154 -409 0
-155 -410 0
-156 -411 0
-154 -454 0
-155 -455 0
-156 -456 0
-157 -175 0
-158 -176 0
-159 -177 0
-157 -187 0
-158 -188 0
-159 -189 0
-157 -367 0
-158 -368 0
-159 -369 0
-160 -841 0
-161 -842 0
-162 -843 0
-160 -484 0
-161 -485 0
-162 -486 0
-160 -727 0
-161 -728 0
-162 -729 0
-160 -721 0
-161 -722 0
-162 -723 0
-160 -739 0
-161 -740 0
-162 -741 0
-163 -835 0
-164 -836 0
-165 -837 0
-163 -574 0
-164 -575 0
-165 -576 0
-163 -709 0
-164 -710 0
-165 -711 0
-166 -955 0
-167 -956 0
-168 -957 0
-166 -940 0
-167 -941 0
-168 -942 0
-169 -172 0
-170 -173 0
-171 -174 0
-169 -313 0
-170 -314 0
-171 -315 0
-169 -367 0
-170 -368 0
-171 -369 0
-172 -370 0
-173 -371 0
-174 -372 0
-172 -754 0
-173 -755 0
-174 -756 0
-175 -901 0
-176 -902 0
-177 -903 0
-175 -574 0
-176 -575 0
-177 -576 0
-178 -223 0
-179 -224 0
-180 -225 0
-178 -886 0
-179 -887 0
-180 -888 0
-178 -730 0
-179 -731 0
-180 -732 0
-178 -316 0
-179 -317 0
-180 -318 0
-181 -682 0
-182 -683 0
-183 -684 0
-181 -442 0
-182 -443 0
-183 -444 0
-181 -604 0
-182 -605 0
-183 -606 0
-181 -607 0
-182 -608 0
-183 -609 0
-184 -904 0
-185 -905 0
-186 -906 0
-184 -895 0
-185 -896 0
-186 -897 0
-184 -670 0
-185 -671 0
-186 -672 0
-184 -586 0
-185 -587 0
-186 -588 0
-184 -247 0
-185 -248 0
-186 -249 0
-187 -568 0
-188 -569 0
-189 -570 0
-187 -388 0
-188 -389 0
-189 -390 0
-187 -619 0
-188 -620 0
-189 -621 0
-190 -904 0
-191 -905 0
-192 -906 0
-190 -463 0
-191 -464 0
-192 -465 0
-190 -586 0
-191 -587 0
-192 -588 0
-193 -325 0
-194 -326 0
-195 -327 0
-193 -892 0
-194 -893 0
-195 -894 0
-193 -589 0
-194 -590 0
-195 -591 0
-193 -208 0
-194 -209 0
-195 -210 0
-196 -424 0
-197 -425 0
-198 -426 0
-196 -706 0
-197 -707 0
-198 -708 0
-196 -709 0
-197 -710 0
-198 -711 0
-199 -202 0
-200 -203 0
-201 -204 0
-199 -367 0
-200 -368 0
-201 -369 0
-202 -874 0
-203 -875 0
-204 -876 0
-202 -370 0
-203 -371 0
-204 -372 0
-205 -898 0
-206 -899 0
-207 -900 0
-205 -760 0
-206 -761 0
-207 -762 0
-205 -217 0
-206 -218 0
-207 -219 0
-205 -592 0
-206 -593 0
-207 -594 0
-205 -337 0
-206 -338 0
-207 -339 0
-208 -493 0
-209 -494 0
-210 -495 0
-208 -367 0
-209 -368 0
-210 -369 0
-211 -727 0
-212 -728 0
-213 -729 0
-211 -217 0
-212 -218 0
-213 -219 0
-211 -361 0
-212 -362 0
-213 -363 0
-214 -364 0
-215 -365 0
-216 -366 0
-214 -748 0
-215 -749 0
-216 -750 0
-214 -217 0
-215 -218 0
-216 -219 0
-214 -880 0
-215 -881 0
-216 -882 0
-214 -736 0
-215 -737 0
-216 -738 0
-217 -256 0
-218 -257 0
-219 -258 0
-217 -367 0
-218 -368 0
-219 -369 0
-220 -742 0
-221 -743 0
-222 -744 0
-220 -751 0
-221 -752 0
-222 -753 0
-220 -514 0
-221 -515 0
-222 -516 0
-220 -733 0
-221 -734 0
-222 -735 0
-220 -739 0
-221 -740 0
-222 -741 0
-223 -367 0
-224 -368 0
-225 -369 0
-223 -517 0
-224 -518 0
-225 -519 0
-223 -226 0
-224 -227 0
-225 -228 0
-226 -370 0
-227 -371 0
-228 -372 0
-226 -646 0
-227 -647 0
-228 -648 0
-226 -766 0
-227 -767 0
-228 -768 0
-226 -730 0
-227 -731 0
-228 -732 0
-226 -613 0
-227 -614 0
-228 -615 0
-226 -736 0
-227 -737 0
-228 -738 0
-229 -931 0
-230 -932 0
-231 -933 0
-229 -592 0
-230 -593 0
-231 -594 0
-229 -697 0
-230 -698 0
-231 -699 0
-229 -472 0
-230 -473 0
-231 -474 0
-232 -775 0
-233 -776 0
-234 -777 0
-232 -946 0
-233 -947 0
-234 -948 0
-235 -778 0
-236 -779 0
-237 -780 0
-235 -520 0
-236 -521 0
-237 -522 0
-238 -241 0
-239 -242 0
-240 -243 0
-238 -457 0
-239 -458 0
-240 -459 0
-238 -265 0
-239 -266 0
-240 -267 0
-238 -367 0
-239 -368 0
-240 -369 0
-241 -889 0
-242 -890 0
-243 -891 0
-241 -370 0
-242 -371 0
-243 -372 0
-244 -364 0
-245 -365 0
-246 -366 0
-244 -889 0
-245 -890 0
-246 -891 0
-244 -586 0
-245 -587 0
-246 -588 0
-244 -613 0
-245 -614 0
-246 -615 0
-244 -247 0
-245 -248 0
-246 -249 0
-244 -937 0
-245 -938 0
-246 -939 0
-247 -262 0
-248 -263 0
-249 -264 0
-247 -367 0
-248 -368 0
-249 -369 0
-247 -451 0
-248 -452 0
-249 -453 0
-247 -433 0
-248 -434 0
-249 -435 0
-247 -376 0
-248 -377 0
-249 -378 0
-247 -436 0
-248 -437 0
-249 -438 0
-250 -757 0
-251 -758 0
-252 -759 0
-250 -625 0
-251 -626 0
-252 -627 0
-250 -604 0
-251 -605 0
-252 -606 0
-250 -481 0
-251 -482 0
-252 -483 0
-250 -934 0
-251 -935 0
-252 -936 0
-250 -922 0
-251 -923 0
-252 -924 0
-253 -955 0
-254 -956 0
-255 -957 0
-253 -370 0
-254 -371 0
-255 -372 0
-253 -832 0
-254 -833 0
-255 -834 0
-256 -592 0
-257 -593 0
-258 -594 0
-256 -763 0
-257 -764 0
-258 -765 0
-256 -388 0
-257 -389 0
-258 -390 0
-259 -595 0
-260 -596 0
-261 -597 0
-259 -322 0
-260 -323 0
-261 -324 0
-259 -286 0
-260 -287 0
-261 -288 0
-262 -637 0
-263 -638 0
-264 -639 0
-262 -388 0
-263 -389 0
-264 -390 0
-262 -814 0
-263 -815 0
-264 -816 0
-265 -958 0
-266 -959 0
-267 -960 0
-265 -634 0
-266 -635 0
-267 -636 0
-265 -397 0
-266 -398 0
-267 -399 0
-265 -811 0
-266 -812 0
-267 -813 0
-268 -901 0
-269 -902 0
-270 -903 0
-268 -508 0
-269 -509 0
-270 -510 0
-271 -598 0
-272 -599 0
-273 -600 0
-271 -832 0
-272 -833 0
-273 -834 0
-274 -565 0
-275 -566 0
-276 -567 0
-274 -787 0
-275 -788 0
-276 -789 0
-274 -472 0
-275 -473 0
-276 -474 0
-274 -910 0
-275 -911 0
-276 -912 0
-277 -535 0
-278 -536 0
-279 -537 0
-277 -694 0
-278 -695 0
-279 -696 0
-277 -823 0
-278 -824 0
-279 -825 0
-277 -718 0
-278 -719 0
-279 -720 0
-277 -769 0
-278 -770 0
-279 -771 0
-277 -913 0
-278 -914 0
-279 -915 0
-277 -721 0
-278 -722 0
-279 -723 0
-280 -352 0
-281 -353 0
-282 -354 0
-280 -637 0
-281 -638 0
-282 -639 0
-280 -793 0
-281 -794 0
-282 -795 0
-280 -847 0
-281 -848 0
-282 -849 0
-280 -286 0
-281 -287 0
-282 -288 0
-280 -619 0
-281 -620 0
-282 -621 0
-283 -595 0
-284 -596 0
-285 -597 0
-283 -919 0
-284 -920 0
-285 -921 0
-283 -286 0
-284 -287 0
-285 -288 0
-283 -358 0
-284 -359 0
-285 -360 0
-286 -412 0
-287 -413 0
-288 -414 0
-286 -415 0
-287 -416 0
-288 -417 0
-286 -367 0
-287 -368 0
-288 -369 0
-286 -526 0
-287 -527 0
-288 -528 0
-289 -601 0
-290 -602 0
-291 -603 0
-289 -676 0
-290 -677 0
-291 -678 0
-292 -928 0
-293 -929 0
-294 -930 0
-292 -625 0
-293 -626 0
-294 -627 0
-292 -514 0
-293 -515 0
-294 -516 0
-292 -700 0
-293 -701 0
-294 -702 0
-295 -925 0
-296 -926 0
-297 -927 0
-295 -850 0
-296 -851 0
-297 -852 0
-295 -463 0
-296 -464 0
-297 -465 0
-298 -844 0
-299 -845 0
-300 -846 0
-298 -871 0
-299 -872 0
-300 -873 0
-298 -940 0
-299 -941 0
-300 -942 0
-301 -961 0
-302 -962 0
-303 -963 0
-301 -472 0
-302 -473 0
-303 -474 0
-301 -976 0
-302 -977 0
-303 -978 0
-304 -886 0
-305 -887 0
-306 -888 0
-304 -964 0
-305 -965 0
-306 -966 0
-304 -316 0
-305 -317 0
-306 -318 0
-304 -355 0
-305 -356 0
-306 -357 0
-307 -319 0
-308 -320 0
-309 -321 0
-307 -610 0
-308 -611 0
-309 -612 0
-307 -967 0
-308 -968 0
-309 -969 0
-307 -361 0
-308 -362 0
-309 -363 0
-307 -727 0
-308 -728 0
-309 -729 0
-310 -790 0
-311 -791 0
-312 -792 0
-310 -673 0
-311 -674 0
-312 -675 0
-313 -925 0
-314 -926 0
-315 -927 0
-313 -463 0
-314 -464 0
-315 -465 0
-316 -367 0
-317 -368 0
-318 -369 0
-319 -367 0
-320 -368 0
-321 -369 0
-319 -373 0
-320 -374 0
-321 -375 0
-322 -367 0
-323 -368 0
-324 -369 0
-325 -496 0
-326 -497 0
-327 -498 0
-325 -346 0
-326 -347 0
-327 -348 0
-325 -367 0
-326 -368 0
-327 -369 0
-328 -943 0
-329 -944 0
-330 -945 0
-328 -961 0
-329 -962 0
-330 -963 0
-328 -976 0
-329 -977 0
-330 -978 0
-328 -514 0
-329 -515 0
-330 -516 0
-331 -826 0
-332 -827 0
-333 -828 0
-331 -964 0
-332 -965 0
-333 -966 0
-331 -379 0
-332 -380 0
-333 -381 0
-331 -877 0
-332 -878 0
-333 -879 0
-334 -583 0
-335 -584 0
-336 -585 0
-334 -817 0
-335 -818 0
-336 -819 0
-337 -406 0
-338 -407 0
-339 -408 0
-337 -367 0
-338 -368 0
-339 -369 0
-340 -838 0
-341 -839 0
-342 -840 0
-340 -799 0
-341 -800 0
-342 -801 0
-340 -580 0
-341 -581 0
-342 -582 0
-340 -388 0
-341 -389 0
-342 -390 0
-343 -616 0
-344 -617 0
-345 -618 0
-343 -964 0
-344 -965 0
-345 -966 0
-343 -967 0
-344 -968 0
-345 -969 0
-343 -361 0
-344 -362 0
-345 -363 0
-343 -355 0
-344 -356 0
-345 -357 0
-346 -589 0
-347 -590 0
-348 -591 0
-346 -388 0
-347 -389 0
-348 -390 0
-346 -583 0
-347 -584 0
-348 -585 0
-349 -643 0
-350 -644 0
-351 -645 0
-349 -820 0
-350 -821 0
-351 -822 0
-349 -907 0
-350 -908 0
-351 -909 0
-352 -367 0
-353 -368 0
-354 -369 0
-352 -499 0
-353 -500 0
-354 -501 0
-352 -460 0
-353 -461 0
-354 -462 0
-355 -367 0
-356 -368 0
-357 -369 0
-355 -400 0
-356 -401 0
-357 -402 0
-358 -367 0
-359 -368 0
-360 -369 0
-361 -367 0
-362 -368 0
-363 -369 0
-364 -544 0
-365 -545 0
-366 -546 0
-364 -421 0
-365 -422 0
-366 -423 0
-364 -478 0
-365 -479 0
-366 -480 0
-364 -367 0
-365 -368 0
-366 -369 0
-364 -469 0
-365 -470 0
-366 -471 0
-367 -535 0
-368 -536 0
-369 -537 0
-367 -379 0
-368 -380 0
-369 -381 0
-367 -403 0
-368 -404 0
-369 -405 0
-367 -547 0
-368 -548 0
-369 -549 0
-367 -484 0
-368 -485 0
-369 -486 0
-367 -418 0
-368 -419 0
-369 -420 0
-367 -424 0
-368 -425 0
-369 -426 0
-367 -481 0
-368 -482 0
-369 -483 0
-367 -442 0
-368 -443 0
-369 -444 0
-367 -388 0
-368 -389 0
-369 -390 0
-367 -370 0
-368 -371 0
-369 -372 0
-367 -397 0
-368 -398 0
-369 -399 0
-367 -511 0
-368 -512 0
-369 -513 0
-367 -514 0
-368 -515 0
-369 -516 0
-367 -463 0
-368 -464 0
-369 -465 0
-367 -520 0
-368 -521 0
-369 -522 0
-367 -472 0
-368 -473 0
-369 -474 0
-367 -508 0
-368 -509 0
-369 -510 0
-370 -487 0
-371 -488 0
-372 -489 0
-370 -391 0
-371 -392 0
-372 -393 0
-370 -466 0
-371 -467 0
-372 -468 0
-373 -424 0
-374 -425 0
-375 -426 0
-373 -610 0
-374 -611 0
-375 -612 0
-373 -952 0
-374 -953 0
-375 -954 0
-373 -622 0
-374 -623 0
-375 -624 0
-376 -472 0
-377 -473 0
-378 -474 0
-376 -829 0
-377 -830 0
-378 -831 0
-376 -634 0
-377 -635 0
-378 -636 0
-376 -808 0
-377 -809 0
-378 -810 0
-376 -613 0
-377 -614 0
-378 -615 0
-379 -490 0
-380 -491 0
-381 -492 0
-379 -430 0
-380 -431 0
-381 -432 0
-382 -688 0
-383 -689 0
-384 -690 0
-382 -520 0
-383 -521 0
-384 -522 0
-382 -667 0
-383 -668 0
-384 -669 0
-385 -610 0
-386 -611 0
-387 -612 0
-385 -883 0
-386 -884 0
-387 -885 0
-385 -418 0
-386 -419 0
-387 -420 0
-388 -391 0
-389 -392 0
-390 -393 0
-388 -532 0
-389 -533 0
-390 -534 0
-391 -853 0
-392 -854 0
-393 -855 0
-391 -763 0
-392 -764 0
-393 -765 0
-391 -766 0
-392 -767 0
-393 -768 0
-391 -664 0
-392 -665 0
-393 -666 0
-394 -679 0
-395 -680 0
-396 -681 0
-394 -724 0
-395 -725 0
-396 -726 0
-394 -535 0
-395 -536 0
-396 -537 0
-394 -787 0
-395 -788 0
-396 -789 0
-394 -640 0
-395 -641 0
-396 -642 0
-397 -448 0
-398 -449 0
-399 -450 0
-400 -616 0
-401 -617 0
-402 -618 0
-400 -628 0
-401 -629 0
-402 -630 0
-403 -529 0
-404 -530 0
-405 -531 0
-406 -610 0
-407 -611 0
-408 -612 0
-406 -418 0
-407 -419 0
-408 -420 0
-406 -622 0
-407 -623 0
-408 -624 0
-409 -535 0
-410 -536 0
-411 -537 0
-409 -715 0
-410 -716 0
-411 -717 0
-409 -787 0
-410 -788 0
-411 -789 0
-409 -781 0
-410 -782 0
-411 -783 0
-409 -826 0
-410 -827 0
-411 -828 0
-409 -976 0
-410 -977 0
-411 -978 0
-409 -907 0
-410 -908 0
-411 -909 0
-412 -643 0
-413 -644 0
-414 -645 0
-412 -568 0
-413 -569 0
-414 -570 0
-412 -802 0
-413 -803 0
-414 -804 0
-412 -619 0
-413 -620 0
-414 -621 0
-412 -463 0
-413 -464 0
-414 -465 0
-415 -643 0
-416 -644 0
-417 -645 0
-415 -787 0
-416 -788 0
-417 -789 0
-415 -847 0
-416 -848 0
-417 -849 0
-415 -472 0
-416 -473 0
-417 -474 0
-415 -649 0
-416 -650 0
-417 -651 0
-415 -805 0
-416 -806 0
-417 -807 0
-415 -808 0
-416 -809 0
-417 -810 0
-418 -427 0
-419 -428 0
-420 -429 0
-418 -502 0
-419 -503 0
-420 -504 0
-418 -505 0
-419 -506 0
-420 -507 0
-421 -424 0
-422 -425 0
-423 -426 0
-421 -706 0
-422 -707 0
-423 -708 0
-421 -652 0
-422 -653 0
-423 -654 0
-424 -430 0
-425 -431 0
-426 -432 0
-427 -748 0
-428 -749 0
-429 -750 0
-427 -622 0
-428 -623 0
-429 -624 0
-430 -952 0
-431 -953 0
-432 -954 0
-430 -646 0
-431 -647 0
-432 -648 0
-430 -616 0
-431 -617 0
-432 -618 0
-430 -628 0
-431 -629 0
-432 -630 0
-430 -652 0
-431 -653 0
-432 -654 0
-433 -829 0
-434 -830 0
-435 -831 0
-433 -511 0
-434 -512 0
-435 -513 0
-433 -649 0
-434 -650 0
-435 -651 0
-433 -640 0
-434 -641 0
-435 -642 0
-436 -928 0
-437 -929 0
-438 -930 0
-436 -631 0
-437 -632 0
-438 -633 0
-436 -514 0
-437 -515 0
-438 -516 0
-439 -673 0
-440 -674 0
-441 -675 0
-439 -850 0
-440 -851 0
-441 -852 0
-442 -541 0
-443 -542 0
-444 -543 0
-445 -712 0
-446 -713 0
-447 -714 0
-445 -685 0
-446 -686 0
-447 -687 0
-445 -688 0
-446 -689 0
-447 -690 0
-448 -691 0
-449 -692 0
-450 -693 0
-448 -811 0
-449 -812 0
-450 -813 0
-451 -637 0
-452 -638 0
-453 -639 0
-451 -943 0
-452 -944 0
-453 -945 0
-451 -649 0
-452 -650 0
-453 -651 0
-454 -604 0
-455 -605 0
-456 -606 0
-454 -607 0
-455 -608 0
-456 -609 0
-457 -535 0
-458 -536 0
-459 -537 0
-457 -907 0
-458 -908 0
-459 -909 0
-457 -910 0
-458 -911 0
-459 -912 0
-460 -829 0
-461 -830 0
-462 -831 0
-460 -808 0
-461 -809 0
-462 -810 0
-460 -619 0
-461 -620 0
-462 -621 0
-460 -463 0
-461 -464 0
-462 -465 0
-463 -466 0
-464 -467 0
-465 -468 0
-466 -904 0
-467 -905 0
-468 -906 0
-466 -736 0
-467 -737 0
-468 -738 0
-469 -892 0
-470 -893 0
-471 -894 0
-469 -472 0
-470 -473 0
-471 -474 0
-469 -589 0
-470 -590 0
-471 -591 0
-469 -613 0
-470 -614 0
-471 -615 0
-469 -736 0
-470 -737 0
-471 -738 0
-472 -550 0
-473 -551 0
-474 -552 0
-472 -502 0
-473 -503 0
-474 -504 0
-475 -547 0
-476 -548 0
-477 -549 0
-475 -949 0
-476 -950 0
-477 -951 0
-475 -940 0
-476 -941 0
-477 -942 0
-478 -889 0
-479 -890 0
-480 -891 0
-478 -886 0
-479 -887 0
-480 -888 0
-478 -481 0
-479 -482 0
-480 -483 0
-481 -490 0
-482 -491 0
-483 -492 0
-484 -487 0
-485 -488 0
-486 -489 0
-484 -505 0
-485 -506 0
-486 -507 0
-484 -553 0
-485 -554 0
-486 -555 0
-487 -889 0
-488 -890 0
-489 -891 0
-487 -754 0
-488 -755 0
-489 -756 0
-487 -727 0
-488 -728 0
-489 -729 0
-487 -613 0
-488 -614 0
-489 -615 0
-490 -646 0
-491 -647 0
-492 -648 0
-490 -730 0
-491 -731 0
-492 -732 0
-493 -625 0
-494 -626 0
-495 -627 0
-493 -892 0
-494 -893 0
-495 -894 0
-493 -604 0
-494 -605 0
-495 -606 0
-496 -508 0
-497 -509 0
-498 -510 0
-496 -817 0
-497 -818 0
-498 -819 0
-499 -637 0
-500 -638 0
-501 -639 0
-499 -943 0
-500 -944 0
-501 -945 0
-499 -511 0
-500 -512 0
-501 -513 0
-499 -814 0
-500 -815 0
-501 -816 0
-502 -772 0
-503 -773 0
-504 -774 0
-505 -748 0
-506 -749 0
-507 -750 0
-505 -772 0
-506 -773 0
-507 -774 0
-511 -559 0
-512 -560 0
-513 -561 0
-511 -556 0
-512 -557 0
-513 -558 0
-514 -523 0
-515 -524 0
-516 -525 0
-514 -556 0
-515 -557 0
-516 -558 0
-517 -742 0
-518 -743 0
-519 -744 0
-517 -646 0
-518 -647 0
-519 -648 0
-517 -547 0
-518 -548 0
-519 -549 0
-517 -652 0
-518 -653 0
-519 -654 0
-517 -739 0
-518 -740 0
-519 -741 0
-520 -529 0
-521 -530 0
-522 -531 0
-523 -631 0
-524 -632 0
-525 -633 0
-523 -733 0
-524 -734 0
-525 -735 0
-526 -745 0
-527 -746 0
-528 -747 0
-526 -625 0
-527 -626 0
-528 -627 0
-529 -667 0
-530 -668 0
-531 -669 0
-529 -970 0
-530 -971 0
-531 -972 0
-532 -853 0
-533 -854 0
-534 -855 0
-532 -820 0
-533 -821 0
-534 -822 0
-532 -637 0
-533 -638 0
-534 -639 0
-532 -619 0
-533 -620 0
-534 -621 0
-535 -541 0
-536 -542 0
-537 -543 0
-535 -559 0
-536 -560 0
-537 -561 0
-535 -550 0
-536 -551 0
-537 -552 0
-535 -538 0
-536 -539 0
-537 -540 0
-535 -553 0
-536 -554 0
-537 -555 0
-538 -979 0
-539 -980 0
-540 -981 0
-538 -718 0
-539 -719 0
-540 -720 0
-541 -682 0
-542 -683 0
-543 -684 0
-541 -691 0
-542 -692 0
-543 -693 0
-544 -748 0
-545 -749 0
-546 -750 0
-544 -973 0
-545 -974 0
-546 -975 0
-544 -547 0
-545 -548 0
-546 -549 0
-550 -943 0
-551 -944 0
-552 -945 0
-550 -976 0
-551 -977 0
-552 -978 0
-550 -649 0
-551 -650 0
-552 -651 0
-550 -640 0
-551 -641 0
-552 -642 0
-550 -979 0
-551 -980 0
-552 -981 0
-553 -826 0
-554 -827 0
-555 -828 0
-553 -721 0
-554 -722 0
-555 -723 0
-556 -742 0
-557 -743 0
-558 -744 0
-556 -781 0
-557 -782 0
-558 -783 0
-556 -976 0
-557 -977 0
-558 -978 0
-559 -724 0
-560 -725 0
-561 -726 0
-559 -823 0
-560 -824 0
-561 -825 0
-565 -658 0
-566 -659 0
-567 -660 0
-565 -661 0
-566 -662 0
-567 -663 0
-568 -703 0
-569 -704 0
-570 -705 0
-571 -655 0
-572 -656 0
-573 -657 0
-571 -664 0
-572 -665 0
-573 -666 0
-577 -796 0
-578 -797 0
-579 -798 0
-577 -799 0
-578 -800 0
-579 -801 0
-577 -580 0
-578 -581 0
-579 -582 0
-577 -862 0
-578 -863 0
-579 -864 0
-580 -694 0
-581 -695 0
-582 -696 0
-586 -700 0
-587 -701 0
-588 -702 0
-586 -598 0
-587 -599 0
-588 -600 0
-592 -706 0
-593 -707 0
-594 -708 0
-592 -709 0
-593 -710 0
-594 -711 0
-595 -865 0
-596 -866 0
-597 -867 0
-598 -670 0
-599 -671 0
-600 -672 0
-598 -937 0
-599 -938 0
-600 -939 0
-601 -961 0
-602 -962 0
-603 -963 0
-610 -667 0
-611 -668 0
-612 -669 0
-610 -676 0
-611 -677 0
-612 -678 0
-613 -685 0
-614 -686 0
-615 -687 0
-616 -817 0
-617 -818 0
-618 -819 0
-619 -694 0
-620 -695 0
-621 -696 0
-619 -769 0
-620 -770 0
-621 -771 0
-619 -886 0
-620 -887 0
-621 -888 0
-622 -682 0
-623 -683 0
-624 -684 0
-625 -718 0
-626 -719 0
-627 -720 0
-625 -721 0
-626 -722 0
-627 -723 0
-628 -667 0
-629 -668 0
-630 -669 0
-631 -949 0
-632 -950 0
-633 -951 0
-631 -673 0
-632 -674 0
-633 -675 0
-634 -712 0
-635 -713 0
-636 -714 0
-634 -688 0
-635 -689 0
-636 -690 0
-646 -679 0
-647 -680 0
-648 -681 0
-646 -724 0
-647 -725 0
-648 -726 0
-646 -691 0
-647 -692 0
-648 -693 0
-646 -814 0
-647 -815 0
-648 -816 0
-652 -931 0
-653 -932 0
-654 -933 0
-655 -880 0
-656 -881 0
-657 -882 0
-655 -856 0
-656 -857 0
-657 -858 0
-658 -919 0
-659 -920 0
-660 -921 0
-658 -895 0
-659 -896 0
-660 -897 0
-661 -697 0
-662 -698 0
-663 -699 0
-664 -715 0
-665 -716 0
-666 -717 0
-664 -787 0
-665 -788 0
-666 -789 0
-664 -805 0
-665 -806 0
-666 -807 0
-670 -790 0
-671 -791 0
-672 -792 0
-670 -673 0
-671 -674 0
-672 -675 0
-670 -859 0
-671 -860 0
-672 -861 0
-673 -733 0
-674 -734 0
-675 -735 0
-676 -964 0
-677 -965 0
-678 -966 0
-679 -727 0
-680 -728 0
-681 -729 0
-679 -739 0
-680 -740 0
-681 -741 0
-682 -952 0
-683 -953 0
-684 -954 0
-685 -742 0
-686 -743 0
-687 -744 0
-685 -751 0
-686 -752 0
-687 -753 0
-688 -781 0
-689 -782 0
-690 -783 0
-688 -829 0
-689 -830 0
-690 -831 0
-691 -748 0
-692 -749 0
-693 -750 0
-691 -772 0
-692 -773 0
-693 -774 0
-691 -736 0
-692 -737 0
-693 -738 0
-694 -802 0
-695 -803 0
-696 -804 0
-697 -874 0
-698 -875 0
-699 -876 0
-700 -784 0
-701 -785 0
-702 -786 0
-700 -808 0
-701 -809 0
-702 -810 0
-703 -868 0
-704 -869 0
-705 -870 0
-703 -838 0
-704 -839 0
-705 -840 0
-706 -931 0
-707 -932 0
-708 -933 0
-709 -760 0
-710 -761 0
-711 -762 0
-709 -763 0
-710 -764 0
-711 -765 0
-712 -751 0
-713 -752 0
-714 -753 0
-712 -958 0
-713 -959 0
-714 -960 0
-715 -853 0
-716 -854 0
-717 -855 0
-718 -745 0
-719 -746 0
-720 -747 0
-718 -922 0
-719 -923 0
-720 -924 0
-721 -757 0
-722 -758 0
-723 -759 0
-721 -847 0
-722 -848 0
-723 -849 0
-721 -892 0
-722 -893 0
-723 -894 0
-724 -766 0
-725 -767 0
-726 -768 0
-727 -787 0
-728 -788 0
-729 -789 0
-727 -793 0
-728 -794 0
-729 -795 0
-727 -847 0
-728 -848 0
-729 -849 0
-733 -850 0
-734 -851 0
-735 -852 0
-736 -913 0
-737 -914 0
-738 -915 0
-748 -820 0
-749 -821 0
-750 -822 0
-748 -811 0
-749 -812 0
-750 -813 0
-754 -844 0
-755 -845 0
-756 -846 0
-754 -883 0
-755 -884 0
-756 -885 0
-757 -826 0
-758 -827 0
-759 -828 0
-757 -877 0
-758 -878 0
-759 -879 0
-760 -835 0
-761 -836 0
-762 -837 0
-763 -925 0
-764 -926 0
-765 -927 0
-766 -925 0
-767 -926 0
-768 -927 0
-766 -823 0
-767 -824 0
-768 -825 0
-769 -853 0
-770 -854 0
-771 -855 0
-784 -928 0
-785 -929 0
-786 -930 0
-793 -889 0
-794 -890 0
-795 -891 0
-793 -886 0
-794 -887 0
-795 -888 0
-796 -916 0
-797 -917 0
-798 -918 0
-799 -973 0
-800 -974 0
-801 -975 0
-799 -946 0
-800 -947 0
-801 -948 0
-799 -856 0
-800 -857 0
-801 -858 0
-802 -913 0
-803 -914 0
-804 -915 0
-805 -913 0
-806 -914 0
-807 -915 0
-817 -967 0
-818 -968 0
-819 -969 0
-817 -952 0
-818 -953 0
-819 -954 0
-820 -880 0
-821 -881 0
-822 -882 0
-820 -886 0
-821 -887 0
-822 -888 0
-823 -853 0
-824 -854 0
-825 -855 0
-829 -970 0
-830 -971 0
-831 -972 0
-835 -898 0
-836 -899 0
-837 -900 0
-850 -976 0
-851 -977 0
-852 -978 0
-850 -979 0
-851 -980 0
-852 -981 0
-865 -919 0
-866 -920 0
-867 -921 0
-871 -898 0
-872 -899 0
-873 -900 0
-877 -934 0
-878 -935 0
-879 -936 0
-928 -949 0
-929 -950 0
-930 -951 0
-961 -970 0
-962 -971 0
-963 -972 0
1 0
776 0
