p cnf 756 2024
1 2 3 0
4 5 6 0
7 8 9 0
10 11 12 0
13 14 15 0
16 17 18 0
19 20 21 0
22 23 24 0
25 26 27 0
28 29 30 0
31 32 33 0
34 35 36 0
37 38 39 0
40 41 42 0
43 44 45 0
46 47 48 0
49 50 51 0
52 53 54 0
55 56 57 0
58 59 60 0
61 62 63 0
64 65 66 0
67 68 69 0
70 71 72 0
73 74 75 0
76 77 78 0
79 80 81 0
82 83 84 0
85 86 87 0
88 89 90 0
91 92 93 0
94 95 96 0
97 98 99 0
100 101 102 0
103 104 105 0
106 107 108 0
109 110 111 0
112 113 114 0
115 116 117 0
118 119 120 0
121 122 123 0
124 125 126 0
127 128 129 0
130 131 132 0
133 134 135 0
136 137 138 0
139 140 141 0
142 143 144 0
145 146 147 0
148 149 150 0
151 152 153 0
154 155 156 0
157 158 159 0
160 161 162 0
163 164 165 0
166 167 168 0
169 170 171 0
172 173 174 0
175 176 177 0
178 179 180 0
181 182 183 0
184 185 186 0
187 188 189 0
190 191 192 0
193 194 195 0
196 197 198 0
199 200 201 0
202 203 204 0
205 206 207 0
208 209 210 0
211 212 213 0
214 215 216 0
217 218 219 0
220 221 222 0
223 224 225 0
226 227 228 0
229 230 231 0
232 233 234 0
235 236 237 0
238 239 240 0
241 242 243 0
244 245 246 0
247 248 249 0
250 251 252 0
253 254 255 0
256 257 258 0
259 260 261 0
262 263 264 0
265 266 267 0
268 269 270 0
271 272 273 0
274 275 276 0
277 278 279 0
280 281 282 0
283 284 285 0
286 287 288 0
289 290 291 0
292 293 294 0
295 296 297 0
298 299 300 0
301 302 303 0
304 305 306 0
307 308 309 0
310 311 312 0
313 314 315 0
316 317 318 0
319 320 321 0
322 323 324 0
325 326 327 0
328 329 330 0
331 332 333 0
334 335 336 0
337 338 339 0
340 341 342 0
343 344 345 0
346 347 348 0
349 350 351 0
352 353 354 0
355 356 357 0
358 359 360 0
361 362 363 0
364 365 366 0
367 368 369 0
370 371 372 0
373 374 375 0
376 377 378 0
379 380 381 0
382 383 384 0
385 386 387 0
388 389 390 0
391 392 393 0
394 395 396 0
397 398 399 0
400 401 402 0
403 404 405 0
406 407 408 0
409 410 411 0
412 413 414 0
415 416 417 0
418 419 420 0
421 422 423 0
424 425 426 0
427 428 429 0
430 431 432 0
433 434 435 0
436 437 438 0
439 440 441 0
442 443 444 0
445 446 447 0
448 449 450 0
451 452 453 0
454 455 456 0
457 458 459 0
460 461 462 0
463 464 465 0
466 467 468 0
469 470 471 0
472 473 474 0
475 476 477 0
478 479 480 0
481 482 483 0
484 485 486 0
487 488 489 0
490 491 492 0
493 494 495 0
496 497 498 0
499 500 501 0
502 503 504 0
505 506 507 0
508 509 510 0
511 512 513 0
514 515 516 0
517 518 519 0
520 521 522 0
523 524 525 0
526 527 528 0
529 530 531 0
532 533 534 0
535 536 537 0
538 539 540 0
541 542 543 0
544 545 546 0
547 548 549 0
550 551 552 0
553 554 555 0
556 557 558 0
559 560 561 0
562 563 564 0
565 566 567 0
568 569 570 0
571 572 573 0
574 575 576 0
577 578 579 0
580 581 582 0
583 584 585 0
586 587 588 0
589 590 591 0
592 593 594 0
595 596 597 0
598 599 600 0
601 602 603 0
604 605 606 0
607 608 609 0
610 611 612 0
613 614 615 0
616 617 618 0
619 620 621 0
622 623 624 0
625 626 627 0
628 629 630 0
631 632 633 0
634 635 636 0
637 638 639 0
640 641 642 0
643 644 645 0
646 647 648 0
649 650 651 0
652 653 654 0
655 656 657 0
658 659 660 0
661 662 663 0
664 665 666 0
667 668 669 0
670 671 672 0
673 674 675 0
676 677 678 0
679 680 681 0
682 683 684 0
685 686 687 0
688 689 690 0
691 692 693 0
694 695 696 0
697 698 699 0
700 701 702 0
703 704 705 0
706 707 708 0
709 710 711 0
712 713 714 0
715 716 717 0
718 719 720 0
721 722 723 0
724 725 726 0
727 728 729 0
730 731 732 0
733 734 735 0
736 737 738 0
739 740 741 0
742 743 744 0
745 746 747 0
748 749 750 0
751 752 753 0
754 755 756 0
-1 -697 0
-2 -698 0
-3 -699 0
-1 -700 0
-2 -701 0
-3 -702 0
-1 -721 0
-2 -722 0
-3 -723 0
-1 -13 0
-2 -14 0
-3 -15 0
-4 -13 0
-5 -14 0
-6 -15 0
-4 -646 0
-5 -647 0
-6 -648 0
-4 -583 0
-5 -584 0
-6 -585 0
-4 -40 0
-5 -41 0
-6 -42 0
-7 -694 0
-8 -695 0
-9 -696 0
-7 -13 0
-8 -14 0
-9 -15 0
-7 -640 0
-8 -641 0
-9 -642 0
-7 -73 0
-8 -74 0
-9 -75 0
-7 -688 0
-8 -689 0
-9 -690 0
-10 -697 0
-11 -698 0
-12 -699 0
-10 -709 0
-11 -710 0
-12 -711 0
-10 -40 0
-11 -41 0
-12 -42 0
-10 -502 0
-11 -503 0
-12 -504 0
-10 -748 0
-11 -749 0
-12 -750 0
-10 -73 0
-11 -74 0
-12 -75 0
-13 -85 0
-14 -86 0
-15 -87 0
-13 -88 0
-14 -89 0
-15 -90 0
-13 -16 0
-14 -17 0
-15 -18 0
-13 -97 0
-14 -98 0
-15 -99 0
-13 -187 0
-14 -188 0
-15 -189 0
-13 -52 0
-14 -53 0
-15 -54 0
-13 -55 0
-14 -56 0
-15 -57 0
-13 -139 0
-14 -140 0
-15 -141 0
-13 -142 0
-14 -143 0
-15 -144 0
-13 -232 0
-14 -233 0
-15 -234 0
-16 -610 0
-17 -611 0
-18 -612 0
-16 -694 0
-17 -695 0
-18 -696 0
-16 -628 0
-17 -629 0
-18 -630 0
-16 -454 0
-17 -455 0
-18 -456 0
-16 -235 0
-17 -236 0
-18 -237 0
-19 -49 0
-20 -50 0
-21 -51 0
-19 -427 0
-20 -428 0
-21 -429 0
-19 -112 0
-20 -113 0
-21 -114 0
-19 -556 0
-20 -557 0
-21 -558 0
-22 -403 0
-23 -404 0
-24 -405 0
-22 -109 0
-23 -110 0
-24 -111 0
-22 -115 0
-23 -116 0
-24 -117 0
-22 -46 0
-23 -47 0
-24 -48 0
-22 -439 0
-23 -440 0
-24 -441 0
-25 -469 0
-26 -470 0
-27 -471 0
-25 -31 0
-26 -32 0
-27 -33 0
-25 -118 0
-26 -119 0
-27 -120 0
-25 -193 0
-26 -194 0
-27 -195 0
-25 -685 0
-26 -686 0
-27 -687 0
-28 -637 0
-29 -638 0
-30 -639 0
-28 -715 0
-29 -716 0
-30 -717 0
-28 -115 0
-29 -116 0
-30 -117 0
-28 -583 0
-29 -584 0
-30 -585 0
-28 -433 0
-29 -434 0
-30 -435 0
-28 -436 0
-29 -437 0
-30 -438 0
-28 -136 0
-29 -137 0
-30 -138 0
-31 -40 0
-32 -41 0
-33 -42 0
-31 -211 0
-32 -212 0
-33 -213 0
-31 -517 0
-32 -518 0
-33 -519 0
-31 -145 0
-32 -146 0
-33 -147 0
-34 -694 0
-35 -695 0
-36 -696 0
-34 -406 0
-35 -407 0
-36 -408 0
-34 -709 0
-35 -710 0
-36 -711 0
-34 -418 0
-35 -419 0
-36 -420 0
-34 -712 0
-35 -713 0
-36 -714 0
-34 -40 0
-35 -41 0
-36 -42 0
-34 -229 0
-35 -230 0
-36 -231 0
-34 -688 0
-35 -689 0
-36 -690 0
-37 -601 0
-38 -602 0
-39 -603 0
-37 -568 0
-38 -569 0
-39 -570 0
-37 -235 0
-38 -236 0
-39 -237 0
-37 -460 0
-38 -461 0
-39 -462 0
-40 -43 0
-41 -44 0
-42 -45 0
-40 -232 0
-41 -233 0
-42 -234 0
-43 -697 0
-44 -698 0
-45 -699 0
-43 -517 0
-44 -518 0
-45 -519 0
-43 -235 0
-44 -236 0
-45 -237 0
-46 -157 0
-47 -158 0
-48 -159 0
-46 -409 0
-47 -410 0
-48 -411 0
-46 -475 0
-47 -476 0
-48 -477 0
-46 -190 0
-47 -191 0
-48 -192 0
-46 -73 0
-47 -74 0
-48 -75 0
-49 -82 0
-50 -83 0
-51 -84 0
-49 -463 0
-50 -464 0
-51 -465 0
-49 -160 0
-50 -161 0
-51 -162 0
-49 -553 0
-50 -554 0
-51 -555 0
-49 -571 0
-50 -572 0
-51 -573 0
-52 -100 0
-53 -101 0
-54 -102 0
-52 -103 0
-53 -104 0
-54 -105 0
-52 -670 0
-53 -671 0
-54 -672 0
-55 -472 0
-56 -473 0
-57 -474 0
-55 -100 0
-56 -101 0
-57 -102 0
-55 -106 0
-56 -107 0
-57 -108 0
-58 -172 0
-59 -173 0
-60 -174 0
-58 -637 0
-59 -638 0
-60 -639 0
-58 -118 0
-59 -119 0
-60 -120 0
-58 -433 0
-59 -434 0
-60 -435 0
-58 -685 0
-59 -686 0
-60 -687 0
-61 -685 0
-62 -686 0
-63 -687 0
-61 -667 0
-62 -668 0
-63 -669 0
-61 -172 0
-62 -173 0
-63 -174 0
-64 -466 0
-65 -467 0
-66 -468 0
-64 -172 0
-65 -173 0
-66 -174 0
-64 -643 0
-65 -644 0
-66 -645 0
-64 -136 0
-65 -137 0
-66 -138 0
-67 -538 0
-68 -539 0
-69 -540 0
-67 -520 0
-68 -521 0
-69 -522 0
-67 -133 0
-68 -134 0
-69 -135 0
-70 -709 0
-71 -710 0
-72 -711 0
-70 -634 0
-71 -635 0
-72 -636 0
-70 -496 0
-71 -497 0
-72 -498 0
-70 -499 0
-71 -500 0
-72 -501 0
-70 -229 0
-71 -230 0
-72 -231 0
-70 -73 0
-71 -74 0
-72 -75 0
-73 -316 0
-74 -317 0
-75 -318 0
-73 -91 0
-74 -92 0
-75 -93 0
-73 -274 0
-74 -275 0
-75 -276 0
-73 -232 0
-74 -233 0
-75 -234 0
-73 -79 0
-74 -80 0
-75 -81 0
-76 -82 0
-77 -83 0
-78 -84 0
-76 -613 0
-77 -614 0
-78 -615 0
-76 -700 0
-77 -701 0
-78 -702 0
-76 -568 0
-77 -569 0
-78 -570 0
-76 -229 0
-77 -230 0
-78 -231 0
-79 -694 0
-80 -695 0
-81 -696 0
-79 -697 0
-80 -698 0
-81 -699 0
-79 -406 0
-80 -407 0
-81 -408 0
-79 -718 0
-80 -719 0
-81 -720 0
-79 -721 0
-80 -722 0
-81 -723 0
-79 -235 0
-80 -236 0
-81 -237 0
-82 -319 0
-83 -320 0
-84 -321 0
-82 -94 0
-83 -95 0
-84 -96 0
-82 -280 0
-83 -281 0
-84 -282 0
-82 -232 0
-83 -233 0
-84 -234 0
-85 -331 0
-86 -332 0
-87 -333 0
-85 -427 0
-86 -428 0
-87 -429 0
-88 -340 0
-89 -341 0
-90 -342 0
-88 -715 0
-89 -716 0
-90 -717 0
-88 -439 0
-89 -440 0
-90 -441 0
-88 -670 0
-89 -671 0
-90 -672 0
-91 -490 0
-92 -491 0
-93 -492 0
-91 -496 0
-92 -497 0
-93 -498 0
-91 -526 0
-92 -527 0
-93 -528 0
-94 -589 0
-95 -590 0
-96 -591 0
-94 -250 0
-95 -251 0
-96 -252 0
-94 -553 0
-95 -554 0
-96 -555 0
-97 -715 0
-98 -716 0
-99 -717 0
-97 -583 0
-98 -584 0
-99 -585 0
-100 -172 0
-101 -173 0
-102 -174 0
-100 -175 0
-101 -176 0
-102 -177 0
-100 -490 0
-101 -491 0
-102 -492 0
-100 -493 0
-101 -494 0
-102 -495 0
-100 -496 0
-101 -497 0
-102 -498 0
-100 -352 0
-101 -353 0
-102 -354 0
-100 -667 0
-101 -668 0
-102 -669 0
-103 -175 0
-104 -176 0
-105 -177 0
-103 -592 0
-104 -593 0
-105 -594 0
-103 -595 0
-104 -596 0
-105 -597 0
-106 -433 0
-107 -434 0
-108 -435 0
-106 -436 0
-107 -437 0
-108 -438 0
-106 -172 0
-107 -173 0
-108 -174 0
-109 -163 0
-110 -164 0
-111 -165 0
-109 -199 0
-110 -200 0
-111 -201 0
-109 -232 0
-110 -233 0
-111 -234 0
-112 -160 0
-113 -161 0
-114 -162 0
-112 -202 0
-113 -203 0
-114 -204 0
-112 -301 0
-113 -302 0
-114 -303 0
-112 -232 0
-113 -233 0
-114 -234 0
-115 -157 0
-116 -158 0
-117 -159 0
-115 -181 0
-116 -182 0
-117 -183 0
-115 -355 0
-116 -356 0
-117 -357 0
-115 -205 0
-116 -206 0
-117 -207 0
-115 -298 0
-116 -299 0
-117 -300 0
-115 -232 0
-116 -233 0
-117 -234 0
-118 -214 0
-119 -215 0
-120 -216 0
-118 -145 0
-119 -146 0
-120 -147 0
-118 -304 0
-119 -305 0
-120 -306 0
-118 -232 0
-119 -233 0
-120 -234 0
-121 -622 0
-122 -623 0
-123 -624 0
-121 -175 0
-122 -176 0
-123 -177 0
-121 -421 0
-122 -422 0
-123 -423 0
-121 -190 0
-122 -191 0
-123 -192 0
-121 -658 0
-122 -659 0
-123 -660 0
-124 -178 0
-125 -179 0
-126 -180 0
-124 -232 0
-125 -233 0
-126 -234 0
-124 -220 0
-125 -221 0
-126 -222 0
-124 -151 0
-125 -152 0
-126 -153 0
-127 -241 0
-128 -242 0
-129 -243 0
-127 -184 0
-128 -185 0
-129 -186 0
-127 -223 0
-128 -224 0
-129 -225 0
-127 -148 0
-128 -149 0
-129 -150 0
-127 -232 0
-128 -233 0
-129 -234 0
-130 -430 0
-131 -431 0
-132 -432 0
-130 -229 0
-131 -230 0
-132 -231 0
-130 -136 0
-131 -137 0
-132 -138 0
-130 -238 0
-131 -239 0
-132 -240 0
-133 -232 0
-134 -233 0
-135 -234 0
-133 -238 0
-134 -239 0
-135 -240 0
-136 -244 0
-137 -245 0
-138 -246 0
-136 -232 0
-137 -233 0
-138 -234 0
-139 -610 0
-140 -611 0
-141 -612 0
-139 -613 0
-140 -614 0
-141 -615 0
-139 -646 0
-140 -647 0
-141 -648 0
-139 -361 0
-140 -362 0
-141 -363 0
-142 -697 0
-143 -698 0
-144 -699 0
-142 -628 0
-143 -629 0
-144 -630 0
-142 -472 0
-143 -473 0
-144 -474 0
-142 -718 0
-143 -719 0
-144 -720 0
-142 -364 0
-143 -365 0
-144 -366 0
-142 -745 0
-143 -746 0
-144 -747 0
-145 -322 0
-146 -323 0
-147 -324 0
-145 -637 0
-146 -638 0
-147 -639 0
-145 -442 0
-146 -443 0
-147 -444 0
-148 -538 0
-149 -539 0
-150 -540 0
-148 -655 0
-149 -656 0
-150 -657 0
-148 -250 0
-149 -251 0
-150 -252 0
-151 -691 0
-152 -692 0
-153 -693 0
-151 -508 0
-152 -509 0
-153 -510 0
-154 -466 0
-155 -467 0
-156 -468 0
-154 -172 0
-155 -173 0
-156 -174 0
-154 -484 0
-155 -485 0
-156 -486 0
-154 -496 0
-155 -497 0
-156 -498 0
-154 -499 0
-155 -500 0
-156 -501 0
-154 -652 0
-155 -653 0
-156 -654 0
-154 -505 0
-155 -506 0
-156 -507 0
-154 -208 0
-155 -209 0
-156 -210 0
-157 -466 0
-158 -467 0
-159 -468 0
-157 -262 0
-158 -263 0
-159 -264 0
-157 -652 0
-158 -653 0
-159 -654 0
-157 -295 0
-158 -296 0
-159 -297 0
-160 -265 0
-161 -266 0
-162 -267 0
-160 -520 0
-161 -521 0
-162 -522 0
-160 -523 0
-161 -524 0
-162 -525 0
-163 -625 0
-164 -626 0
-165 -627 0
-163 -631 0
-164 -632 0
-165 -633 0
-163 -487 0
-164 -488 0
-165 -489 0
-163 -271 0
-164 -272 0
-165 -273 0
-166 -175 0
-167 -176 0
-168 -177 0
-166 -622 0
-167 -623 0
-168 -624 0
-166 -211 0
-167 -212 0
-168 -213 0
-166 -631 0
-167 -632 0
-168 -633 0
-169 -589 0
-170 -590 0
-171 -591 0
-169 -544 0
-170 -545 0
-171 -546 0
-169 -229 0
-170 -230 0
-171 -231 0
-172 -289 0
-173 -290 0
-174 -291 0
-172 -370 0
-173 -371 0
-174 -372 0
-172 -232 0
-173 -233 0
-174 -234 0
-175 -256 0
-176 -257 0
-177 -258 0
-175 -259 0
-176 -260 0
-177 -261 0
-175 -283 0
-176 -284 0
-177 -285 0
-175 -232 0
-176 -233 0
-177 -234 0
-178 -466 0
-179 -467 0
-180 -468 0
-178 -262 0
-179 -263 0
-180 -264 0
-178 -505 0
-179 -506 0
-180 -507 0
-181 -637 0
-182 -638 0
-183 -639 0
-181 -442 0
-182 -443 0
-183 -444 0
-184 -658 0
-185 -659 0
-186 -660 0
-184 -271 0
-185 -272 0
-186 -273 0
-187 -613 0
-188 -614 0
-189 -615 0
-187 -700 0
-188 -701 0
-189 -702 0
-187 -640 0
-188 -641 0
-189 -642 0
-187 -382 0
-188 -383 0
-189 -384 0
-190 -295 0
-191 -296 0
-192 -297 0
-190 -232 0
-191 -233 0
-192 -234 0
-193 -499 0
-194 -500 0
-195 -501 0
-193 -208 0
-194 -209 0
-195 -210 0
-193 -211 0
-194 -212 0
-195 -213 0
-193 -448 0
-194 -449 0
-195 -450 0
-193 -304 0
-194 -305 0
-195 -306 0
-196 -649 0
-197 -650 0
-198 -651 0
-196 -307 0
-197 -308 0
-198 -309 0
-196 -511 0
-197 -512 0
-198 -513 0
-196 -514 0
-197 -515 0
-198 -516 0
-199 -340 0
-200 -341 0
-201 -342 0
-199 -622 0
-200 -623 0
-201 -624 0
-199 -631 0
-200 -632 0
-201 -633 0
-202 -340 0
-203 -341 0
-204 -342 0
-202 -655 0
-203 -656 0
-204 -657 0
-205 -691 0
-206 -692 0
-207 -693 0
-205 -343 0
-206 -344 0
-207 -345 0
-208 -358 0
-209 -359 0
-210 -360 0
-208 -232 0
-209 -233 0
-210 -234 0
-208 -310 0
-209 -311 0
-210 -312 0
-211 -322 0
-212 -323 0
-213 -324 0
-211 -286 0
-212 -287 0
-213 -288 0
-211 -232 0
-212 -233 0
-213 -234 0
-214 -643 0
-215 -644 0
-216 -645 0
-214 -328 0
-215 -329 0
-216 -330 0
-214 -442 0
-215 -443 0
-216 -444 0
-217 -340 0
-218 -341 0
-219 -342 0
-217 -733 0
-218 -734 0
-219 -735 0
-217 -598 0
-218 -599 0
-219 -600 0
-220 -325 0
-221 -326 0
-222 -327 0
-220 -328 0
-221 -329 0
-222 -330 0
-220 -505 0
-221 -506 0
-222 -507 0
-220 -508 0
-221 -509 0
-222 -510 0
-220 -223 0
-221 -224 0
-222 -225 0
-223 -625 0
-224 -626 0
-225 -627 0
-223 -331 0
-224 -332 0
-225 -333 0
-223 -334 0
-224 -335 0
-225 -336 0
-223 -487 0
-224 -488 0
-225 -489 0
-226 -229 0
-227 -230 0
-228 -231 0
-226 -574 0
-227 -575 0
-228 -576 0
-226 -688 0
-227 -689 0
-228 -690 0
-229 -247 0
-230 -248 0
-231 -249 0
-229 -325 0
-230 -326 0
-231 -327 0
-229 -337 0
-230 -338 0
-231 -339 0
-229 -376 0
-230 -377 0
-231 -378 0
-229 -232 0
-230 -233 0
-231 -234 0
-232 -328 0
-233 -329 0
-234 -330 0
-232 -331 0
-233 -332 0
-234 -333 0
-232 -340 0
-233 -341 0
-234 -342 0
-232 -343 0
-233 -344 0
-234 -345 0
-232 -349 0
-233 -350 0
-234 -351 0
-232 -361 0
-233 -362 0
-234 -363 0
-232 -364 0
-233 -365 0
-234 -366 0
-232 -373 0
-233 -374 0
-234 -375 0
-232 -382 0
-233 -383 0
-234 -384 0
-232 -391 0
-233 -392 0
-234 -393 0
-232 -235 0
-233 -236 0
-234 -237 0
-232 -250 0
-233 -251 0
-234 -252 0
-232 -262 0
-233 -263 0
-234 -264 0
-232 -265 0
-233 -266 0
-234 -267 0
-232 -271 0
-233 -272 0
-234 -273 0
-235 -394 0
-236 -395 0
-237 -396 0
-235 -334 0
-236 -335 0
-237 -336 0
-235 -268 0
-236 -269 0
-237 -270 0
-235 -379 0
-236 -380 0
-237 -381 0
-238 -622 0
-239 -623 0
-240 -624 0
-238 -337 0
-239 -338 0
-240 -339 0
-238 -340 0
-239 -341 0
-240 -342 0
-238 -421 0
-239 -422 0
-240 -423 0
-238 -520 0
-239 -521 0
-240 -522 0
-238 -523 0
-239 -524 0
-240 -525 0
-241 -349 0
-242 -350 0
-243 -351 0
-241 -595 0
-242 -596 0
-243 -597 0
-241 -598 0
-242 -599 0
-243 -600 0
-244 -643 0
-245 -644 0
-246 -645 0
-244 -436 0
-245 -437 0
-246 -438 0
-247 -484 0
-248 -485 0
-249 -486 0
-247 -493 0
-248 -494 0
-249 -495 0
-247 -496 0
-248 -497 0
-249 -498 0
-247 -430 0
-248 -431 0
-249 -432 0
-250 -292 0
-251 -293 0
-252 -294 0
-253 -361 0
-254 -362 0
-255 -363 0
-253 -529 0
-254 -530 0
-255 -531 0
-253 -535 0
-254 -536 0
-255 -537 0
-256 -487 0
-257 -488 0
-258 -489 0
-256 -331 0
-257 -332 0
-258 -333 0
-256 -631 0
-257 -632 0
-258 -633 0
-259 -340 0
-260 -341 0
-261 -342 0
-259 -733 0
-260 -734 0
-261 -735 0
-259 -592 0
-260 -593 0
-261 -594 0
-259 -445 0
-260 -446 0
-261 -447 0
-265 -292 0
-266 -293 0
-267 -294 0
-265 -268 0
-266 -269 0
-267 -270 0
-268 -562 0
-269 -563 0
-270 -564 0
-268 -550 0
-269 -551 0
-270 -552 0
-271 -346 0
-272 -347 0
-273 -348 0
-274 -406 0
-275 -407 0
-276 -408 0
-274 -475 0
-275 -476 0
-276 -477 0
-274 -373 0
-275 -374 0
-276 -375 0
-274 -688 0
-275 -689 0
-276 -690 0
-277 -610 0
-278 -611 0
-279 -612 0
-277 -568 0
-278 -569 0
-279 -570 0
-277 -574 0
-278 -575 0
-279 -576 0
-277 -391 0
-278 -392 0
-279 -393 0
-280 -463 0
-281 -464 0
-282 -465 0
-280 -565 0
-281 -566 0
-282 -567 0
-280 -568 0
-281 -569 0
-282 -570 0
-280 -382 0
-281 -383 0
-282 -384 0
-283 -658 0
-284 -659 0
-285 -660 0
-283 -349 0
-284 -350 0
-285 -351 0
-283 -598 0
-284 -599 0
-285 -600 0
-286 -733 0
-287 -734 0
-288 -735 0
-286 -445 0
-287 -446 0
-288 -447 0
-289 -505 0
-290 -506 0
-291 -507 0
-289 -508 0
-290 -509 0
-291 -510 0
-292 -538 0
-293 -539 0
-294 -540 0
-292 -520 0
-293 -521 0
-294 -522 0
-295 -421 0
-296 -422 0
-297 -423 0
-295 -457 0
-296 -458 0
-297 -459 0
-298 -715 0
-299 -716 0
-300 -717 0
-298 -424 0
-299 -425 0
-300 -426 0
-298 -439 0
-299 -440 0
-300 -441 0
-298 -373 0
-299 -374 0
-300 -375 0
-301 -382 0
-302 -383 0
-303 -384 0
-301 -427 0
-302 -428 0
-303 -429 0
-304 -322 0
-305 -323 0
-306 -324 0
-304 -478 0
-305 -479 0
-306 -480 0
-304 -373 0
-305 -374 0
-306 -375 0
-307 -382 0
-308 -383 0
-309 -384 0
-307 -532 0
-308 -533 0
-309 -534 0
-307 -535 0
-308 -536 0
-309 -537 0
-310 -691 0
-311 -692 0
-312 -693 0
-310 -652 0
-311 -653 0
-312 -654 0
-310 -343 0
-311 -344 0
-312 -345 0
-313 -340 0
-314 -341 0
-315 -342 0
-313 -655 0
-314 -656 0
-315 -657 0
-313 -523 0
-314 -524 0
-315 -525 0
-316 -409 0
-317 -410 0
-318 -411 0
-316 -634 0
-317 -635 0
-318 -636 0
-316 -718 0
-317 -719 0
-318 -720 0
-316 -742 0
-317 -743 0
-318 -744 0
-316 -526 0
-317 -527 0
-318 -528 0
-316 -391 0
-317 -392 0
-318 -393 0
-319 -610 0
-320 -611 0
-321 -612 0
-319 -541 0
-320 -542 0
-321 -543 0
-319 -613 0
-320 -614 0
-321 -615 0
-319 -565 0
-320 -566 0
-321 -567 0
-319 -571 0
-320 -572 0
-321 -573 0
-319 -742 0
-320 -743 0
-321 -744 0
-319 -391 0
-320 -392 0
-321 -393 0
-322 -349 0
-323 -350 0
-324 -351 0
-322 -592 0
-323 -593 0
-324 -594 0
-322 -595 0
-323 -596 0
-324 -597 0
-322 -661 0
-323 -662 0
-324 -663 0
-322 -445 0
-323 -446 0
-324 -447 0
-325 -331 0
-326 -332 0
-327 -333 0
-325 -418 0
-326 -419 0
-327 -420 0
-325 -385 0
-326 -386 0
-327 -387 0
-328 -334 0
-329 -335 0
-330 -336 0
-328 -385 0
-329 -386 0
-330 -387 0
-331 -388 0
-332 -389 0
-333 -390 0
-334 -550 0
-335 -551 0
-336 -552 0
-334 -601 0
-335 -602 0
-336 -603 0
-334 -388 0
-335 -389 0
-336 -390 0
-334 -454 0
-335 -455 0
-336 -456 0
-337 -544 0
-338 -545 0
-339 -546 0
-337 -343 0
-338 -344 0
-339 -345 0
-337 -385 0
-338 -386 0
-339 -387 0
-340 -385 0
-341 -386 0
-342 -387 0
-343 -388 0
-344 -389 0
-345 -390 0
-346 -658 0
-347 -659 0
-348 -660 0
-346 -625 0
-347 -626 0
-348 -627 0
-352 -370 0
-353 -371 0
-354 -372 0
-352 -511 0
-353 -512 0
-354 -513 0
-352 -514 0
-353 -515 0
-354 -516 0
-355 -403 0
-356 -404 0
-357 -405 0
-355 -391 0
-356 -392 0
-357 -393 0
-358 -484 0
-359 -485 0
-360 -486 0
-358 -364 0
-359 -365 0
-360 -366 0
-358 -745 0
-359 -746 0
-360 -747 0
-358 -448 0
-359 -449 0
-360 -450 0
-361 -397 0
-362 -398 0
-363 -399 0
-364 -400 0
-365 -401 0
-366 -402 0
-367 -463 0
-368 -464 0
-369 -465 0
-367 -382 0
-368 -383 0
-369 -384 0
-367 -577 0
-368 -578 0
-369 -579 0
-367 -724 0
-368 -725 0
-369 -726 0
-370 -541 0
-371 -542 0
-372 -543 0
-370 -547 0
-371 -548 0
-372 -549 0
-370 -391 0
-371 -392 0
-372 -393 0
-373 -379 0
-374 -380 0
-375 -381 0
-373 -400 0
-374 -401 0
-375 -402 0
-376 -568 0
-377 -569 0
-378 -570 0
-376 -574 0
-377 -575 0
-378 -576 0
-376 -382 0
-377 -383 0
-378 -384 0
-376 -532 0
-377 -533 0
-378 -534 0
-379 -406 0
-380 -407 0
-381 -408 0
-379 -415 0
-380 -416 0
-381 -417 0
-379 -424 0
-380 -425 0
-381 -426 0
-379 -586 0
-380 -587 0
-381 -588 0
-379 -451 0
-380 -452 0
-381 -453 0
-379 -460 0
-380 -461 0
-381 -462 0
-382 -397 0
-383 -398 0
-384 -399 0
-385 -403 0
-386 -404 0
-387 -405 0
-385 -439 0
-386 -440 0
-387 -441 0
-385 -388 0
-386 -389 0
-387 -390 0
-388 -556 0
-389 -557 0
-390 -558 0
-388 -559 0
-389 -560 0
-390 -561 0
-388 -412 0
-389 -413 0
-390 -414 0
-388 -427 0
-389 -428 0
-390 -429 0
-391 -394 0
-392 -395 0
-393 -396 0
-394 -547 0
-395 -548 0
-396 -549 0
-394 -415 0
-395 -416 0
-396 -417 0
-394 -568 0
-395 -569 0
-396 -570 0
-394 -718 0
-395 -719 0
-396 -720 0
-394 -664 0
-395 -665 0
-396 -666 0
-397 -613 0
-398 -614 0
-399 -615 0
-397 -535 0
-398 -536 0
-399 -537 0
-400 -478 0
-401 -479 0
-402 -480 0
-400 -718 0
-401 -719 0
-402 -720 0
-400 -586 0
-401 -587 0
-402 -588 0
-400 -664 0
-401 -665 0
-402 -666 0
-403 -409 0
-404 -410 0
-405 -411 0
-403 -418 0
-404 -419 0
-405 -420 0
-406 -706 0
-407 -707 0
-408 -708 0
-406 -481 0
-407 -482 0
-408 -483 0
-406 -580 0
-407 -581 0
-408 -582 0
-412 -415 0
-413 -416 0
-414 -417 0
-412 -751 0
-413 -752 0
-414 -753 0
-412 -451 0
-413 -452 0
-414 -453 0
-415 -676 0
-416 -677 0
-417 -678 0
-421 -430 0
-422 -431 0
-423 -432 0
-424 -427 0
-425 -428 0
-426 -429 0
-427 -463 0
-428 -464 0
-429 -465 0
-427 -481 0
-428 -482 0
-429 -483 0
-427 -451 0
-428 -452 0
-429 -453 0
-427 -439 0
-428 -440 0
-429 -441 0
-427 -454 0
-428 -455 0
-429 -456 0
-430 -457 0
-431 -458 0
-432 -459 0
-439 -475 0
-440 -476 0
-441 -477 0
-439 -604 0
-440 -605 0
-441 -606 0
-448 -478 0
-449 -479 0
-450 -480 0
-448 -589 0
-449 -590 0
-450 -591 0
-457 -466 0
-458 -467 0
-459 -468 0
-457 -484 0
-458 -485 0
-459 -486 0
-460 -580 0
-461 -581 0
-462 -582 0
-460 -676 0
-461 -677 0
-462 -678 0
-463 -559 0
-464 -560 0
-465 -561 0
-463 -604 0
-464 -605 0
-465 -606 0
-469 -517 0
-470 -518 0
-471 -519 0
-469 -502 0
-470 -503 0
-471 -504 0
-472 -493 0
-473 -494 0
-474 -495 0
-475 -481 0
-476 -482 0
-477 -483 0
-490 -703 0
-491 -704 0
-492 -705 0
-490 -511 0
-491 -512 0
-492 -513 0
-493 -712 0
-494 -713 0
-495 -714 0
-499 -685 0
-500 -686 0
-501 -687 0
-502 -685 0
-503 -686 0
-504 -687 0
-511 -547 0
-512 -548 0
-513 -549 0
-511 -526 0
-512 -527 0
-513 -528 0
-511 -529 0
-512 -530 0
-513 -531 0
-511 -535 0
-512 -536 0
-513 -537 0
-514 -541 0
-515 -542 0
-516 -543 0
-514 -754 0
-515 -755 0
-516 -756 0
-514 -532 0
-515 -533 0
-516 -534 0
-520 -544 0
-521 -545 0
-522 -546 0
-520 -553 0
-521 -554 0
-522 -555 0
-526 -649 0
-527 -650 0
-528 -651 0
-529 -607 0
-530 -608 0
-531 -609 0
-535 -703 0
-536 -704 0
-537 -705 0
-547 -607 0
-548 -608 0
-549 -609 0
-550 -619 0
-551 -620 0
-552 -621 0
-550 -559 0
-551 -560 0
-552 -561 0
-556 -571 0
-557 -572 0
-558 -573 0
-556 -751 0
-557 -752 0
-558 -753 0
-556 -601 0
-557 -602 0
-558 -603 0
-559 -565 0
-560 -566 0
-561 -567 0
-559 -571 0
-560 -572 0
-561 -573 0
-559 -577 0
-560 -578 0
-561 -579 0
-562 -679 0
-563 -680 0
-564 -681 0
-562 -619 0
-563 -620 0
-564 -621 0
-565 -616 0
-566 -617 0
-567 -618 0
-565 -682 0
-566 -683 0
-567 -684 0
-568 -616 0
-569 -617 0
-570 -618 0
-568 -730 0
-569 -731 0
-570 -732 0
-568 -676 0
-569 -677 0
-570 -678 0
-568 -604 0
-569 -605 0
-570 -606 0
-568 -607 0
-569 -608 0
-570 -609 0
-574 -673 0
-575 -674 0
-576 -675 0
-577 -619 0
-578 -620 0
-579 -621 0
-580 -646 0
-581 -647 0
-582 -648 0
-586 -682 0
-587 -683 0
-588 -684 0
-589 -745 0
-590 -746 0
-591 -747 0
-592 -670 0
-593 -671 0
-594 -672 0
-610 -730 0
-611 -731 0
-612 -732 0
-610 -739 0
-611 -740 0
-612 -741 0
-610 -679 0
-611 -680 0
-612 -681 0
-613 -616 0
-614 -617 0
-615 -618 0
-613 -703 0
-614 -704 0
-615 -705 0
-613 -736 0
-614 -737 0
-615 -738 0
-616 -664 0
-617 -665 0
-618 -666 0
-619 -724 0
-620 -725 0
-621 -726 0
-628 -739 0
-629 -740 0
-630 -741 0
-634 -706 0
-635 -707 0
-636 -708 0
-634 -736 0
-635 -737 0
-636 -738 0
-637 -661 0
-638 -662 0
-639 -663 0
-640 -673 0
-641 -674 0
-642 -675 0
-640 -736 0
-641 -737 0
-642 -738 0
-649 -754 0
-650 -755 0
-651 -756 0
-649 -742 0
-650 -743 0
-651 -744 0
-661 -715 0
-662 -716 0
-663 -717 0
-661 -670 0
-662 -671 0
-663 -672 0
-664 -682 0
-665 -683 0
-666 -684 0
-667 -709 0
-668 -710 0
-669 -711 0
-667 -712 0
-668 -713 0
-669 -714 0
-673 -688 0
-674 -689 0
-675 -690 0
-676 -751 0
-677 -752 0
-678 -753 0
-679 -724 0
-680 -725 0
-681 -726 0
-685 -709 0
-686 -710 0
-687 -711 0
-697 -727 0
-698 -728 0
-699 -729 0
-700 -727 0
-701 -728 0
-702 -729 0
-700 -730 0
-701 -731 0
-702 -732 0
-706 -709 0
-707 -710 0
-708 -711 0
-706 -721 0
-707 -722 0
-708 -723 0
-727 -748 0
-728 -749 0
-729 -750 0
-736 -742 0
-737 -743 0
-738 -744 0
-736 -754 0
-737 -755 0
-738 -756 0
-739 -748 0
-740 -749 0
-741 -750 0
1 0
698 0
