p cnf 4212 12746
1 2 3 0
4 5 6 0
7 8 9 0
10 11 12 0
13 14 15 0
16 17 18 0
19 20 21 0
22 23 24 0
25 26 27 0
28 29 30 0
31 32 33 0
34 35 36 0
37 38 39 0
40 41 42 0
43 44 45 0
46 47 48 0
49 50 51 0
52 53 54 0
55 56 57 0
58 59 60 0
61 62 63 0
64 65 66 0
67 68 69 0
70 71 72 0
73 74 75 0
76 77 78 0
79 80 81 0
82 83 84 0
85 86 87 0
88 89 90 0
91 92 93 0
94 95 96 0
97 98 99 0
100 101 102 0
103 104 105 0
106 107 108 0
109 110 111 0
112 113 114 0
115 116 117 0
118 119 120 0
121 122 123 0
124 125 126 0
127 128 129 0
130 131 132 0
133 134 135 0
136 137 138 0
139 140 141 0
142 143 144 0
145 146 147 0
148 149 150 0
151 152 153 0
154 155 156 0
157 158 159 0
160 161 162 0
163 164 165 0
166 167 168 0
169 170 171 0
172 173 174 0
175 176 177 0
178 179 180 0
181 182 183 0
184 185 186 0
187 188 189 0
190 191 192 0
193 194 195 0
196 197 198 0
199 200 201 0
202 203 204 0
205 206 207 0
208 209 210 0
211 212 213 0
214 215 216 0
217 218 219 0
220 221 222 0
223 224 225 0
226 227 228 0
229 230 231 0
232 233 234 0
235 236 237 0
238 239 240 0
241 242 243 0
244 245 246 0
247 248 249 0
250 251 252 0
253 254 255 0
256 257 258 0
259 260 261 0
262 263 264 0
265 266 267 0
268 269 270 0
271 272 273 0
274 275 276 0
277 278 279 0
280 281 282 0
283 284 285 0
286 287 288 0
289 290 291 0
292 293 294 0
295 296 297 0
298 299 300 0
301 302 303 0
304 305 306 0
307 308 309 0
310 311 312 0
313 314 315 0
316 317 318 0
319 320 321 0
322 323 324 0
325 326 327 0
328 329 330 0
331 332 333 0
334 335 336 0
337 338 339 0
340 341 342 0
343 344 345 0
346 347 348 0
349 350 351 0
352 353 354 0
355 356 357 0
358 359 360 0
361 362 363 0
364 365 366 0
367 368 369 0
370 371 372 0
373 374 375 0
376 377 378 0
379 380 381 0
382 383 384 0
385 386 387 0
388 389 390 0
391 392 393 0
394 395 396 0
397 398 399 0
400 401 402 0
403 404 405 0
406 407 408 0
409 410 411 0
412 413 414 0
415 416 417 0
418 419 420 0
421 422 423 0
424 425 426 0
427 428 429 0
430 431 432 0
433 434 435 0
436 437 438 0
439 440 441 0
442 443 444 0
445 446 447 0
448 449 450 0
451 452 453 0
454 455 456 0
457 458 459 0
460 461 462 0
463 464 465 0
466 467 468 0
469 470 471 0
472 473 474 0
475 476 477 0
478 479 480 0
481 482 483 0
484 485 486 0
487 488 489 0
490 491 492 0
493 494 495 0
496 497 498 0
499 500 501 0
502 503 504 0
505 506 507 0
508 509 510 0
511 512 513 0
514 515 516 0
517 518 519 0
520 521 522 0
523 524 525 0
526 527 528 0
529 530 531 0
532 533 534 0
535 536 537 0
538 539 540 0
541 542 543 0
544 545 546 0
547 548 549 0
550 551 552 0
553 554 555 0
556 557 558 0
559 560 561 0
562 563 564 0
565 566 567 0
568 569 570 0
571 572 573 0
574 575 576 0
577 578 579 0
580 581 582 0
583 584 585 0
586 587 588 0
589 590 591 0
592 593 594 0
595 596 597 0
598 599 600 0
601 602 603 0
604 605 606 0
607 608 609 0
610 611 612 0
613 614 615 0
616 617 618 0
619 620 621 0
622 623 624 0
625 626 627 0
628 629 630 0
631 632 633 0
634 635 636 0
637 638 639 0
640 641 642 0
643 644 645 0
646 647 648 0
649 650 651 0
652 653 654 0
655 656 657 0
658 659 660 0
661 662 663 0
664 665 666 0
667 668 669 0
670 671 672 0
673 674 675 0
676 677 678 0
679 680 681 0
682 683 684 0
685 686 687 0
688 689 690 0
691 692 693 0
694 695 696 0
697 698 699 0
700 701 702 0
703 704 705 0
706 707 708 0
709 710 711 0
712 713 714 0
715 716 717 0
718 719 720 0
721 722 723 0
724 725 726 0
727 728 729 0
730 731 732 0
733 734 735 0
736 737 738 0
739 740 741 0
742 743 744 0
745 746 747 0
748 749 750 0
751 752 753 0
754 755 756 0
757 758 759 0
760 761 762 0
763 764 765 0
766 767 768 0
769 770 771 0
772 773 774 0
775 776 777 0
778 779 780 0
781 782 783 0
784 785 786 0
787 788 789 0
790 791 792 0
793 794 795 0
796 797 798 0
799 800 801 0
802 803 804 0
805 806 807 0
808 809 810 0
811 812 813 0
814 815 816 0
817 818 819 0
820 821 822 0
823 824 825 0
826 827 828 0
829 830 831 0
832 833 834 0
835 836 837 0
838 839 840 0
841 842 843 0
844 845 846 0
847 848 849 0
850 851 852 0
853 854 855 0
856 857 858 0
859 860 861 0
862 863 864 0
865 866 867 0
868 869 870 0
871 872 873 0
874 875 876 0
877 878 879 0
880 881 882 0
883 884 885 0
886 887 888 0
889 890 891 0
892 893 894 0
895 896 897 0
898 899 900 0
901 902 903 0
904 905 906 0
907 908 909 0
910 911 912 0
913 914 915 0
916 917 918 0
919 920 921 0
922 923 924 0
925 926 927 0
928 929 930 0
931 932 933 0
934 935 936 0
937 938 939 0
940 941 942 0
943 944 945 0
946 947 948 0
949 950 951 0
952 953 954 0
955 956 957 0
958 959 960 0
961 962 963 0
964 965 966 0
967 968 969 0
970 971 972 0
973 974 975 0
976 977 978 0
979 980 981 0
982 983 984 0
985 986 987 0
988 989 990 0
991 992 993 0
994 995 996 0
997 998 999 0
1000 1001 1002 0
1003 1004 1005 0
1006 1007 1008 0
1009 1010 1011 0
1012 1013 1014 0
1015 1016 1017 0
1018 1019 1020 0
1021 1022 1023 0
1024 1025 1026 0
1027 1028 1029 0
1030 1031 1032 0
1033 1034 1035 0
1036 1037 1038 0
1039 1040 1041 0
1042 1043 1044 0
1045 1046 1047 0
1048 1049 1050 0
1051 1052 1053 0
1054 1055 1056 0
1057 1058 1059 0
1060 1061 1062 0
1063 1064 1065 0
1066 1067 1068 0
1069 1070 1071 0
1072 1073 1074 0
1075 1076 1077 0
1078 1079 1080 0
1081 1082 1083 0
1084 1085 1086 0
1087 1088 1089 0
1090 1091 1092 0
1093 1094 1095 0
1096 1097 1098 0
1099 1100 1101 0
1102 1103 1104 0
1105 1106 1107 0
1108 1109 1110 0
1111 1112 1113 0
1114 1115 1116 0
1117 1118 1119 0
1120 1121 1122 0
1123 1124 1125 0
1126 1127 1128 0
1129 1130 1131 0
1132 1133 1134 0
1135 1136 1137 0
1138 1139 1140 0
1141 1142 1143 0
1144 1145 1146 0
1147 1148 1149 0
1150 1151 1152 0
1153 1154 1155 0
1156 1157 1158 0
1159 1160 1161 0
1162 1163 1164 0
1165 1166 1167 0
1168 1169 1170 0
1171 1172 1173 0
1174 1175 1176 0
1177 1178 1179 0
1180 1181 1182 0
1183 1184 1185 0
1186 1187 1188 0
1189 1190 1191 0
1192 1193 1194 0
1195 1196 1197 0
1198 1199 1200 0
1201 1202 1203 0
1204 1205 1206 0
1207 1208 1209 0
1210 1211 1212 0
1213 1214 1215 0
1216 1217 1218 0
1219 1220 1221 0
1222 1223 1224 0
1225 1226 1227 0
1228 1229 1230 0
1231 1232 1233 0
1234 1235 1236 0
1237 1238 1239 0
1240 1241 1242 0
1243 1244 1245 0
1246 1247 1248 0
1249 1250 1251 0
1252 1253 1254 0
1255 1256 1257 0
1258 1259 1260 0
1261 1262 1263 0
1264 1265 1266 0
1267 1268 1269 0
1270 1271 1272 0
1273 1274 1275 0
1276 1277 1278 0
1279 1280 1281 0
1282 1283 1284 0
1285 1286 1287 0
1288 1289 1290 0
1291 1292 1293 0
1294 1295 1296 0
1297 1298 1299 0
1300 1301 1302 0
1303 1304 1305 0
1306 1307 1308 0
1309 1310 1311 0
1312 1313 1314 0
1315 1316 1317 0
1318 1319 1320 0
1321 1322 1323 0
1324 1325 1326 0
1327 1328 1329 0
1330 1331 1332 0
1333 1334 1335 0
1336 1337 1338 0
1339 1340 1341 0
1342 1343 1344 0
1345 1346 1347 0
1348 1349 1350 0
1351 1352 1353 0
1354 1355 1356 0
1357 1358 1359 0
1360 1361 1362 0
1363 1364 1365 0
1366 1367 1368 0
1369 1370 1371 0
1372 1373 1374 0
1375 1376 1377 0
1378 1379 1380 0
1381 1382 1383 0
1384 1385 1386 0
1387 1388 1389 0
1390 1391 1392 0
1393 1394 1395 0
1396 1397 1398 0
1399 1400 1401 0
1402 1403 1404 0
1405 1406 1407 0
1408 1409 1410 0
1411 1412 1413 0
1414 1415 1416 0
1417 1418 1419 0
1420 1421 1422 0
1423 1424 1425 0
1426 1427 1428 0
1429 1430 1431 0
1432 1433 1434 0
1435 1436 1437 0
1438 1439 1440 0
1441 1442 1443 0
1444 1445 1446 0
1447 1448 1449 0
1450 1451 1452 0
1453 1454 1455 0
1456 1457 1458 0
1459 1460 1461 0
1462 1463 1464 0
1465 1466 1467 0
1468 1469 1470 0
1471 1472 1473 0
1474 1475 1476 0
1477 1478 1479 0
1480 1481 1482 0
1483 1484 1485 0
1486 1487 1488 0
1489 1490 1491 0
1492 1493 1494 0
1495 1496 1497 0
1498 1499 1500 0
1501 1502 1503 0
1504 1505 1506 0
1507 1508 1509 0
1510 1511 1512 0
1513 1514 1515 0
1516 1517 1518 0
1519 1520 1521 0
1522 1523 1524 0
1525 1526 1527 0
1528 1529 1530 0
1531 1532 1533 0
1534 1535 1536 0
1537 1538 1539 0
1540 1541 1542 0
1543 1544 1545 0
1546 1547 1548 0
1549 1550 1551 0
1552 1553 1554 0
1555 1556 1557 0
1558 1559 1560 0
1561 1562 1563 0
1564 1565 1566 0
1567 1568 1569 0
1570 1571 1572 0
1573 1574 1575 0
1576 1577 1578 0
1579 1580 1581 0
1582 1583 1584 0
1585 1586 1587 0
1588 1589 1590 0
1591 1592 1593 0
1594 1595 1596 0
1597 1598 1599 0
1600 1601 1602 0
1603 1604 1605 0
1606 1607 1608 0
1609 1610 1611 0
1612 1613 1614 0
1615 1616 1617 0
1618 1619 1620 0
1621 1622 1623 0
1624 1625 1626 0
1627 1628 1629 0
1630 1631 1632 0
1633 1634 1635 0
1636 1637 1638 0
1639 1640 1641 0
1642 1643 1644 0
1645 1646 1647 0
1648 1649 1650 0
1651 1652 1653 0
1654 1655 1656 0
1657 1658 1659 0
1660 1661 1662 0
1663 1664 1665 0
1666 1667 1668 0
1669 1670 1671 0
1672 1673 1674 0
1675 1676 1677 0
1678 1679 1680 0
1681 1682 1683 0
1684 1685 1686 0
1687 1688 1689 0
1690 1691 1692 0
1693 1694 1695 0
1696 1697 1698 0
1699 1700 1701 0
1702 1703 1704 0
1705 1706 1707 0
1708 1709 1710 0
1711 1712 1713 0
1714 1715 1716 0
1717 1718 1719 0
1720 1721 1722 0
1723 1724 1725 0
1726 1727 1728 0
1729 1730 1731 0
1732 1733 1734 0
1735 1736 1737 0
1738 1739 1740 0
1741 1742 1743 0
1744 1745 1746 0
1747 1748 1749 0
1750 1751 1752 0
1753 1754 1755 0
1756 1757 1758 0
1759 1760 1761 0
1762 1763 1764 0
1765 1766 1767 0
1768 1769 1770 0
1771 1772 1773 0
1774 1775 1776 0
1777 1778 1779 0
1780 1781 1782 0
1783 1784 1785 0
1786 1787 1788 0
1789 1790 1791 0
1792 1793 1794 0
1795 1796 1797 0
1798 1799 1800 0
1801 1802 1803 0
1804 1805 1806 0
1807 1808 1809 0
1810 1811 1812 0
1813 1814 1815 0
1816 1817 1818 0
1819 1820 1821 0
1822 1823 1824 0
1825 1826 1827 0
1828 1829 1830 0
1831 1832 1833 0
1834 1835 1836 0
1837 1838 1839 0
1840 1841 1842 0
1843 1844 1845 0
1846 1847 1848 0
1849 1850 1851 0
1852 1853 1854 0
1855 1856 1857 0
1858 1859 1860 0
1861 1862 1863 0
1864 1865 1866 0
1867 1868 1869 0
1870 1871 1872 0
1873 1874 1875 0
1876 1877 1878 0
1879 1880 1881 0
1882 1883 1884 0
1885 1886 1887 0
1888 1889 1890 0
1891 1892 1893 0
1894 1895 1896 0
1897 1898 1899 0
1900 1901 1902 0
1903 1904 1905 0
1906 1907 1908 0
1909 1910 1911 0
1912 1913 1914 0
1915 1916 1917 0
1918 1919 1920 0
1921 1922 1923 0
1924 1925 1926 0
1927 1928 1929 0
1930 1931 1932 0
1933 1934 1935 0
1936 1937 1938 0
1939 1940 1941 0
1942 1943 1944 0
1945 1946 1947 0
1948 1949 1950 0
1951 1952 1953 0
1954 1955 1956 0
1957 1958 1959 0
1960 1961 1962 0
1963 1964 1965 0
1966 1967 1968 0
1969 1970 1971 0
1972 1973 1974 0
1975 1976 1977 0
1978 1979 1980 0
1981 1982 1983 0
1984 1985 1986 0
1987 1988 1989 0
1990 1991 1992 0
1993 1994 1995 0
1996 1997 1998 0
1999 2000 2001 0
2002 2003 2004 0
2005 2006 2007 0
2008 2009 2010 0
2011 2012 2013 0
2014 2015 2016 0
2017 2018 2019 0
2020 2021 2022 0
2023 2024 2025 0
2026 2027 2028 0
2029 2030 2031 0
2032 2033 2034 0
2035 2036 2037 0
2038 2039 2040 0
2041 2042 2043 0
2044 2045 2046 0
2047 2048 2049 0
2050 2051 2052 0
2053 2054 2055 0
2056 2057 2058 0
2059 2060 2061 0
2062 2063 2064 0
2065 2066 2067 0
2068 2069 2070 0
2071 2072 2073 0
2074 2075 2076 0
2077 2078 2079 0
2080 2081 2082 0
2083 2084 2085 0
2086 2087 2088 0
2089 2090 2091 0
2092 2093 2094 0
2095 2096 2097 0
2098 2099 2100 0
2101 2102 2103 0
2104 2105 2106 0
2107 2108 2109 0
2110 2111 2112 0
2113 2114 2115 0
2116 2117 2118 0
2119 2120 2121 0
2122 2123 2124 0
2125 2126 2127 0
2128 2129 2130 0
2131 2132 2133 0
2134 2135 2136 0
2137 2138 2139 0
2140 2141 2142 0
2143 2144 2145 0
2146 2147 2148 0
2149 2150 2151 0
2152 2153 2154 0
2155 2156 2157 0
2158 2159 2160 0
2161 2162 2163 0
2164 2165 2166 0
2167 2168 2169 0
2170 2171 2172 0
2173 2174 2175 0
2176 2177 2178 0
2179 2180 2181 0
2182 2183 2184 0
2185 2186 2187 0
2188 2189 2190 0
2191 2192 2193 0
2194 2195 2196 0
2197 2198 2199 0
2200 2201 2202 0
2203 2204 2205 0
2206 2207 2208 0
2209 2210 2211 0
2212 2213 2214 0
2215 2216 2217 0
2218 2219 2220 0
2221 2222 2223 0
2224 2225 2226 0
2227 2228 2229 0
2230 2231 2232 0
2233 2234 2235 0
2236 2237 2238 0
2239 2240 2241 0
2242 2243 2244 0
2245 2246 2247 0
2248 2249 2250 0
2251 2252 2253 0
2254 2255 2256 0
2257 2258 2259 0
2260 2261 2262 0
2263 2264 2265 0
2266 2267 2268 0
2269 2270 2271 0
2272 2273 2274 0
2275 2276 2277 0
2278 2279 2280 0
2281 2282 2283 0
2284 2285 2286 0
2287 2288 2289 0
2290 2291 2292 0
2293 2294 2295 0
2296 2297 2298 0
2299 2300 2301 0
2302 2303 2304 0
2305 2306 2307 0
2308 2309 2310 0
2311 2312 2313 0
2314 2315 2316 0
2317 2318 2319 0
2320 2321 2322 0
2323 2324 2325 0
2326 2327 2328 0
2329 2330 2331 0
2332 2333 2334 0
2335 2336 2337 0
2338 2339 2340 0
2341 2342 2343 0
2344 2345 2346 0
2347 2348 2349 0
2350 2351 2352 0
2353 2354 2355 0
2356 2357 2358 0
2359 2360 2361 0
2362 2363 2364 0
2365 2366 2367 0
2368 2369 2370 0
2371 2372 2373 0
2374 2375 2376 0
2377 2378 2379 0
2380 2381 2382 0
2383 2384 2385 0
2386 2387 2388 0
2389 2390 2391 0
2392 2393 2394 0
2395 2396 2397 0
2398 2399 2400 0
2401 2402 2403 0
2404 2405 2406 0
2407 2408 2409 0
2410 2411 2412 0
2413 2414 2415 0
2416 2417 2418 0
2419 2420 2421 0
2422 2423 2424 0
2425 2426 2427 0
2428 2429 2430 0
2431 2432 2433 0
2434 2435 2436 0
2437 2438 2439 0
2440 2441 2442 0
2443 2444 2445 0
2446 2447 2448 0
2449 2450 2451 0
2452 2453 2454 0
2455 2456 2457 0
2458 2459 2460 0
2461 2462 2463 0
2464 2465 2466 0
2467 2468 2469 0
2470 2471 2472 0
2473 2474 2475 0
2476 2477 2478 0
2479 2480 2481 0
2482 2483 2484 0
2485 2486 2487 0
2488 2489 2490 0
2491 2492 2493 0
2494 2495 2496 0
2497 2498 2499 0
2500 2501 2502 0
2503 2504 2505 0
2506 2507 2508 0
2509 2510 2511 0
2512 2513 2514 0
2515 2516 2517 0
2518 2519 2520 0
2521 2522 2523 0
2524 2525 2526 0
2527 2528 2529 0
2530 2531 2532 0
2533 2534 2535 0
2536 2537 2538 0
2539 2540 2541 0
2542 2543 2544 0
2545 2546 2547 0
2548 2549 2550 0
2551 2552 2553 0
2554 2555 2556 0
2557 2558 2559 0
2560 2561 2562 0
2563 2564 2565 0
2566 2567 2568 0
2569 2570 2571 0
2572 2573 2574 0
2575 2576 2577 0
2578 2579 2580 0
2581 2582 2583 0
2584 2585 2586 0
2587 2588 2589 0
2590 2591 2592 0
2593 2594 2595 0
2596 2597 2598 0
2599 2600 2601 0
2602 2603 2604 0
2605 2606 2607 0
2608 2609 2610 0
2611 2612 2613 0
2614 2615 2616 0
2617 2618 2619 0
2620 2621 2622 0
2623 2624 2625 0
2626 2627 2628 0
2629 2630 2631 0
2632 2633 2634 0
2635 2636 2637 0
2638 2639 2640 0
2641 2642 2643 0
2644 2645 2646 0
2647 2648 2649 0
2650 2651 2652 0
2653 2654 2655 0
2656 2657 2658 0
2659 2660 2661 0
2662 2663 2664 0
2665 2666 2667 0
2668 2669 2670 0
2671 2672 2673 0
2674 2675 2676 0
2677 2678 2679 0
2680 2681 2682 0
2683 2684 2685 0
2686 2687 2688 0
2689 2690 2691 0
2692 2693 2694 0
2695 2696 2697 0
2698 2699 2700 0
2701 2702 2703 0
2704 2705 2706 0
2707 2708 2709 0
2710 2711 2712 0
2713 2714 2715 0
2716 2717 2718 0
2719 2720 2721 0
2722 2723 2724 0
2725 2726 2727 0
2728 2729 2730 0
2731 2732 2733 0
2734 2735 2736 0
2737 2738 2739 0
2740 2741 2742 0
2743 2744 2745 0
2746 2747 2748 0
2749 2750 2751 0
2752 2753 2754 0
2755 2756 2757 0
2758 2759 2760 0
2761 2762 2763 0
2764 2765 2766 0
2767 2768 2769 0
2770 2771 2772 0
2773 2774 2775 0
2776 2777 2778 0
2779 2780 2781 0
2782 2783 2784 0
2785 2786 2787 0
2788 2789 2790 0
2791 2792 2793 0
2794 2795 2796 0
2797 2798 2799 0
2800 2801 2802 0
2803 2804 2805 0
2806 2807 2808 0
2809 2810 2811 0
2812 2813 2814 0
2815 2816 2817 0
2818 2819 2820 0
2821 2822 2823 0
2824 2825 2826 0
2827 2828 2829 0
2830 2831 2832 0
2833 2834 2835 0
2836 2837 2838 0
2839 2840 2841 0
2842 2843 2844 0
2845 2846 2847 0
2848 2849 2850 0
2851 2852 2853 0
2854 2855 2856 0
2857 2858 2859 0
2860 2861 2862 0
2863 2864 2865 0
2866 2867 2868 0
2869 2870 2871 0
2872 2873 2874 0
2875 2876 2877 0
2878 2879 2880 0
2881 2882 2883 0
2884 2885 2886 0
2887 2888 2889 0
2890 2891 2892 0
2893 2894 2895 0
2896 2897 2898 0
2899 2900 2901 0
2902 2903 2904 0
2905 2906 2907 0
2908 2909 2910 0
2911 2912 2913 0
2914 2915 2916 0
2917 2918 2919 0
2920 2921 2922 0
2923 2924 2925 0
2926 2927 2928 0
2929 2930 2931 0
2932 2933 2934 0
2935 2936 2937 0
2938 2939 2940 0
2941 2942 2943 0
2944 2945 2946 0
2947 2948 2949 0
2950 2951 2952 0
2953 2954 2955 0
2956 2957 2958 0
2959 2960 2961 0
2962 2963 2964 0
2965 2966 2967 0
2968 2969 2970 0
2971 2972 2973 0
2974 2975 2976 0
2977 2978 2979 0
2980 2981 2982 0
2983 2984 2985 0
2986 2987 2988 0
2989 2990 2991 0
2992 2993 2994 0
2995 2996 2997 0
2998 2999 3000 0
3001 3002 3003 0
3004 3005 3006 0
3007 3008 3009 0
3010 3011 3012 0
3013 3014 3015 0
3016 3017 3018 0
3019 3020 3021 0
3022 3023 3024 0
3025 3026 3027 0
3028 3029 3030 0
3031 3032 3033 0
3034 3035 3036 0
3037 3038 3039 0
3040 3041 3042 0
3043 3044 3045 0
3046 3047 3048 0
3049 3050 3051 0
3052 3053 3054 0
3055 3056 3057 0
3058 3059 3060 0
3061 3062 3063 0
3064 3065 3066 0
3067 3068 3069 0
3070 3071 3072 0
3073 3074 3075 0
3076 3077 3078 0
3079 3080 3081 0
3082 3083 3084 0
3085 3086 3087 0
3088 3089 3090 0
3091 3092 3093 0
3094 3095 3096 0
3097 3098 3099 0
3100 3101 3102 0
3103 3104 3105 0
3106 3107 3108 0
3109 3110 3111 0
3112 3113 3114 0
3115 3116 3117 0
3118 3119 3120 0
3121 3122 3123 0
3124 3125 3126 0
3127 3128 3129 0
3130 3131 3132 0
3133 3134 3135 0
3136 3137 3138 0
3139 3140 3141 0
3142 3143 3144 0
3145 3146 3147 0
3148 3149 3150 0
3151 3152 3153 0
3154 3155 3156 0
3157 3158 3159 0
3160 3161 3162 0
3163 3164 3165 0
3166 3167 3168 0
3169 3170 3171 0
3172 3173 3174 0
3175 3176 3177 0
3178 3179 3180 0
3181 3182 3183 0
3184 3185 3186 0
3187 3188 3189 0
3190 3191 3192 0
3193 3194 3195 0
3196 3197 3198 0
3199 3200 3201 0
3202 3203 3204 0
3205 3206 3207 0
3208 3209 3210 0
3211 3212 3213 0
3214 3215 3216 0
3217 3218 3219 0
3220 3221 3222 0
3223 3224 3225 0
3226 3227 3228 0
3229 3230 3231 0
3232 3233 3234 0
3235 3236 3237 0
3238 3239 3240 0
3241 3242 3243 0
3244 3245 3246 0
3247 3248 3249 0
3250 3251 3252 0
3253 3254 3255 0
3256 3257 3258 0
3259 3260 3261 0
3262 3263 3264 0
3265 3266 3267 0
3268 3269 3270 0
3271 3272 3273 0
3274 3275 3276 0
3277 3278 3279 0
3280 3281 3282 0
3283 3284 3285 0
3286 3287 3288 0
3289 3290 3291 0
3292 3293 3294 0
3295 3296 3297 0
3298 3299 3300 0
3301 3302 3303 0
3304 3305 3306 0
3307 3308 3309 0
3310 3311 3312 0
3313 3314 3315 0
3316 3317 3318 0
3319 3320 3321 0
3322 3323 3324 0
3325 3326 3327 0
3328 3329 3330 0
3331 3332 3333 0
3334 3335 3336 0
3337 3338 3339 0
3340 3341 3342 0
3343 3344 3345 0
3346 3347 3348 0
3349 3350 3351 0
3352 3353 3354 0
3355 3356 3357 0
3358 3359 3360 0
3361 3362 3363 0
3364 3365 3366 0
3367 3368 3369 0
3370 3371 3372 0
3373 3374 3375 0
3376 3377 3378 0
3379 3380 3381 0
3382 3383 3384 0
3385 3386 3387 0
3388 3389 3390 0
3391 3392 3393 0
3394 3395 3396 0
3397 3398 3399 0
3400 3401 3402 0
3403 3404 3405 0
3406 3407 3408 0
3409 3410 3411 0
3412 3413 3414 0
3415 3416 3417 0
3418 3419 3420 0
3421 3422 3423 0
3424 3425 3426 0
3427 3428 3429 0
3430 3431 3432 0
3433 3434 3435 0
3436 3437 3438 0
3439 3440 3441 0
3442 3443 3444 0
3445 3446 3447 0
3448 3449 3450 0
3451 3452 3453 0
3454 3455 3456 0
3457 3458 3459 0
3460 3461 3462 0
3463 3464 3465 0
3466 3467 3468 0
3469 3470 3471 0
3472 3473 3474 0
3475 3476 3477 0
3478 3479 3480 0
3481 3482 3483 0
3484 3485 3486 0
3487 3488 3489 0
3490 3491 3492 0
3493 3494 3495 0
3496 3497 3498 0
3499 3500 3501 0
3502 3503 3504 0
3505 3506 3507 0
3508 3509 3510 0
3511 3512 3513 0
3514 3515 3516 0
3517 3518 3519 0
3520 3521 3522 0
3523 3524 3525 0
3526 3527 3528 0
3529 3530 3531 0
3532 3533 3534 0
3535 3536 3537 0
3538 3539 3540 0
3541 3542 3543 0
3544 3545 3546 0
3547 3548 3549 0
3550 3551 3552 0
3553 3554 3555 0
3556 3557 3558 0
3559 3560 3561 0
3562 3563 3564 0
3565 3566 3567 0
3568 3569 3570 0
3571 3572 3573 0
3574 3575 3576 0
3577 3578 3579 0
3580 3581 3582 0
3583 3584 3585 0
3586 3587 3588 0
3589 3590 3591 0
3592 3593 3594 0
3595 3596 3597 0
3598 3599 3600 0
3601 3602 3603 0
3604 3605 3606 0
3607 3608 3609 0
3610 3611 3612 0
3613 3614 3615 0
3616 3617 3618 0
3619 3620 3621 0
3622 3623 3624 0
3625 3626 3627 0
3628 3629 3630 0
3631 3632 3633 0
3634 3635 3636 0
3637 3638 3639 0
3640 3641 3642 0
3643 3644 3645 0
3646 3647 3648 0
3649 3650 3651 0
3652 3653 3654 0
3655 3656 3657 0
3658 3659 3660 0
3661 3662 3663 0
3664 3665 3666 0
3667 3668 3669 0
3670 3671 3672 0
3673 3674 3675 0
3676 3677 3678 0
3679 3680 3681 0
3682 3683 3684 0
3685 3686 3687 0
3688 3689 3690 0
3691 3692 3693 0
3694 3695 3696 0
3697 3698 3699 0
3700 3701 3702 0
3703 3704 3705 0
3706 3707 3708 0
3709 3710 3711 0
3712 3713 3714 0
3715 3716 3717 0
3718 3719 3720 0
3721 3722 3723 0
3724 3725 3726 0
3727 3728 3729 0
3730 3731 3732 0
3733 3734 3735 0
3736 3737 3738 0
3739 3740 3741 0
3742 3743 3744 0
3745 3746 3747 0
3748 3749 3750 0
3751 3752 3753 0
3754 3755 3756 0
3757 3758 3759 0
3760 3761 3762 0
3763 3764 3765 0
3766 3767 3768 0
3769 3770 3771 0
3772 3773 3774 0
3775 3776 3777 0
3778 3779 3780 0
3781 3782 3783 0
3784 3785 3786 0
3787 3788 3789 0
3790 3791 3792 0
3793 3794 3795 0
3796 3797 3798 0
3799 3800 3801 0
3802 3803 3804 0
3805 3806 3807 0
3808 3809 3810 0
3811 3812 3813 0
3814 3815 3816 0
3817 3818 3819 0
3820 3821 3822 0
3823 3824 3825 0
3826 3827 3828 0
3829 3830 3831 0
3832 3833 3834 0
3835 3836 3837 0
3838 3839 3840 0
3841 3842 3843 0
3844 3845 3846 0
3847 3848 3849 0
3850 3851 3852 0
3853 3854 3855 0
3856 3857 3858 0
3859 3860 3861 0
3862 3863 3864 0
3865 3866 3867 0
3868 3869 3870 0
3871 3872 3873 0
3874 3875 3876 0
3877 3878 3879 0
3880 3881 3882 0
3883 3884 3885 0
3886 3887 3888 0
3889 3890 3891 0
3892 3893 3894 0
3895 3896 3897 0
3898 3899 3900 0
3901 3902 3903 0
3904 3905 3906 0
3907 3908 3909 0
3910 3911 3912 0
3913 3914 3915 0
3916 3917 3918 0
3919 3920 3921 0
3922 3923 3924 0
3925 3926 3927 0
3928 3929 3930 0
3931 3932 3933 0
3934 3935 3936 0
3937 3938 3939 0
3940 3941 3942 0
3943 3944 3945 0
3946 3947 3948 0
3949 3950 3951 0
3952 3953 3954 0
3955 3956 3957 0
3958 3959 3960 0
3961 3962 3963 0
3964 3965 3966 0
3967 3968 3969 0
3970 3971 3972 0
3973 3974 3975 0
3976 3977 3978 0
3979 3980 3981 0
3982 3983 3984 0
3985 3986 3987 0
3988 3989 3990 0
3991 3992 3993 0
3994 3995 3996 0
3997 3998 3999 0
4000 4001 4002 0
4003 4004 4005 0
4006 4007 4008 0
4009 4010 4011 0
4012 4013 4014 0
4015 4016 4017 0
4018 4019 4020 0
4021 4022 4023 0
4024 4025 4026 0
4027 4028 4029 0
4030 4031 4032 0
4033 4034 4035 0
4036 4037 4038 0
4039 4040 4041 0
4042 4043 4044 0
4045 4046 4047 0
4048 4049 4050 0
4051 4052 4053 0
4054 4055 4056 0
4057 4058 4059 0
4060 4061 4062 0
4063 4064 4065 0
4066 4067 4068 0
4069 4070 4071 0
4072 4073 4074 0
4075 4076 4077 0
4078 4079 4080 0
4081 4082 4083 0
4084 4085 4086 0
4087 4088 4089 0
4090 4091 4092 0
4093 4094 4095 0
4096 4097 4098 0
4099 4100 4101 0
4102 4103 4104 0
4105 4106 4107 0
4108 4109 4110 0
4111 4112 4113 0
4114 4115 4116 0
4117 4118 4119 0
4120 4121 4122 0
4123 4124 4125 0
4126 4127 4128 0
4129 4130 4131 0
4132 4133 4134 0
4135 4136 4137 0
4138 4139 4140 0
4141 4142 4143 0
4144 4145 4146 0
4147 4148 4149 0
4150 4151 4152 0
4153 4154 4155 0
4156 4157 4158 0
4159 4160 4161 0
4162 4163 4164 0
4165 4166 4167 0
4168 4169 4170 0
4171 4172 4173 0
4174 4175 4176 0
4177 4178 4179 0
4180 4181 4182 0
4183 4184 4185 0
4186 4187 4188 0
4189 4190 4191 0
4192 4193 4194 0
4195 4196 4197 0
4198 4199 4200 0
4201 4202 4203 0
4204 4205 4206 0
4207 4208 4209 0
4210 4211 4212 0
-1 -2926 0
-2 -2927 0
-3 -2928 0
-1 -3814 0
-2 -3815 0
-3 -3816 0
-1 -4063 0
-2 -4064 0
-3 -4065 0
-1 -4066 0
-2 -4067 0
-3 -4068 0
-1 -127 0
-2 -128 0
-3 -129 0
-1 -3820 0
-2 -3821 0
-3 -3822 0
-1 -4192 0
-2 -4193 0
-3 -4194 0
-1 -2941 0
-2 -2942 0
-3 -2943 0
-1 -2389 0
-2 -2390 0
-3 -2391 0
-4 -3649 0
-5 -3650 0
-6 -3651 0
-4 -145 0
-5 -146 0
-6 -147 0
-4 -2797 0
-5 -2798 0
-6 -2799 0
-4 -214 0
-5 -215 0
-6 -216 0
-7 -199 0
-8 -200 0
-9 -201 0
-7 -1942 0
-8 -1943 0
-9 -1944 0
-7 -3379 0
-8 -3380 0
-9 -3381 0
-7 -1990 0
-8 -1991 0
-9 -1992 0
-10 -3988 0
-11 -3989 0
-12 -3990 0
-10 -202 0
-11 -203 0
-12 -204 0
-10 -3925 0
-11 -3926 0
-12 -3927 0
-10 -3979 0
-11 -3980 0
-12 -3981 0
-10 -4195 0
-11 -4196 0
-12 -4197 0
-10 -211 0
-11 -212 0
-12 -213 0
-10 -2944 0
-11 -2945 0
-12 -2946 0
-13 -3202 0
-14 -3203 0
-15 -3204 0
-13 -3208 0
-14 -3209 0
-15 -3210 0
-13 -199 0
-14 -200 0
-15 -201 0
-13 -4147 0
-14 -4148 0
-15 -4149 0
-13 -4150 0
-14 -4151 0
-15 -4152 0
-13 -2002 0
-14 -2003 0
-15 -2004 0
-13 -2005 0
-14 -2006 0
-15 -2007 0
-13 -214 0
-14 -215 0
-15 -216 0
-13 -2545 0
-14 -2546 0
-15 -2547 0
-16 -2548 0
-17 -2549 0
-18 -2550 0
-16 -2572 0
-17 -2573 0
-18 -2574 0
-16 -127 0
-17 -128 0
-18 -129 0
-16 -2737 0
-17 -2738 0
-18 -2739 0
-16 -370 0
-17 -371 0
-18 -372 0
-16 -2812 0
-17 -2813 0
-18 -2814 0
-16 -2587 0
-17 -2588 0
-18 -2589 0
-19 -3205 0
-20 -3206 0
-21 -3207 0
-19 -2335 0
-20 -2336 0
-21 -2337 0
-19 -379 0
-20 -380 0
-21 -381 0
-19 -2827 0
-20 -2828 0
-21 -2829 0
-19 -4018 0
-20 -4019 0
-21 -4020 0
-19 -127 0
-20 -128 0
-21 -129 0
-19 -2581 0
-20 -2582 0
-21 -2583 0
-19 -3013 0
-20 -3014 0
-21 -3015 0
-19 -2008 0
-20 -2009 0
-21 -2010 0
-19 -3466 0
-20 -3467 0
-21 -3468 0
-22 -202 0
-23 -203 0
-24 -204 0
-22 -3718 0
-23 -3719 0
-24 -3720 0
-22 -316 0
-23 -317 0
-24 -318 0
-25 -1945 0
-26 -1946 0
-27 -1947 0
-25 -268 0
-26 -269 0
-27 -270 0
-25 -1951 0
-26 -1952 0
-27 -1953 0
-28 -148 0
-29 -149 0
-30 -150 0
-28 -4072 0
-29 -4073 0
-30 -4074 0
-28 -382 0
-29 -383 0
-30 -384 0
-28 -2236 0
-29 -2237 0
-30 -2238 0
-28 -3985 0
-29 -3986 0
-30 -3987 0
-31 -3628 0
-32 -3629 0
-33 -3630 0
-31 -148 0
-32 -149 0
-33 -150 0
-31 -397 0
-32 -398 0
-33 -399 0
-31 -3907 0
-32 -3908 0
-33 -3909 0
-31 -2797 0
-32 -2798 0
-33 -2799 0
-31 -3928 0
-32 -3929 0
-33 -3930 0
-34 -2575 0
-35 -2576 0
-36 -2577 0
-34 -3244 0
-35 -3245 0
-36 -3246 0
-34 -148 0
-35 -149 0
-36 -150 0
-34 -3253 0
-35 -3254 0
-36 -3255 0
-34 -406 0
-35 -407 0
-36 -408 0
-37 -3157 0
-38 -3158 0
-39 -3159 0
-37 -316 0
-38 -317 0
-39 -318 0
-37 -268 0
-38 -269 0
-39 -270 0
-37 -1996 0
-38 -1997 0
-39 -1998 0
-37 -3931 0
-38 -3932 0
-39 -3933 0
-37 -2011 0
-38 -2012 0
-39 -2013 0
-40 -3127 0
-41 -3128 0
-42 -3129 0
-40 -2440 0
-41 -2441 0
-42 -2442 0
-40 -295 0
-41 -296 0
-42 -297 0
-40 -2086 0
-41 -2087 0
-42 -2088 0
-40 -4069 0
-41 -4070 0
-42 -4071 0
-40 -2746 0
-41 -2747 0
-42 -2748 0
-40 -3190 0
-41 -3191 0
-42 -3192 0
-43 -2437 0
-44 -2438 0
-45 -2439 0
-43 -3472 0
-44 -3473 0
-45 -3474 0
-43 -298 0
-44 -299 0
-45 -300 0
-43 -2419 0
-44 -2420 0
-45 -2421 0
-43 -3427 0
-44 -3428 0
-45 -3429 0
-43 -3487 0
-44 -3488 0
-45 -3489 0
-43 -2431 0
-44 -2432 0
-45 -2433 0
-46 -298 0
-47 -299 0
-48 -300 0
-46 -313 0
-47 -314 0
-48 -315 0
-46 -3727 0
-47 -3728 0
-48 -3729 0
-46 -2977 0
-47 -2978 0
-48 -2979 0
-49 -3967 0
-50 -3968 0
-51 -3969 0
-49 -3550 0
-50 -3551 0
-51 -3552 0
-49 -1936 0
-50 -1937 0
-51 -1938 0
-49 -295 0
-50 -296 0
-51 -297 0
-49 -2800 0
-50 -2801 0
-51 -2802 0
-49 -3976 0
-50 -3977 0
-51 -3978 0
-49 -3490 0
-50 -3491 0
-51 -3492 0
-49 -316 0
-50 -317 0
-51 -318 0
-49 -3721 0
-50 -3722 0
-51 -3723 0
-52 -2968 0
-53 -2969 0
-54 -2970 0
-52 -3241 0
-53 -3242 0
-54 -3243 0
-52 -2446 0
-53 -2447 0
-54 -2448 0
-52 -2332 0
-53 -2333 0
-54 -2334 0
-52 -2044 0
-53 -2045 0
-54 -2046 0
-52 -2050 0
-53 -2051 0
-54 -2052 0
-52 -3424 0
-53 -3425 0
-54 -3426 0
-52 -316 0
-53 -317 0
-54 -318 0
-52 -3583 0
-53 -3584 0
-54 -3585 0
-52 -3346 0
-53 -3347 0
-54 -3348 0
-52 -3190 0
-53 -3191 0
-54 -3192 0
-52 -3625 0
-53 -3626 0
-54 -3627 0
-55 -202 0
-56 -203 0
-57 -204 0
-55 -397 0
-56 -398 0
-57 -399 0
-55 -2797 0
-56 -2798 0
-57 -2799 0
-58 -2326 0
-59 -2327 0
-60 -2328 0
-58 -526 0
-59 -527 0
-60 -528 0
-58 -127 0
-59 -128 0
-60 -129 0
-58 -2014 0
-59 -2015 0
-60 -2016 0
-58 -3868 0
-59 -3869 0
-60 -3870 0
-61 -535 0
-62 -536 0
-63 -537 0
-61 -3862 0
-62 -3863 0
-63 -3864 0
-61 -127 0
-62 -128 0
-63 -129 0
-61 -2902 0
-62 -2903 0
-63 -2904 0
-61 -3736 0
-62 -3737 0
-63 -3738 0
-64 -2572 0
-65 -2573 0
-66 -2574 0
-64 -3814 0
-65 -3815 0
-66 -3816 0
-64 -259 0
-65 -260 0
-66 -261 0
-64 -370 0
-65 -371 0
-66 -372 0
-64 -3796 0
-65 -3797 0
-66 -3798 0
-67 -2464 0
-68 -2465 0
-69 -2466 0
-67 -250 0
-68 -251 0
-69 -252 0
-67 -403 0
-68 -404 0
-69 -405 0
-67 -3730 0
-68 -3731 0
-69 -3732 0
-70 -397 0
-71 -398 0
-72 -399 0
-70 -3094 0
-71 -3095 0
-72 -3096 0
-70 -3754 0
-71 -3755 0
-72 -3756 0
-70 -3733 0
-71 -3734 0
-72 -3735 0
-70 -268 0
-71 -269 0
-72 -270 0
-70 -2311 0
-71 -2312 0
-72 -2313 0
-73 -2575 0
-74 -2576 0
-75 -2577 0
-73 -3079 0
-74 -3080 0
-75 -3081 0
-73 -148 0
-74 -149 0
-75 -150 0
-73 -3913 0
-74 -3914 0
-75 -3915 0
-73 -3010 0
-74 -3011 0
-75 -3012 0
-73 -577 0
-74 -578 0
-75 -579 0
-73 -2590 0
-74 -2591 0
-75 -2592 0
-76 -295 0
-77 -296 0
-78 -297 0
-76 -3580 0
-77 -3581 0
-78 -3582 0
-76 -403 0
-77 -404 0
-78 -405 0
-76 -2524 0
-77 -2525 0
-78 -2526 0
-79 -148 0
-80 -149 0
-81 -150 0
-79 -676 0
-80 -677 0
-81 -678 0
-79 -3154 0
-80 -3155 0
-81 -3156 0
-82 -3202 0
-83 -3203 0
-84 -3204 0
-82 -1990 0
-83 -1991 0
-84 -1992 0
-82 -1882 0
-83 -1883 0
-84 -1884 0
-82 -214 0
-83 -215 0
-84 -216 0
-85 -199 0
-86 -200 0
-87 -201 0
-85 -535 0
-86 -536 0
-87 -537 0
-85 -1882 0
-86 -1883 0
-87 -1884 0
-85 -2545 0
-86 -2546 0
-87 -2547 0
-88 -202 0
-89 -203 0
-90 -204 0
-88 -559 0
-89 -560 0
-90 -561 0
-88 -2803 0
-89 -2804 0
-90 -2805 0
-88 -3925 0
-89 -3926 0
-90 -3927 0
-88 -2836 0
-89 -2837 0
-90 -2838 0
-91 -2971 0
-92 -2972 0
-93 -2973 0
-91 -3835 0
-92 -3836 0
-93 -3837 0
-91 -379 0
-92 -380 0
-93 -381 0
-91 -2941 0
-92 -2942 0
-93 -2943 0
-94 -202 0
-95 -203 0
-96 -204 0
-94 -676 0
-95 -677 0
-96 -678 0
-94 -2290 0
-95 -2291 0
-96 -2292 0
-94 -2065 0
-95 -2066 0
-96 -2067 0
-97 -3469 0
-98 -3470 0
-99 -3471 0
-97 -2398 0
-98 -2399 0
-99 -2400 0
-97 -628 0
-98 -629 0
-99 -630 0
-97 -259 0
-98 -260 0
-99 -261 0
-97 -3265 0
-98 -3266 0
-99 -3267 0
-97 -3187 0
-98 -3188 0
-99 -3189 0
-100 -2869 0
-101 -2870 0
-102 -2871 0
-100 -3637 0
-101 -3638 0
-102 -3639 0
-100 -1870 0
-101 -1871 0
-102 -1872 0
-100 -2287 0
-101 -2288 0
-102 -2289 0
-100 -403 0
-101 -404 0
-102 -405 0
-100 -3856 0
-101 -3857 0
-102 -3858 0
-100 -2818 0
-101 -2819 0
-102 -2820 0
-103 -4207 0
-104 -4208 0
-105 -4209 0
-103 -1939 0
-104 -1940 0
-105 -1941 0
-103 -3841 0
-104 -3842 0
-105 -3843 0
-103 -406 0
-104 -407 0
-105 -408 0
-103 -1948 0
-104 -1949 0
-105 -1950 0
-103 -2953 0
-104 -2954 0
-105 -2955 0
-106 -277 0
-107 -278 0
-108 -279 0
-106 -3946 0
-107 -3947 0
-108 -3948 0
-106 -3793 0
-107 -3794 0
-108 -3795 0
-106 -652 0
-107 -653 0
-108 -654 0
-109 -4069 0
-110 -4070 0
-111 -4071 0
-109 -3658 0
-110 -3659 0
-111 -3660 0
-109 -316 0
-110 -317 0
-111 -318 0
-109 -577 0
-110 -578 0
-111 -579 0
-109 -2068 0
-110 -2069 0
-111 -2070 0
-112 -295 0
-113 -296 0
-114 -297 0
-112 -2446 0
-113 -2447 0
-114 -2448 0
-112 -628 0
-113 -629 0
-114 -630 0
-112 -2071 0
-113 -2072 0
-114 -2073 0
-115 -3136 0
-116 -3137 0
-117 -3138 0
-115 -397 0
-116 -398 0
-117 -399 0
-115 -3148 0
-116 -3149 0
-117 -3150 0
-115 -448 0
-116 -449 0
-117 -450 0
-118 -2620 0
-119 -2621 0
-120 -2622 0
-118 -3661 0
-119 -3662 0
-120 -3663 0
-118 -466 0
-119 -467 0
-120 -468 0
-118 -385 0
-119 -386 0
-120 -387 0
-121 -526 0
-122 -527 0
-123 -528 0
-121 -397 0
-122 -398 0
-123 -399 0
-121 -3904 0
-122 -3905 0
-123 -3906 0
-121 -3910 0
-122 -3911 0
-123 -3912 0
-121 -3160 0
-122 -3161 0
-123 -3162 0
-124 -127 0
-125 -128 0
-126 -129 0
-124 -979 0
-125 -980 0
-126 -981 0
-124 -3538 0
-125 -3539 0
-126 -3540 0
-124 -3796 0
-125 -3797 0
-126 -3798 0
-124 -3466 0
-125 -3467 0
-126 -3468 0
-127 -772 0
-128 -773 0
-129 -774 0
-127 -400 0
-128 -401 0
-129 -402 0
-127 -409 0
-128 -410 0
-129 -411 0
-127 -514 0
-128 -515 0
-129 -516 0
-127 -517 0
-128 -518 0
-129 -519 0
-127 -802 0
-128 -803 0
-129 -804 0
-127 -805 0
-128 -806 0
-129 -807 0
-127 -565 0
-128 -566 0
-129 -567 0
-127 -568 0
-128 -569 0
-129 -570 0
-127 -718 0
-128 -719 0
-129 -720 0
-127 -721 0
-128 -722 0
-129 -723 0
-127 -733 0
-128 -734 0
-129 -735 0
-127 -736 0
-128 -737 0
-129 -738 0
-127 -349 0
-128 -350 0
-129 -351 0
-127 -352 0
-128 -353 0
-129 -354 0
-127 -982 0
-128 -983 0
-129 -984 0
-127 -355 0
-128 -356 0
-129 -357 0
-127 -130 0
-128 -131 0
-129 -132 0
-127 -358 0
-128 -359 0
-129 -360 0
-127 -133 0
-128 -134 0
-129 -135 0
-127 -769 0
-128 -770 0
-129 -771 0
-130 -3205 0
-131 -3206 0
-132 -3207 0
-130 -3238 0
-131 -3239 0
-132 -3240 0
-130 -985 0
-131 -986 0
-132 -987 0
-130 -2245 0
-131 -2246 0
-132 -2247 0
-130 -3835 0
-131 -3836 0
-132 -3837 0
-133 -3565 0
-134 -3566 0
-135 -3567 0
-133 -3142 0
-134 -3143 0
-135 -3144 0
-133 -1018 0
-134 -1019 0
-135 -1020 0
-136 -559 0
-137 -560 0
-138 -561 0
-136 -2248 0
-137 -2249 0
-138 -2250 0
-136 -2743 0
-137 -2744 0
-138 -2745 0
-136 -2239 0
-137 -2240 0
-138 -2241 0
-136 -382 0
-137 -383 0
-138 -384 0
-139 -3871 0
-140 -3872 0
-141 -3873 0
-139 -4015 0
-140 -4016 0
-141 -4017 0
-139 -148 0
-140 -149 0
-141 -150 0
-139 -3259 0
-140 -3260 0
-141 -3261 0
-139 -943 0
-140 -944 0
-141 -945 0
-142 -2749 0
-143 -2750 0
-144 -2751 0
-142 -3475 0
-143 -3476 0
-144 -3477 0
-142 -148 0
-143 -149 0
-144 -150 0
-142 -979 0
-143 -980 0
-144 -981 0
-142 -3928 0
-143 -3929 0
-144 -3930 0
-145 -418 0
-146 -419 0
-147 -420 0
-145 -427 0
-146 -428 0
-147 -429 0
-145 -982 0
-146 -983 0
-147 -984 0
-148 -778 0
-149 -779 0
-150 -780 0
-148 -1057 0
-149 -1058 0
-150 -1059 0
-148 -781 0
-149 -782 0
-150 -783 0
-148 -412 0
-149 -413 0
-150 -414 0
-148 -787 0
-149 -788 0
-150 -789 0
-148 -421 0
-149 -422 0
-150 -423 0
-148 -424 0
-149 -425 0
-150 -426 0
-148 -439 0
-149 -440 0
-150 -441 0
-148 -574 0
-149 -575 0
-150 -576 0
-148 -982 0
-149 -983 0
-150 -984 0
-148 -151 0
-149 -152 0
-150 -153 0
-148 -154 0
-149 -155 0
-150 -156 0
-151 -3943 0
-152 -3944 0
-153 -3945 0
-151 -2578 0
-152 -2579 0
-153 -2580 0
-151 -3475 0
-152 -3476 0
-153 -3477 0
-151 -3094 0
-152 -3095 0
-153 -3096 0
-151 -3508 0
-152 -3509 0
-153 -3510 0
-151 -994 0
-152 -995 0
-153 -996 0
-151 -2311 0
-152 -2312 0
-153 -2313 0
-154 -3250 0
-155 -3251 0
-156 -3252 0
-154 -3010 0
-155 -3011 0
-156 -3012 0
-154 -1027 0
-155 -1028 0
-156 -1029 0
-157 -2266 0
-158 -2267 0
-159 -2268 0
-157 -2602 0
-158 -2603 0
-159 -2604 0
-157 -379 0
-158 -380 0
-159 -381 0
-157 -577 0
-158 -578 0
-159 -579 0
-160 -397 0
-161 -398 0
-162 -399 0
-160 -2263 0
-161 -2264 0
-162 -2265 0
-160 -3838 0
-161 -3839 0
-162 -3840 0
-160 -577 0
-161 -578 0
-162 -579 0
-163 -2398 0
-164 -2399 0
-165 -2400 0
-163 -628 0
-164 -629 0
-165 -630 0
-163 -382 0
-164 -383 0
-165 -384 0
-163 -2392 0
-164 -2393 0
-165 -2394 0
-166 -2575 0
-167 -2576 0
-168 -2577 0
-166 -3505 0
-167 -3506 0
-168 -3507 0
-166 -406 0
-167 -407 0
-168 -408 0
-166 -1999 0
-167 -2000 0
-168 -2001 0
-166 -577 0
-167 -578 0
-168 -579 0
-169 -628 0
-170 -629 0
-171 -630 0
-169 -406 0
-170 -407 0
-171 -408 0
-169 -2584 0
-170 -2585 0
-171 -2586 0
-169 -3163 0
-170 -3164 0
-171 -3165 0
-172 -3577 0
-173 -3578 0
-174 -3579 0
-172 -3601 0
-173 -3602 0
-174 -3603 0
-172 -652 0
-173 -653 0
-174 -654 0
-172 -3973 0
-173 -3974 0
-174 -3975 0
-172 -382 0
-173 -383 0
-174 -384 0
-172 -3547 0
-173 -3548 0
-174 -3549 0
-175 -2323 0
-176 -2324 0
-177 -2325 0
-175 -3133 0
-176 -3134 0
-177 -3135 0
-175 -397 0
-176 -398 0
-177 -399 0
-175 -2596 0
-176 -2597 0
-177 -2598 0
-175 -676 0
-176 -677 0
-177 -678 0
-178 -2395 0
-179 -2396 0
-180 -2397 0
-178 -3148 0
-179 -3149 0
-180 -3150 0
-178 -3151 0
-179 -3152 0
-180 -3153 0
-178 -448 0
-179 -449 0
-180 -450 0
-181 -2899 0
-182 -2900 0
-183 -2901 0
-181 -406 0
-182 -407 0
-183 -408 0
-181 -652 0
-182 -653 0
-183 -654 0
-181 -2983 0
-182 -2984 0
-183 -2985 0
-181 -2254 0
-182 -2255 0
-183 -2256 0
-184 -3859 0
-185 -3860 0
-186 -3861 0
-184 -526 0
-185 -527 0
-186 -528 0
-184 -3151 0
-185 -3152 0
-186 -3153 0
-184 -448 0
-185 -449 0
-186 -450 0
-187 -3901 0
-188 -3902 0
-189 -3903 0
-187 -628 0
-188 -629 0
-189 -630 0
-187 -451 0
-188 -452 0
-189 -453 0
-187 -3982 0
-188 -3983 0
-189 -3984 0
-187 -4024 0
-188 -4025 0
-189 -4026 0
-187 -3934 0
-188 -3935 0
-189 -3936 0
-190 -3031 0
-191 -3032 0
-192 -3033 0
-190 -943 0
-191 -944 0
-192 -945 0
-190 -3622 0
-191 -3623 0
-192 -3624 0
-190 -214 0
-191 -215 0
-192 -216 0
-193 -949 0
-194 -950 0
-195 -951 0
-193 -1903 0
-194 -1904 0
-195 -1905 0
-193 -3016 0
-194 -3017 0
-195 -3018 0
-193 -211 0
-194 -212 0
-195 -213 0
-193 -4078 0
-194 -4079 0
-195 -4080 0
-196 -3652 0
-197 -3653 0
-198 -3654 0
-196 -202 0
-197 -203 0
-198 -204 0
-196 -2257 0
-197 -2258 0
-198 -2259 0
-196 -4165 0
-197 -4166 0
-198 -4167 0
-196 -970 0
-197 -971 0
-198 -972 0
-199 -1150 0
-200 -1151 0
-201 -1152 0
-199 -523 0
-200 -524 0
-201 -525 0
-199 -229 0
-200 -230 0
-201 -231 0
-199 -724 0
-200 -725 0
-201 -726 0
-199 -841 0
-200 -842 0
-201 -843 0
-199 -844 0
-200 -845 0
-201 -846 0
-199 -850 0
-200 -851 0
-201 -852 0
-199 -982 0
-200 -983 0
-201 -984 0
-202 -520 0
-203 -521 0
-204 -522 0
-202 -205 0
-203 -206 0
-204 -207 0
-202 -226 0
-203 -227 0
-204 -228 0
-202 -967 0
-203 -968 0
-204 -969 0
-202 -727 0
-203 -728 0
-204 -729 0
-202 -847 0
-203 -848 0
-204 -849 0
-202 -742 0
-203 -743 0
-204 -744 0
-202 -982 0
-203 -983 0
-204 -984 0
-202 -634 0
-203 -635 0
-204 -636 0
-202 -865 0
-203 -866 0
-204 -867 0
-202 -499 0
-203 -500 0
-204 -501 0
-205 -3340 0
-206 -3341 0
-207 -3342 0
-205 -3616 0
-206 -3617 0
-207 -3618 0
-205 -2992 0
-206 -2993 0
-207 -2994 0
-205 -985 0
-206 -986 0
-207 -987 0
-205 -2998 0
-206 -2999 0
-207 -3000 0
-205 -3664 0
-206 -3665 0
-207 -3666 0
-208 -526 0
-209 -527 0
-210 -528 0
-208 -508 0
-209 -509 0
-210 -510 0
-208 -2227 0
-209 -2228 0
-210 -2229 0
-208 -3433 0
-209 -3434 0
-210 -3435 0
-211 -544 0
-212 -545 0
-213 -546 0
-211 -223 0
-212 -224 0
-213 -225 0
-211 -730 0
-212 -731 0
-213 -732 0
-211 -853 0
-212 -854 0
-213 -855 0
-211 -982 0
-212 -983 0
-213 -984 0
-211 -997 0
-212 -998 0
-213 -999 0
-211 -757 0
-212 -758 0
-213 -759 0
-214 -511 0
-215 -512 0
-216 -513 0
-214 -217 0
-215 -218 0
-216 -219 0
-214 -220 0
-215 -221 0
-216 -222 0
-214 -856 0
-215 -857 0
-216 -858 0
-214 -859 0
-215 -860 0
-216 -861 0
-214 -982 0
-215 -983 0
-216 -984 0
-214 -640 0
-215 -641 0
-216 -642 0
-214 -1000 0
-215 -1001 0
-216 -1002 0
-214 -754 0
-215 -755 0
-216 -756 0
-217 -3340 0
-218 -3341 0
-219 -3342 0
-217 -3343 0
-218 -3344 0
-219 -3345 0
-217 -2347 0
-218 -2348 0
-219 -2349 0
-217 -985 0
-218 -986 0
-219 -987 0
-220 -2959 0
-221 -2960 0
-222 -2961 0
-220 -3412 0
-221 -3413 0
-222 -3414 0
-220 -3514 0
-221 -3515 0
-222 -3516 0
-223 -4171 0
-224 -4172 0
-225 -4173 0
-223 -4138 0
-224 -4139 0
-225 -4140 0
-223 -3040 0
-224 -3041 0
-225 -3042 0
-223 -3007 0
-224 -3008 0
-225 -3009 0
-223 -994 0
-224 -995 0
-225 -996 0
-226 -2443 0
-227 -2444 0
-228 -2445 0
-226 -1018 0
-227 -1019 0
-228 -1020 0
-226 -2992 0
-227 -2993 0
-228 -2994 0
-226 -2887 0
-227 -2888 0
-228 -2889 0
-229 -1906 0
-230 -1907 0
-231 -1908 0
-229 -3715 0
-230 -3716 0
-231 -3717 0
-229 -3379 0
-230 -3380 0
-231 -3381 0
-229 -1027 0
-230 -1028 0
-231 -1029 0
-232 -1966 0
-233 -1967 0
-234 -1968 0
-232 -535 0
-233 -536 0
-234 -537 0
-232 -3829 0
-233 -3830 0
-234 -3831 0
-235 -907 0
-236 -908 0
-237 -909 0
-235 -3130 0
-236 -3131 0
-237 -3132 0
-235 -250 0
-236 -251 0
-237 -252 0
-235 -3481 0
-236 -3482 0
-237 -3483 0
-238 -910 0
-239 -911 0
-240 -912 0
-238 -250 0
-239 -251 0
-240 -252 0
-238 -2218 0
-239 -2219 0
-240 -2220 0
-241 -907 0
-242 -908 0
-243 -909 0
-241 -3211 0
-242 -3212 0
-243 -3213 0
-241 -2359 0
-242 -2360 0
-243 -2361 0
-241 -268 0
-242 -269 0
-243 -270 0
-241 -2725 0
-242 -2726 0
-243 -2727 0
-244 -3214 0
-245 -3215 0
-246 -3216 0
-244 -2623 0
-245 -2624 0
-246 -2625 0
-244 -259 0
-245 -260 0
-246 -261 0
-244 -3226 0
-245 -3227 0
-246 -3228 0
-244 -3187 0
-245 -3188 0
-246 -3189 0
-244 -970 0
-245 -971 0
-246 -972 0
-247 -3784 0
-248 -3785 0
-249 -3786 0
-247 -250 0
-248 -251 0
-249 -252 0
-247 -3481 0
-248 -3482 0
-249 -3483 0
-247 -979 0
-248 -980 0
-249 -981 0
-247 -1954 0
-248 -1955 0
-249 -1956 0
-247 -3802 0
-248 -3803 0
-249 -3804 0
-250 -688 0
-251 -689 0
-252 -690 0
-250 -694 0
-251 -695 0
-252 -696 0
-250 -1171 0
-251 -1172 0
-252 -1173 0
-250 -256 0
-251 -257 0
-252 -258 0
-250 -982 0
-251 -983 0
-252 -984 0
-250 -871 0
-251 -872 0
-252 -873 0
-250 -484 0
-251 -485 0
-252 -486 0
-250 -487 0
-251 -488 0
-252 -489 0
-253 -2548 0
-254 -2549 0
-255 -2550 0
-253 -4138 0
-254 -4139 0
-255 -4140 0
-253 -3100 0
-254 -3101 0
-255 -3102 0
-253 -259 0
-254 -260 0
-255 -261 0
-253 -979 0
-254 -980 0
-255 -981 0
-253 -3538 0
-254 -3539 0
-255 -3540 0
-253 -3949 0
-254 -3950 0
-255 -3951 0
-253 -3808 0
-254 -3809 0
-255 -3810 0
-253 -3541 0
-254 -3542 0
-255 -3543 0
-256 -3412 0
-257 -3413 0
-258 -3414 0
-256 -3466 0
-257 -3467 0
-258 -3468 0
-256 -2884 0
-257 -2885 0
-258 -2886 0
-256 -2257 0
-257 -2258 0
-258 -2259 0
-256 -985 0
-257 -986 0
-258 -987 0
-256 -3238 0
-257 -3239 0
-258 -3240 0
-259 -691 0
-260 -692 0
-261 -693 0
-259 -697 0
-260 -698 0
-261 -699 0
-259 -1174 0
-260 -1175 0
-261 -1176 0
-259 -262 0
-260 -263 0
-261 -264 0
-259 -982 0
-260 -983 0
-261 -984 0
-262 -3469 0
-263 -3470 0
-264 -3471 0
-262 -3214 0
-263 -3215 0
-264 -3216 0
-262 -2122 0
-263 -2123 0
-264 -2124 0
-262 -3814 0
-263 -3815 0
-264 -3816 0
-262 -3409 0
-263 -3410 0
-264 -3411 0
-262 -2161 0
-263 -2162 0
-264 -2163 0
-262 -985 0
-263 -986 0
-264 -987 0
-262 -2314 0
-263 -2315 0
-264 -2316 0
-265 -3724 0
-266 -3725 0
-267 -3726 0
-265 -526 0
-266 -527 0
-267 -528 0
-265 -2833 0
-266 -2834 0
-267 -2835 0
-265 -1876 0
-266 -1877 0
-267 -1878 0
-265 -586 0
-266 -587 0
-267 -588 0
-265 -3592 0
-266 -3593 0
-267 -3594 0
-268 -775 0
-269 -776 0
-270 -777 0
-268 -898 0
-269 -899 0
-270 -900 0
-268 -1159 0
-269 -1160 0
-270 -1161 0
-268 -982 0
-269 -983 0
-270 -984 0
-268 -478 0
-269 -479 0
-270 -480 0
-268 -271 0
-269 -272 0
-270 -273 0
-268 -1045 0
-269 -1046 0
-270 -1047 0
-271 -3787 0
-272 -3788 0
-273 -3789 0
-271 -1984 0
-272 -1985 0
-273 -1986 0
-271 -994 0
-272 -995 0
-273 -996 0
-271 -1996 0
-272 -1997 0
-273 -1998 0
-274 -277 0
-275 -278 0
-276 -279 0
-274 -2329 0
-275 -2330 0
-276 -2331 0
-274 -979 0
-275 -980 0
-276 -981 0
-274 -2632 0
-275 -2633 0
-276 -2634 0
-274 -2608 0
-275 -2609 0
-276 -2610 0
-277 -784 0
-278 -785 0
-279 -786 0
-277 -556 0
-278 -557 0
-279 -558 0
-277 -1162 0
-278 -1163 0
-279 -1164 0
-277 -982 0
-278 -983 0
-279 -984 0
-277 -637 0
-278 -638 0
-279 -639 0
-277 -280 0
-278 -281 0
-279 -282 0
-280 -2329 0
-281 -2330 0
-282 -2331 0
-280 -2578 0
-281 -2579 0
-282 -2580 0
-280 -994 0
-281 -995 0
-282 -996 0
-280 -2611 0
-281 -2612 0
-282 -2613 0
-283 -526 0
-284 -527 0
-285 -528 0
-283 -2356 0
-284 -2357 0
-285 -2358 0
-283 -655 0
-284 -656 0
-285 -657 0
-283 -3877 0
-284 -3878 0
-285 -3879 0
-286 -3037 0
-287 -3038 0
-288 -3039 0
-286 -3178 0
-287 -3179 0
-288 -3180 0
-286 -577 0
-287 -578 0
-288 -579 0
-289 -3397 0
-290 -3398 0
-291 -3399 0
-289 -2092 0
-290 -2093 0
-291 -2094 0
-289 -586 0
-290 -587 0
-291 -588 0
-292 -298 0
-293 -299 0
-294 -300 0
-292 -1903 0
-293 -1904 0
-294 -1905 0
-292 -979 0
-293 -980 0
-294 -981 0
-292 -3604 0
-293 -3605 0
-294 -3606 0
-292 -1915 0
-293 -1916 0
-294 -1917 0
-292 -3022 0
-293 -3023 0
-294 -3024 0
-292 -2431 0
-293 -2432 0
-294 -2433 0
-295 -301 0
-296 -302 0
-297 -303 0
-295 -325 0
-296 -326 0
-297 -327 0
-295 -796 0
-296 -797 0
-297 -798 0
-295 -820 0
-296 -821 0
-297 -822 0
-295 -1192 0
-296 -1193 0
-297 -1194 0
-295 -958 0
-296 -959 0
-297 -960 0
-295 -613 0
-296 -614 0
-297 -615 0
-295 -982 0
-296 -983 0
-297 -984 0
-295 -1114 0
-296 -1115 0
-297 -1116 0
-295 -679 0
-296 -680 0
-297 -681 0
-298 -799 0
-299 -800 0
-300 -801 0
-298 -343 0
-299 -344 0
-300 -345 0
-298 -961 0
-299 -962 0
-300 -963 0
-298 -610 0
-299 -611 0
-300 -612 0
-298 -982 0
-299 -983 0
-300 -984 0
-298 -1111 0
-299 -1112 0
-300 -1113 0
-298 -1228 0
-299 -1229 0
-300 -1230 0
-301 -3655 0
-302 -3656 0
-303 -3657 0
-301 -985 0
-302 -986 0
-303 -987 0
-301 -3622 0
-302 -3623 0
-303 -3624 0
-301 -3268 0
-302 -3269 0
-303 -3270 0
-304 -4141 0
-305 -4142 0
-306 -4143 0
-304 -1924 0
-305 -1925 0
-306 -1926 0
-304 -622 0
-305 -623 0
-306 -624 0
-304 -1876 0
-305 -1877 0
-306 -1878 0
-304 -3937 0
-305 -3938 0
-306 -3939 0
-304 -3940 0
-305 -3941 0
-306 -3942 0
-304 -586 0
-305 -587 0
-306 -588 0
-307 -1936 0
-308 -1937 0
-309 -1938 0
-307 -1927 0
-308 -1928 0
-309 -1929 0
-307 -628 0
-308 -629 0
-309 -630 0
-307 -1885 0
-308 -1886 0
-309 -1887 0
-307 -577 0
-308 -578 0
-309 -579 0
-307 -3934 0
-308 -3935 0
-309 -3936 0
-307 -1891 0
-308 -1892 0
-309 -1893 0
-310 -2044 0
-311 -2045 0
-312 -2046 0
-310 -2047 0
-311 -2048 0
-312 -2049 0
-310 -2455 0
-311 -2456 0
-312 -2457 0
-310 -1906 0
-311 -1907 0
-312 -1908 0
-310 -1984 0
-311 -1985 0
-312 -1986 0
-310 -979 0
-311 -980 0
-312 -981 0
-310 -316 0
-311 -317 0
-312 -318 0
-313 -319 0
-314 -320 0
-315 -321 0
-313 -826 0
-314 -827 0
-315 -828 0
-313 -337 0
-314 -338 0
-315 -339 0
-313 -607 0
-314 -608 0
-315 -609 0
-313 -982 0
-314 -983 0
-315 -984 0
-313 -1123 0
-314 -1124 0
-315 -1125 0
-313 -1243 0
-314 -1244 0
-315 -1245 0
-313 -1006 0
-314 -1007 0
-315 -1008 0
-316 -322 0
-317 -323 0
-318 -324 0
-316 -334 0
-317 -335 0
-318 -336 0
-316 -808 0
-317 -809 0
-318 -810 0
-316 -562 0
-317 -563 0
-318 -564 0
-316 -817 0
-317 -818 0
-318 -819 0
-316 -571 0
-317 -572 0
-318 -573 0
-316 -823 0
-317 -824 0
-318 -825 0
-316 -340 0
-317 -341 0
-318 -342 0
-316 -1195 0
-317 -1196 0
-318 -1197 0
-316 -604 0
-317 -605 0
-318 -606 0
-316 -982 0
-317 -983 0
-318 -984 0
-316 -1120 0
-317 -1121 0
-318 -1122 0
-316 -1246 0
-317 -1247 0
-318 -1248 0
-316 -1009 0
-317 -1010 0
-318 -1011 0
-316 -490 0
-317 -491 0
-318 -492 0
-316 -682 0
-317 -683 0
-318 -684 0
-319 -2443 0
-320 -2444 0
-321 -2445 0
-319 -2482 0
-320 -2483 0
-321 -2484 0
-319 -2518 0
-320 -2519 0
-321 -2520 0
-319 -3343 0
-320 -3344 0
-321 -3345 0
-319 -985 0
-320 -986 0
-321 -987 0
-322 -3679 0
-323 -3680 0
-324 -3681 0
-322 -3007 0
-323 -3008 0
-324 -3009 0
-322 -994 0
-323 -995 0
-324 -996 0
-322 -1996 0
-323 -1997 0
-324 -1998 0
-322 -2989 0
-323 -2990 0
-324 -2991 0
-322 -2095 0
-323 -2096 0
-324 -2097 0
-325 -3631 0
-326 -3632 0
-327 -3633 0
-325 -1888 0
-326 -1889 0
-327 -1890 0
-325 -2767 0
-326 -2768 0
-327 -2769 0
-325 -1030 0
-326 -1031 0
-327 -1032 0
-328 -3295 0
-329 -3296 0
-330 -3297 0
-328 -622 0
-329 -623 0
-330 -624 0
-328 -4093 0
-329 -4094 0
-330 -4095 0
-328 -3517 0
-329 -3518 0
-330 -3519 0
-328 -3562 0
-329 -3563 0
-330 -3564 0
-331 -3559 0
-332 -3560 0
-333 -3561 0
-331 -1936 0
-332 -1937 0
-333 -1938 0
-331 -2830 0
-332 -2831 0
-333 -2832 0
-331 -628 0
-332 -629 0
-333 -630 0
-331 -1960 0
-332 -1961 0
-333 -1962 0
-331 -3385 0
-332 -3386 0
-333 -3387 0
-331 -3436 0
-332 -3437 0
-333 -3438 0
-331 -2698 0
-332 -2699 0
-333 -2700 0
-334 -2593 0
-335 -2594 0
-336 -2595 0
-334 -2452 0
-335 -2453 0
-336 -2454 0
-334 -3751 0
-335 -3752 0
-336 -3753 0
-334 -3931 0
-335 -3932 0
-336 -3933 0
-334 -1027 0
-335 -1028 0
-336 -1029 0
-337 -2824 0
-338 -2825 0
-339 -2826 0
-337 -3406 0
-338 -3407 0
-339 -3408 0
-337 -1090 0
-338 -1091 0
-339 -1092 0
-337 -2746 0
-338 -2747 0
-339 -2748 0
-340 -2593 0
-341 -2594 0
-342 -2595 0
-340 -1087 0
-341 -1088 0
-342 -1089 0
-340 -3427 0
-341 -3428 0
-342 -3429 0
-340 -2806 0
-341 -2807 0
-342 -2808 0
-340 -3322 0
-341 -3323 0
-342 -3324 0
-343 -3781 0
-344 -3782 0
-345 -3783 0
-343 -2332 0
-344 -2333 0
-345 -2334 0
-343 -2716 0
-344 -2717 0
-345 -2718 0
-346 -2614 0
-347 -2615 0
-348 -2616 0
-346 -652 0
-347 -653 0
-348 -654 0
-346 -676 0
-347 -677 0
-348 -678 0
-346 -3547 0
-347 -3548 0
-348 -3549 0
-349 -1315 0
-350 -1316 0
-351 -1317 0
-349 -2638 0
-350 -2639 0
-351 -2640 0
-349 -4054 0
-350 -4055 0
-351 -4056 0
-352 -3565 0
-353 -3566 0
-354 -3567 0
-352 -1324 0
-353 -1325 0
-354 -1326 0
-352 -1981 0
-353 -1982 0
-354 -1983 0
-352 -2251 0
-353 -2252 0
-354 -2253 0
-352 -2227 0
-353 -2228 0
-354 -2229 0
-352 -2764 0
-353 -2765 0
-354 -2766 0
-352 -2389 0
-353 -2390 0
-354 -2391 0
-355 -3415 0
-356 -3416 0
-357 -3417 0
-355 -1348 0
-356 -1349 0
-357 -1350 0
-355 -2227 0
-356 -2228 0
-357 -2229 0
-358 -3904 0
-359 -3905 0
-360 -3906 0
-358 -3991 0
-359 -3992 0
-360 -3993 0
-358 -1357 0
-359 -1358 0
-360 -1359 0
-358 -2956 0
-359 -2957 0
-360 -2958 0
-361 -745 0
-362 -746 0
-363 -747 0
-361 -4180 0
-362 -4181 0
-363 -4182 0
-361 -2515 0
-362 -2516 0
-363 -2517 0
-361 -628 0
-362 -629 0
-363 -630 0
-361 -2698 0
-362 -2699 0
-363 -2700 0
-364 -2839 0
-365 -2840 0
-366 -2841 0
-364 -379 0
-365 -380 0
-366 -381 0
-364 -949 0
-365 -950 0
-366 -951 0
-364 -3874 0
-365 -3875 0
-366 -3876 0
-367 -3970 0
-368 -3971 0
-369 -3972 0
-367 -3280 0
-368 -3281 0
-369 -3282 0
-367 -379 0
-368 -380 0
-369 -381 0
-367 -970 0
-368 -971 0
-369 -972 0
-370 -1381 0
-371 -1382 0
-372 -1383 0
-370 -1168 0
-371 -1169 0
-372 -1170 0
-370 -712 0
-371 -713 0
-372 -714 0
-370 -982 0
-371 -983 0
-372 -984 0
-370 -376 0
-371 -377 0
-372 -378 0
-373 -3568 0
-374 -3569 0
-375 -3570 0
-373 -2842 0
-374 -2843 0
-375 -2844 0
-373 -979 0
-374 -980 0
-375 -981 0
-373 -379 0
-374 -380 0
-375 -381 0
-373 -4159 0
-374 -4160 0
-375 -4161 0
-373 -2941 0
-374 -2942 0
-375 -2943 0
-373 -3466 0
-374 -3467 0
-375 -3468 0
-376 -3814 0
-377 -3815 0
-378 -3816 0
-376 -3820 0
-377 -3821 0
-378 -3822 0
-376 -3808 0
-377 -3809 0
-378 -3810 0
-376 -985 0
-377 -986 0
-378 -987 0
-379 -1384 0
-380 -1385 0
-381 -1386 0
-379 -1204 0
-380 -1205 0
-381 -1206 0
-379 -715 0
-380 -716 0
-381 -717 0
-379 -739 0
-380 -740 0
-381 -741 0
-379 -982 0
-380 -983 0
-381 -984 0
-379 -1363 0
-380 -1364 0
-381 -1365 0
-379 -1366 0
-380 -1367 0
-381 -1368 0
-382 -1144 0
-383 -1145 0
-384 -1146 0
-382 -685 0
-383 -686 0
-384 -687 0
-382 -982 0
-383 -983 0
-384 -984 0
-382 -1216 0
-383 -1217 0
-384 -1218 0
-382 -1372 0
-383 -1373 0
-384 -1374 0
-382 -391 0
-383 -392 0
-384 -393 0
-385 -982 0
-386 -983 0
-387 -984 0
-385 -1375 0
-386 -1376 0
-387 -1377 0
-388 -2323 0
-389 -2324 0
-390 -2325 0
-388 -2077 0
-389 -2078 0
-390 -2079 0
-388 -3787 0
-389 -3788 0
-390 -3789 0
-388 -397 0
-389 -398 0
-390 -399 0
-388 -1951 0
-389 -1952 0
-390 -1953 0
-388 -2317 0
-389 -2318 0
-390 -2319 0
-388 -970 0
-389 -971 0
-390 -972 0
-391 -2338 0
-392 -2339 0
-393 -2340 0
-391 -4036 0
-392 -4037 0
-393 -4038 0
-391 -3823 0
-392 -3824 0
-393 -3825 0
-391 -994 0
-392 -995 0
-393 -996 0
-391 -2743 0
-392 -2744 0
-393 -2745 0
-391 -3955 0
-392 -3956 0
-393 -3957 0
-394 -397 0
-395 -398 0
-396 -399 0
-394 -979 0
-395 -980 0
-396 -981 0
-394 -3928 0
-395 -3929 0
-396 -3930 0
-394 -4003 0
-395 -4004 0
-396 -4005 0
-397 -1396 0
-398 -1397 0
-399 -1398 0
-397 -1165 0
-398 -1166 0
-399 -1167 0
-397 -913 0
-398 -914 0
-399 -915 0
-397 -982 0
-398 -983 0
-399 -984 0
-397 -1219 0
-398 -1220 0
-399 -1221 0
-397 -1378 0
-398 -1379 0
-399 -1380 0
-397 -766 0
-398 -767 0
-399 -768 0
-400 -1402 0
-401 -1403 0
-402 -1404 0
-400 -2062 0
-401 -2063 0
-402 -2064 0
-400 -1891 0
-401 -1892 0
-402 -1893 0
-403 -1147 0
-404 -1148 0
-405 -1149 0
-403 -793 0
-404 -794 0
-405 -795 0
-403 -811 0
-404 -812 0
-405 -813 0
-403 -1417 0
-404 -1418 0
-405 -1419 0
-403 -433 0
-404 -434 0
-405 -435 0
-403 -829 0
-404 -830 0
-405 -831 0
-403 -832 0
-404 -833 0
-405 -834 0
-403 -982 0
-404 -983 0
-405 -984 0
-403 -1234 0
-404 -1235 0
-405 -1236 0
-403 -1237 0
-404 -1238 0
-405 -1239 0
-403 -751 0
-404 -752 0
-405 -753 0
-403 -760 0
-404 -761 0
-405 -762 0
-406 -1153 0
-407 -1154 0
-408 -1155 0
-406 -415 0
-407 -416 0
-408 -417 0
-406 -430 0
-407 -431 0
-408 -432 0
-406 -790 0
-407 -791 0
-408 -792 0
-406 -1420 0
-407 -1421 0
-408 -1422 0
-406 -436 0
-407 -437 0
-408 -438 0
-406 -1177 0
-407 -1178 0
-408 -1179 0
-406 -835 0
-407 -836 0
-408 -837 0
-406 -982 0
-407 -983 0
-408 -984 0
-406 -1231 0
-407 -1232 0
-408 -1233 0
-406 -1240 0
-407 -1241 0
-408 -1242 0
-406 -748 0
-407 -749 0
-408 -750 0
-406 -763 0
-407 -764 0
-408 -765 0
-409 -1435 0
-410 -1436 0
-411 -1437 0
-409 -2251 0
-410 -2252 0
-411 -2253 0
-409 -2494 0
-410 -2495 0
-411 -2496 0
-409 -1891 0
-410 -1892 0
-411 -1893 0
-412 -1387 0
-413 -1388 0
-414 -1389 0
-412 -3637 0
-413 -3638 0
-414 -3639 0
-412 -3544 0
-413 -3545 0
-414 -3546 0
-415 -1048 0
-416 -1049 0
-417 -1050 0
-415 -2515 0
-416 -2516 0
-417 -2517 0
-415 -4021 0
-416 -4022 0
-417 -4023 0
-415 -3520 0
-416 -3521 0
-417 -3522 0
-415 -3109 0
-416 -3110 0
-417 -3111 0
-415 -2584 0
-416 -2585 0
-417 -2586 0
-418 -1402 0
-419 -1403 0
-420 -1404 0
-418 -3271 0
-419 -3272 0
-420 -3273 0
-418 -2230 0
-419 -2231 0
-420 -2232 0
-418 -2320 0
-419 -2321 0
-420 -2322 0
-421 -2617 0
-422 -2618 0
-423 -2619 0
-421 -3079 0
-422 -3080 0
-423 -3081 0
-421 -2554 0
-422 -2555 0
-423 -2556 0
-421 -1408 0
-422 -1409 0
-423 -1410 0
-421 -2266 0
-422 -2267 0
-423 -2268 0
-424 -3871 0
-425 -3872 0
-426 -3873 0
-424 -1429 0
-425 -1430 0
-426 -1431 0
-424 -2554 0
-425 -2555 0
-426 -2556 0
-424 -3553 0
-425 -3554 0
-426 -3555 0
-424 -3916 0
-425 -3917 0
-426 -3918 0
-427 -1435 0
-428 -1436 0
-429 -1437 0
-427 -3511 0
-428 -3512 0
-429 -3513 0
-427 -3271 0
-428 -3272 0
-429 -3273 0
-430 -1072 0
-431 -1073 0
-432 -1074 0
-430 -2344 0
-431 -2345 0
-432 -2346 0
-430 -1978 0
-431 -1979 0
-432 -1980 0
-430 -1999 0
-431 -2000 0
-432 -2001 0
-430 -3109 0
-431 -3110 0
-432 -3111 0
-430 -3325 0
-431 -3326 0
-432 -3327 0
-433 -2824 0
-434 -2825 0
-435 -2826 0
-433 -2800 0
-434 -2801 0
-435 -2802 0
-433 -2851 0
-434 -2852 0
-435 -2853 0
-433 -1090 0
-434 -1091 0
-435 -1092 0
-436 -2977 0
-437 -2978 0
-438 -2979 0
-436 -2899 0
-437 -2900 0
-438 -2901 0
-436 -1102 0
-437 -1103 0
-438 -1104 0
-436 -3052 0
-437 -3053 0
-438 -3054 0
-439 -2617 0
-440 -2618 0
-441 -2619 0
-439 -3244 0
-440 -3245 0
-441 -3246 0
-439 -3880 0
-440 -3881 0
-441 -3882 0
-439 -3256 0
-440 -3257 0
-441 -3258 0
-439 -3259 0
-440 -3260 0
-441 -3261 0
-439 -3043 0
-440 -3044 0
-441 -3045 0
-439 -3067 0
-440 -3068 0
-441 -3069 0
-439 -1495 0
-440 -1496 0
-441 -1497 0
-442 -1939 0
-443 -1940 0
-444 -1941 0
-442 -448 0
-443 -449 0
-444 -450 0
-442 -2155 0
-443 -2156 0
-444 -2157 0
-442 -943 0
-443 -944 0
-444 -945 0
-445 -1897 0
-446 -1898 0
-447 -1899 0
-445 -451 0
-446 -452 0
-447 -453 0
-445 -3982 0
-446 -3983 0
-447 -3984 0
-445 -4162 0
-446 -4163 0
-447 -4164 0
-445 -949 0
-446 -950 0
-447 -951 0
-448 -1261 0
-449 -1262 0
-450 -1263 0
-448 -928 0
-449 -929 0
-450 -930 0
-448 -463 0
-449 -464 0
-450 -465 0
-448 -982 0
-449 -983 0
-450 -984 0
-448 -481 0
-449 -482 0
-450 -483 0
-448 -1132 0
-449 -1133 0
-450 -1134 0
-451 -1258 0
-452 -1259 0
-453 -1260 0
-451 -931 0
-452 -932 0
-453 -933 0
-451 -460 0
-452 -461 0
-453 -462 0
-451 -982 0
-452 -983 0
-453 -984 0
-451 -1135 0
-452 -1136 0
-453 -1137 0
-454 -3631 0
-455 -3632 0
-456 -3633 0
-454 -3442 0
-455 -3443 0
-456 -3444 0
-454 -469 0
-455 -470 0
-456 -471 0
-454 -943 0
-455 -944 0
-456 -945 0
-457 -2536 0
-458 -2537 0
-459 -2538 0
-457 -466 0
-458 -467 0
-459 -468 0
-457 -1987 0
-458 -1988 0
-459 -1989 0
-457 -949 0
-458 -950 0
-459 -951 0
-457 -2272 0
-458 -2273 0
-459 -2274 0
-460 -2848 0
-461 -2849 0
-462 -2850 0
-460 -1018 0
-461 -1019 0
-462 -1020 0
-460 -2809 0
-461 -2810 0
-462 -2811 0
-460 -3619 0
-461 -3620 0
-462 -3621 0
-463 -2512 0
-464 -2513 0
-465 -2514 0
-463 -1027 0
-464 -1028 0
-465 -1029 0
-463 -3805 0
-464 -3806 0
-465 -3807 0
-466 -1270 0
-467 -1271 0
-468 -1272 0
-466 -838 0
-467 -839 0
-468 -840 0
-466 -1312 0
-467 -1313 0
-468 -1314 0
-466 -472 0
-467 -473 0
-468 -474 0
-466 -982 0
-467 -983 0
-468 -984 0
-466 -1138 0
-467 -1139 0
-468 -1140 0
-469 -1267 0
-470 -1268 0
-471 -1269 0
-469 -475 0
-470 -476 0
-471 -477 0
-469 -982 0
-470 -983 0
-471 -984 0
-469 -1141 0
-470 -1142 0
-471 -1143 0
-472 -2212 0
-473 -2213 0
-474 -2214 0
-472 -1018 0
-473 -1019 0
-474 -1020 0
-472 -1855 0
-473 -1856 0
-474 -1857 0
-472 -2197 0
-473 -2198 0
-474 -2199 0
-475 -4000 0
-476 -4001 0
-477 -4002 0
-475 -2149 0
-476 -2150 0
-477 -2151 0
-475 -2113 0
-476 -2114 0
-477 -2115 0
-475 -1027 0
-476 -1028 0
-477 -1029 0
-478 -2215 0
-479 -2216 0
-480 -2217 0
-478 -1255 0
-479 -1256 0
-480 -1257 0
-481 -1072 0
-482 -1073 0
-483 -1074 0
-481 -3106 0
-482 -3107 0
-483 -3108 0
-481 -2155 0
-482 -2156 0
-483 -2157 0
-481 -2119 0
-482 -2120 0
-483 -2121 0
-484 -3784 0
-485 -3785 0
-486 -3786 0
-484 -1324 0
-485 -1325 0
-486 -1326 0
-484 -2233 0
-485 -2234 0
-486 -2235 0
-487 -1987 0
-488 -1988 0
-489 -1989 0
-487 -1912 0
-488 -1913 0
-489 -1914 0
-487 -1357 0
-488 -1358 0
-489 -1359 0
-487 -1954 0
-488 -1955 0
-489 -1956 0
-490 -2512 0
-491 -2513 0
-492 -2514 0
-490 -1255 0
-491 -1256 0
-492 -1257 0
-490 -2656 0
-491 -2657 0
-492 -2658 0
-493 -1900 0
-494 -1901 0
-495 -1902 0
-493 -526 0
-494 -527 0
-495 -528 0
-493 -2194 0
-494 -2195 0
-495 -2196 0
-496 -508 0
-497 -509 0
-498 -510 0
-496 -2173 0
-497 -2174 0
-498 -2175 0
-496 -2164 0
-497 -2165 0
-498 -2166 0
-496 -970 0
-497 -971 0
-498 -972 0
-499 -1402 0
-500 -1403 0
-501 -1404 0
-499 -2908 0
-500 -2909 0
-501 -2910 0
-499 -2911 0
-500 -2912 0
-501 -2913 0
-502 -526 0
-503 -527 0
-504 -528 0
-502 -3901 0
-503 -3902 0
-504 -3903 0
-502 -3262 0
-503 -3263 0
-504 -3264 0
-502 -949 0
-503 -950 0
-504 -951 0
-502 -3934 0
-503 -3935 0
-504 -3936 0
-505 -2368 0
-506 -2369 0
-507 -2370 0
-505 -2500 0
-506 -2501 0
-507 -2502 0
-505 -985 0
-506 -986 0
-507 -987 0
-508 -541 0
-509 -542 0
-510 -543 0
-508 -547 0
-509 -548 0
-510 -549 0
-508 -1516 0
-509 -1517 0
-510 -1518 0
-508 -553 0
-509 -554 0
-510 -555 0
-508 -1399 0
-509 -1400 0
-510 -1401 0
-508 -1414 0
-509 -1415 0
-510 -1416 0
-508 -1528 0
-509 -1529 0
-510 -1530 0
-508 -955 0
-509 -956 0
-510 -957 0
-508 -982 0
-509 -983 0
-510 -984 0
-508 -877 0
-509 -878 0
-510 -879 0
-511 -3025 0
-512 -3026 0
-513 -3027 0
-511 -3364 0
-512 -3365 0
-513 -3366 0
-511 -1402 0
-512 -1403 0
-513 -1404 0
-511 -1990 0
-512 -1991 0
-513 -1992 0
-511 -1942 0
-512 -1943 0
-513 -1944 0
-511 -2347 0
-512 -2348 0
-513 -2349 0
-511 -2629 0
-512 -2630 0
-513 -2631 0
-511 -2293 0
-512 -2294 0
-513 -2295 0
-511 -4201 0
-512 -4202 0
-513 -4203 0
-514 -3862 0
-515 -3863 0
-516 -3864 0
-514 -3817 0
-515 -3818 0
-516 -3819 0
-514 -2647 0
-515 -2648 0
-516 -2649 0
-514 -2560 0
-515 -2561 0
-516 -2562 0
-514 -3019 0
-515 -3020 0
-516 -3021 0
-514 -3046 0
-515 -3047 0
-516 -3048 0
-514 -1531 0
-515 -1532 0
-516 -1533 0
-514 -2956 0
-515 -2957 0
-516 -2958 0
-517 -2326 0
-518 -2327 0
-519 -2328 0
-517 -1534 0
-518 -1535 0
-519 -1536 0
-517 -3844 0
-518 -3845 0
-519 -3846 0
-517 -2740 0
-518 -2741 0
-519 -2742 0
-517 -3523 0
-518 -3524 0
-519 -3525 0
-520 -2914 0
-521 -2915 0
-522 -2916 0
-520 -1429 0
-521 -1430 0
-522 -1431 0
-520 -3769 0
-521 -3770 0
-522 -3771 0
-520 -3718 0
-521 -3719 0
-522 -3720 0
-520 -2995 0
-521 -2996 0
-522 -2997 0
-520 -3433 0
-521 -3434 0
-522 -3435 0
-520 -2908 0
-521 -2909 0
-522 -2910 0
-520 -3664 0
-521 -3665 0
-522 -3666 0
-520 -1963 0
-521 -1964 0
-522 -1965 0
-523 -1966 0
-524 -1967 0
-525 -1968 0
-523 -1435 0
-524 -1436 0
-525 -1437 0
-523 -1942 0
-524 -1943 0
-525 -1944 0
-523 -2815 0
-524 -2816 0
-525 -2817 0
-523 -2821 0
-524 -2822 0
-525 -2823 0
-526 -892 0
-527 -893 0
-528 -894 0
-526 -532 0
-527 -533 0
-528 -534 0
-526 -1156 0
-527 -1157 0
-528 -1158 0
-526 -550 0
-527 -551 0
-528 -552 0
-526 -1519 0
-527 -1520 0
-528 -1521 0
-526 -1423 0
-527 -1424 0
-528 -1425 0
-526 -1309 0
-527 -1310 0
-528 -1311 0
-526 -982 0
-527 -983 0
-528 -984 0
-526 -1012 0
-527 -1013 0
-528 -1014 0
-526 -1369 0
-527 -1370 0
-528 -1371 0
-529 -3049 0
-530 -3050 0
-531 -3051 0
-529 -535 0
-530 -536 0
-531 -537 0
-529 -979 0
-530 -980 0
-531 -981 0
-529 -3829 0
-530 -3830 0
-531 -3831 0
-529 -3022 0
-530 -3023 0
-531 -3024 0
-529 -3493 0
-530 -3494 0
-531 -3495 0
-532 -2479 0
-533 -2480 0
-534 -2481 0
-532 -3724 0
-533 -3725 0
-534 -3726 0
-532 -3655 0
-533 -3656 0
-534 -3657 0
-532 -2371 0
-533 -2372 0
-534 -2373 0
-532 -4105 0
-533 -4106 0
-534 -4107 0
-532 -985 0
-533 -986 0
-534 -987 0
-535 -895 0
-536 -896 0
-537 -897 0
-535 -1426 0
-536 -1427 0
-537 -1428 0
-535 -1447 0
-536 -1448 0
-537 -1449 0
-535 -982 0
-536 -983 0
-537 -984 0
-538 -2104 0
-539 -2105 0
-540 -2106 0
-538 -2449 0
-539 -2450 0
-540 -2451 0
-538 -1027 0
-539 -1028 0
-540 -1029 0
-538 -2296 0
-539 -2297 0
-540 -2298 0
-541 -1018 0
-542 -1019 0
-543 -1020 0
-541 -2221 0
-542 -2222 0
-543 -2223 0
-544 -2353 0
-545 -2354 0
-546 -2355 0
-544 -1435 0
-545 -1436 0
-546 -1437 0
-544 -3307 0
-545 -3308 0
-546 -3309 0
-544 -2650 0
-545 -2651 0
-546 -2652 0
-547 -3607 0
-548 -3608 0
-549 -3609 0
-547 -3775 0
-548 -3776 0
-549 -3777 0
-547 -3715 0
-548 -3716 0
-549 -3717 0
-547 -1027 0
-548 -1028 0
-549 -1029 0
-550 -2023 0
-551 -2024 0
-552 -2025 0
-550 -3859 0
-551 -3860 0
-552 -3861 0
-550 -994 0
-551 -995 0
-552 -996 0
-550 -2194 0
-551 -2195 0
-552 -2196 0
-553 -2173 0
-554 -2174 0
-555 -2175 0
-553 -2215 0
-554 -2216 0
-555 -2217 0
-553 -1030 0
-554 -1031 0
-555 -1032 0
-556 -1315 0
-557 -1316 0
-558 -1317 0
-556 -2776 0
-557 -2777 0
-558 -2778 0
-556 -2905 0
-557 -2906 0
-558 -2907 0
-559 -1525 0
-560 -1526 0
-561 -1527 0
-559 -814 0
-560 -815 0
-561 -816 0
-559 -1276 0
-560 -1277 0
-561 -1278 0
-559 -982 0
-560 -983 0
-561 -984 0
-562 -3241 0
-563 -3242 0
-564 -3243 0
-562 -2452 0
-563 -2453 0
-564 -2454 0
-562 -2095 0
-563 -2096 0
-564 -2097 0
-562 -1279 0
-563 -1280 0
-564 -1281 0
-565 -3529 0
-566 -3530 0
-567 -3531 0
-565 -2245 0
-566 -2246 0
-567 -2247 0
-565 -3406 0
-566 -3407 0
-567 -3408 0
-565 -3142 0
-566 -3143 0
-567 -3144 0
-565 -3904 0
-566 -3905 0
-567 -3906 0
-565 -1981 0
-566 -1982 0
-567 -1983 0
-565 -2263 0
-566 -2264 0
-567 -2265 0
-565 -1549 0
-566 -1550 0
-567 -1551 0
-565 -2428 0
-566 -2429 0
-567 -2430 0
-568 -4054 0
-569 -4055 0
-570 -4056 0
-568 -3781 0
-569 -3782 0
-570 -3783 0
-568 -3796 0
-569 -3797 0
-570 -3798 0
-568 -3814 0
-569 -3815 0
-570 -3816 0
-568 -3745 0
-569 -3746 0
-570 -3747 0
-568 -3415 0
-569 -3416 0
-570 -3417 0
-568 -2392 0
-569 -2393 0
-570 -2394 0
-568 -3322 0
-569 -3323 0
-570 -3324 0
-568 -1558 0
-569 -1559 0
-570 -1560 0
-571 -2968 0
-572 -2969 0
-573 -2970 0
-571 -4204 0
-572 -4205 0
-573 -4206 0
-571 -1300 0
-572 -1301 0
-573 -1302 0
-571 -3361 0
-572 -3362 0
-573 -3363 0
-574 -2749 0
-575 -2750 0
-576 -2751 0
-574 -3883 0
-575 -3884 0
-576 -3885 0
-574 -3916 0
-575 -3917 0
-576 -3918 0
-574 -2713 0
-575 -2714 0
-576 -2715 0
-574 -3799 0
-575 -3800 0
-576 -3801 0
-574 -1546 0
-575 -1547 0
-576 -1548 0
-577 -901 0
-578 -902 0
-579 -903 0
-577 -1390 0
-578 -1391 0
-579 -1392 0
-577 -1078 0
-578 -1079 0
-579 -1080 0
-577 -1084 0
-578 -1085 0
-579 -1086 0
-577 -1096 0
-578 -1097 0
-579 -1098 0
-577 -1180 0
-578 -1181 0
-579 -1182 0
-577 -1189 0
-578 -1190 0
-579 -1191 0
-577 -925 0
-578 -926 0
-579 -927 0
-577 -583 0
-578 -584 0
-579 -585 0
-577 -601 0
-578 -602 0
-579 -603 0
-577 -1567 0
-578 -1568 0
-579 -1569 0
-577 -982 0
-578 -983 0
-579 -984 0
-577 -1330 0
-578 -1331 0
-579 -1332 0
-577 -1126 0
-578 -1127 0
-579 -1128 0
-577 -646 0
-578 -647 0
-579 -648 0
-577 -868 0
-578 -869 0
-579 -870 0
-580 -2110 0
-581 -2111 0
-582 -2112 0
-580 -979 0
-581 -980 0
-582 -981 0
-580 -2218 0
-581 -2219 0
-582 -2220 0
-580 -586 0
-581 -587 0
-582 -588 0
-583 -3097 0
-584 -3098 0
-585 -3099 0
-583 -2116 0
-584 -2117 0
-585 -2118 0
-583 -2158 0
-584 -2159 0
-585 -2160 0
-583 -2314 0
-584 -2315 0
-585 -2316 0
-583 -985 0
-584 -986 0
-585 -987 0
-586 -1081 0
-587 -1082 0
-588 -1083 0
-586 -1183 0
-587 -1184 0
-588 -1185 0
-586 -1456 0
-587 -1457 0
-588 -1458 0
-586 -934 0
-587 -935 0
-588 -936 0
-586 -1570 0
-587 -1571 0
-588 -1572 0
-586 -982 0
-587 -983 0
-588 -984 0
-586 -1333 0
-587 -1334 0
-588 -1335 0
-586 -649 0
-587 -650 0
-588 -651 0
-589 -3400 0
-590 -3401 0
-591 -3402 0
-589 -622 0
-590 -623 0
-591 -624 0
-589 -943 0
-590 -944 0
-591 -945 0
-589 -2350 0
-590 -2351 0
-591 -2352 0
-592 -2074 0
-593 -2075 0
-594 -2076 0
-592 -3295 0
-593 -3296 0
-594 -3297 0
-592 -622 0
-593 -623 0
-594 -624 0
-592 -4186 0
-593 -4187 0
-594 -4188 0
-592 -3220 0
-593 -3221 0
-594 -3222 0
-592 -949 0
-593 -950 0
-594 -951 0
-595 -4174 0
-596 -4175 0
-597 -4176 0
-595 -3034 0
-596 -3035 0
-597 -3036 0
-595 -628 0
-596 -629 0
-597 -630 0
-595 -943 0
-596 -944 0
-597 -945 0
-595 -3559 0
-596 -3560 0
-597 -3561 0
-598 -628 0
-599 -629 0
-600 -630 0
-598 -1987 0
-599 -1988 0
-600 -1989 0
-598 -1912 0
-599 -1913 0
-600 -1914 0
-598 -3982 0
-599 -3983 0
-600 -3984 0
-598 -949 0
-599 -950 0
-600 -951 0
-601 -2551 0
-602 -2552 0
-603 -2553 0
-601 -2641 0
-602 -2642 0
-603 -2643 0
-601 -994 0
-602 -995 0
-603 -996 0
-601 -3121 0
-602 -3122 0
-603 -3123 0
-604 -1315 0
-605 -1316 0
-606 -1317 0
-604 -3751 0
-605 -3752 0
-606 -3753 0
-604 -4069 0
-605 -4070 0
-606 -4071 0
-604 -3190 0
-605 -3191 0
-606 -3192 0
-607 -4141 0
-608 -4142 0
-609 -4143 0
-607 -3472 0
-608 -3473 0
-609 -3474 0
-607 -1324 0
-608 -1325 0
-609 -1326 0
-607 -2965 0
-608 -2966 0
-609 -2967 0
-607 -2092 0
-608 -2093 0
-609 -2094 0
-607 -3487 0
-608 -3488 0
-609 -3489 0
-607 -3496 0
-608 -3497 0
-609 -3498 0
-607 -3499 0
-608 -3500 0
-609 -3501 0
-610 -3472 0
-611 -3473 0
-612 -3474 0
-610 -3589 0
-611 -3590 0
-612 -3591 0
-610 -1348 0
-611 -1349 0
-612 -1350 0
-610 -3517 0
-611 -3518 0
-612 -3519 0
-613 -1936 0
-614 -1937 0
-615 -1938 0
-613 -2446 0
-614 -2447 0
-615 -2448 0
-613 -3748 0
-614 -3749 0
-615 -3750 0
-613 -1357 0
-614 -1358 0
-615 -1359 0
-613 -3190 0
-614 -3191 0
-615 -3192 0
-613 -3436 0
-614 -3437 0
-615 -3438 0
-616 -3652 0
-617 -3653 0
-618 -3654 0
-616 -3301 0
-617 -3302 0
-618 -3303 0
-616 -2830 0
-617 -2831 0
-618 -2832 0
-616 -628 0
-617 -629 0
-618 -630 0
-616 -3187 0
-617 -3188 0
-618 -3189 0
-616 -970 0
-617 -971 0
-618 -972 0
-619 -2653 0
-620 -2654 0
-621 -2655 0
-619 -622 0
-620 -623 0
-621 -624 0
-619 -3562 0
-620 -3563 0
-621 -3564 0
-622 -1108 0
-623 -1109 0
-624 -1110 0
-622 -625 0
-623 -626 0
-624 -627 0
-622 -982 0
-623 -983 0
-624 -984 0
-622 -1129 0
-623 -1130 0
-624 -1131 0
-622 -1336 0
-623 -1337 0
-624 -1338 0
-622 -1360 0
-623 -1361 0
-624 -1362 0
-625 -3502 0
-626 -3503 0
-627 -3504 0
-625 -2278 0
-626 -2279 0
-627 -2280 0
-625 -985 0
-626 -986 0
-627 -987 0
-625 -4093 0
-626 -4094 0
-627 -4095 0
-625 -2188 0
-626 -2189 0
-627 -2190 0
-625 -2350 0
-626 -2351 0
-627 -2352 0
-628 -1393 0
-629 -1394 0
-630 -1395 0
-628 -904 0
-629 -905 0
-630 -906 0
-628 -1186 0
-629 -1187 0
-630 -1188 0
-628 -1459 0
-629 -1460 0
-630 -1461 0
-628 -1105 0
-629 -1106 0
-630 -1107 0
-628 -982 0
-629 -983 0
-630 -984 0
-628 -1573 0
-629 -1574 0
-630 -1575 0
-628 -1339 0
-629 -1340 0
-630 -1341 0
-628 -643 0
-629 -644 0
-630 -645 0
-628 -862 0
-629 -863 0
-630 -864 0
-628 -1033 0
-629 -1034 0
-630 -1035 0
-631 -1918 0
-632 -1919 0
-633 -1920 0
-631 -907 0
-632 -908 0
-633 -909 0
-631 -3169 0
-632 -3170 0
-633 -3171 0
-631 -3328 0
-632 -3329 0
-633 -3330 0
-631 -3211 0
-632 -3212 0
-633 -3213 0
-631 -676 0
-632 -677 0
-633 -678 0
-634 -2425 0
-635 -2426 0
-636 -2427 0
-634 -2887 0
-635 -2888 0
-636 -2889 0
-634 -1474 0
-635 -1475 0
-636 -1476 0
-634 -2998 0
-635 -2999 0
-636 -3000 0
-637 -1900 0
-638 -1901 0
-639 -1902 0
-637 -1429 0
-638 -1430 0
-639 -1431 0
-640 -3685 0
-641 -3686 0
-642 -3687 0
-640 -3031 0
-641 -3032 0
-642 -3033 0
-640 -3070 0
-641 -3071 0
-642 -3072 0
-640 -1495 0
-641 -1496 0
-642 -1497 0
-643 -1048 0
-644 -1049 0
-645 -1050 0
-643 -3130 0
-644 -3131 0
-645 -3132 0
-643 -3370 0
-644 -3371 0
-645 -3372 0
-643 -2626 0
-644 -2627 0
-645 -2628 0
-643 -2584 0
-644 -2585 0
-645 -2586 0
-646 -2020 0
-647 -2021 0
-648 -2022 0
-646 -2551 0
-647 -2552 0
-648 -2553 0
-646 -3097 0
-647 -3098 0
-648 -3099 0
-646 -3100 0
-647 -3101 0
-648 -3102 0
-646 -1072 0
-647 -1073 0
-648 -1074 0
-646 -3106 0
-647 -3107 0
-648 -3108 0
-646 -1999 0
-647 -2000 0
-648 -2001 0
-649 -1069 0
-650 -1070 0
-651 -1071 0
-649 -2218 0
-650 -2219 0
-651 -2220 0
-649 -1960 0
-650 -1961 0
-651 -1962 0
-652 -1198 0
-653 -1199 0
-654 -1200 0
-652 -982 0
-653 -983 0
-654 -984 0
-652 -1225 0
-653 -1226 0
-654 -1227 0
-652 -667 0
-653 -668 0
-654 -669 0
-655 -1201 0
-656 -1202 0
-657 -1203 0
-655 -982 0
-656 -983 0
-657 -984 0
-655 -1222 0
-656 -1223 0
-657 -1224 0
-655 -1501 0
-656 -1502 0
-657 -1503 0
-655 -664 0
-656 -665 0
-657 -666 0
-658 -2395 0
-659 -2396 0
-660 -2397 0
-658 -1921 0
-659 -1922 0
-660 -1923 0
-658 -3133 0
-659 -3134 0
-660 -3135 0
-658 -1939 0
-659 -1940 0
-660 -1941 0
-658 -2470 0
-659 -2471 0
-660 -2472 0
-658 -676 0
-659 -677 0
-660 -678 0
-658 -1948 0
-659 -1949 0
-660 -1950 0
-658 -943 0
-659 -944 0
-660 -945 0
-658 -2467 0
-659 -2468 0
-660 -2469 0
-658 -2065 0
-659 -2066 0
-660 -2067 0
-658 -3805 0
-659 -3806 0
-660 -3807 0
-658 -3196 0
-659 -3197 0
-660 -3198 0
-661 -2275 0
-662 -2276 0
-663 -2277 0
-661 -673 0
-662 -674 0
-663 -675 0
-661 -2461 0
-662 -2462 0
-663 -2463 0
-661 -2809 0
-662 -2810 0
-663 -2811 0
-661 -1957 0
-662 -1958 0
-663 -1959 0
-661 -2818 0
-662 -2819 0
-663 -2820 0
-661 -949 0
-662 -950 0
-663 -951 0
-664 -4030 0
-665 -4031 0
-666 -4032 0
-664 -3598 0
-665 -3599 0
-666 -3600 0
-664 -2287 0
-665 -2288 0
-666 -2289 0
-664 -1018 0
-665 -1019 0
-666 -1020 0
-664 -2272 0
-665 -2273 0
-666 -2274 0
-667 -3442 0
-668 -3443 0
-669 -3444 0
-667 -3634 0
-668 -3635 0
-669 -3636 0
-667 -3973 0
-668 -3974 0
-669 -3975 0
-667 -1027 0
-668 -1028 0
-669 -1029 0
-670 -2323 0
-671 -2324 0
-672 -2325 0
-670 -3328 0
-671 -3329 0
-672 -3330 0
-670 -676 0
-671 -677 0
-672 -678 0
-670 -2467 0
-671 -2468 0
-672 -2469 0
-670 -970 0
-671 -971 0
-672 -972 0
-673 -1207 0
-674 -1208 0
-675 -1209 0
-673 -982 0
-674 -983 0
-675 -984 0
-673 -1252 0
-674 -1253 0
-675 -1254 0
-673 -1504 0
-674 -1505 0
-675 -1506 0
-676 -1075 0
-677 -1076 0
-678 -1077 0
-676 -1210 0
-677 -1211 0
-678 -1212 0
-676 -982 0
-677 -983 0
-678 -984 0
-676 -1249 0
-677 -1250 0
-678 -1251 0
-679 -3550 0
-680 -3551 0
-681 -3552 0
-679 -1387 0
-680 -1388 0
-681 -1389 0
-679 -2539 0
-680 -2540 0
-681 -2541 0
-679 -2542 0
-680 -2543 0
-681 -2544 0
-682 -3550 0
-683 -3551 0
-684 -3552 0
-682 -1387 0
-683 -1388 0
-684 -1389 0
-682 -2521 0
-683 -2522 0
-684 -2523 0
-682 -1879 0
-683 -1880 0
-684 -1881 0
-682 -4045 0
-683 -4046 0
-684 -4047 0
-682 -3544 0
-683 -3545 0
-684 -3546 0
-685 -4084 0
-686 -4085 0
-687 -4086 0
-685 -2521 0
-686 -2522 0
-687 -2523 0
-685 -2239 0
-686 -2240 0
-687 -2241 0
-688 -2464 0
-689 -2465 0
-690 -2466 0
-688 -2218 0
-689 -2219 0
-690 -2220 0
-688 -3802 0
-689 -3803 0
-690 -3804 0
-688 -2143 0
-689 -2144 0
-690 -2145 0
-688 -1885 0
-689 -1886 0
-690 -1887 0
-688 -1474 0
-689 -1475 0
-690 -1476 0
-688 -1912 0
-689 -1913 0
-690 -1914 0
-691 -3400 0
-692 -3401 0
-693 -3402 0
-691 -3409 0
-692 -3410 0
-693 -3411 0
-691 -3097 0
-692 -3098 0
-693 -3099 0
-691 -3100 0
-692 -3101 0
-693 -3102 0
-691 -3484 0
-692 -3485 0
-693 -3486 0
-691 -1471 0
-692 -1472 0
-693 -1473 0
-691 -3940 0
-692 -3941 0
-693 -3942 0
-694 -3130 0
-695 -3131 0
-696 -3132 0
-694 -2233 0
-695 -2234 0
-696 -2235 0
-694 -3478 0
-695 -3479 0
-696 -3480 0
-694 -1495 0
-695 -1496 0
-696 -1497 0
-694 -3937 0
-695 -3938 0
-696 -3939 0
-694 -4012 0
-695 -4013 0
-696 -4014 0
-697 -2377 0
-698 -2378 0
-699 -2379 0
-697 -2176 0
-698 -2177 0
-699 -2178 0
-697 -2179 0
-698 -2180 0
-699 -2181 0
-697 -2152 0
-698 -2153 0
-699 -2154 0
-697 -2161 0
-698 -2162 0
-699 -2163 0
-697 -1492 0
-698 -1493 0
-699 -1494 0
-700 -2506 0
-701 -2507 0
-702 -2508 0
-700 -2281 0
-701 -2282 0
-702 -2283 0
-700 -709 0
-701 -710 0
-702 -711 0
-703 -1930 0
-704 -1931 0
-705 -1932 0
-703 -709 0
-704 -710 0
-705 -711 0
-703 -943 0
-704 -944 0
-705 -945 0
-703 -1888 0
-704 -1889 0
-705 -1890 0
-706 -3670 0
-707 -3671 0
-708 -3672 0
-706 -709 0
-707 -710 0
-708 -711 0
-706 -970 0
-707 -971 0
-708 -972 0
-706 -2374 0
-707 -2375 0
-708 -2376 0
-709 -1462 0
-710 -1463 0
-711 -1464 0
-709 -1468 0
-710 -1469 0
-711 -1470 0
-709 -982 0
-710 -983 0
-711 -984 0
-712 -3790 0
-713 -3791 0
-714 -3792 0
-712 -2737 0
-713 -2738 0
-714 -2739 0
-712 -2875 0
-713 -2876 0
-714 -2877 0
-712 -2719 0
-713 -2720 0
-714 -2721 0
-712 -1282 0
-713 -1283 0
-714 -1284 0
-715 -3439 0
-716 -3440 0
-717 -3441 0
-715 -1279 0
-716 -1280 0
-717 -1281 0
-715 -2974 0
-716 -2975 0
-717 -2976 0
-715 -2881 0
-716 -2882 0
-717 -2883 0
-715 -3013 0
-716 -3014 0
-717 -3015 0
-715 -3922 0
-716 -3923 0
-717 -3924 0
-715 -2893 0
-716 -2894 0
-717 -2895 0
-718 -1588 0
-719 -1589 0
-720 -1590 0
-718 -2935 0
-719 -2936 0
-720 -2937 0
-718 -3778 0
-719 -3779 0
-720 -3780 0
-718 -3523 0
-719 -3524 0
-720 -3525 0
-721 -2701 0
-722 -2702 0
-723 -2703 0
-721 -2722 0
-722 -2723 0
-723 -2724 0
-721 -1591 0
-722 -1592 0
-723 -1593 0
-721 -2587 0
-722 -2588 0
-723 -2589 0
-721 -2878 0
-722 -2879 0
-723 -2880 0
-721 -3046 0
-722 -3047 0
-723 -3048 0
-724 -1531 0
-725 -1532 0
-726 -1533 0
-724 -2974 0
-725 -2975 0
-726 -2976 0
-724 -3895 0
-725 -3896 0
-726 -3897 0
-724 -3019 0
-725 -3020 0
-726 -3021 0
-724 -2269 0
-725 -2270 0
-726 -2271 0
-727 -2740 0
-728 -2741 0
-729 -2742 0
-727 -2986 0
-728 -2987 0
-729 -2988 0
-727 -2719 0
-728 -2720 0
-729 -2721 0
-727 -1534 0
-728 -1535 0
-729 -1536 0
-730 -3277 0
-731 -3278 0
-732 -3279 0
-730 -3184 0
-731 -3185 0
-732 -3186 0
-730 -1534 0
-731 -1535 0
-732 -1536 0
-733 -1603 0
-734 -1604 0
-735 -1605 0
-733 -4063 0
-734 -4064 0
-735 -4065 0
-733 -3826 0
-734 -3827 0
-735 -3828 0
-733 -2875 0
-734 -2876 0
-735 -2877 0
-733 -2053 0
-734 -2054 0
-735 -2055 0
-733 -2722 0
-734 -2723 0
-735 -2724 0
-733 -2008 0
-734 -2009 0
-735 -2010 0
-736 -1606 0
-737 -1607 0
-738 -1608 0
-736 -2872 0
-737 -2873 0
-738 -2874 0
-736 -2881 0
-737 -2882 0
-738 -2883 0
-736 -2758 0
-737 -2759 0
-738 -2760 0
-736 -2812 0
-737 -2813 0
-738 -2814 0
-736 -2935 0
-737 -2936 0
-738 -2937 0
-739 -1297 0
-740 -1298 0
-741 -1299 0
-739 -2644 0
-740 -2645 0
-741 -2646 0
-739 -2878 0
-740 -2879 0
-741 -2880 0
-739 -2581 0
-740 -2582 0
-741 -2583 0
-739 -3184 0
-740 -3185 0
-741 -3186 0
-739 -3874 0
-740 -3875 0
-741 -3876 0
-742 -1537 0
-743 -1538 0
-744 -1539 0
-742 -3850 0
-743 -3851 0
-744 -3852 0
-742 -3952 0
-743 -3953 0
-744 -3954 0
-742 -2242 0
-743 -2243 0
-744 -2244 0
-745 -1273 0
-746 -1274 0
-747 -1275 0
-745 -982 0
-746 -983 0
-747 -984 0
-748 -1921 0
-749 -1922 0
-750 -1923 0
-748 -1939 0
-749 -1940 0
-750 -1941 0
-748 -1978 0
-749 -1979 0
-750 -1980 0
-748 -1279 0
-749 -1280 0
-750 -1281 0
-751 -2275 0
-752 -2276 0
-753 -2277 0
-751 -3958 0
-752 -3959 0
-753 -3960 0
-751 -4057 0
-752 -4058 0
-753 -4059 0
-751 -1282 0
-752 -1283 0
-753 -1284 0
-754 -3685 0
-755 -3686 0
-756 -3687 0
-754 -3649 0
-755 -3650 0
-756 -3651 0
-754 -1549 0
-755 -1550 0
-756 -1551 0
-757 -3115 0
-758 -3116 0
-759 -3117 0
-757 -4195 0
-758 -4196 0
-759 -4197 0
-757 -3118 0
-758 -3119 0
-759 -3120 0
-757 -1558 0
-758 -1559 0
-759 -1560 0
-760 -3892 0
-761 -3893 0
-762 -3894 0
-760 -3349 0
-761 -3350 0
-762 -3351 0
-760 -1297 0
-761 -1298 0
-762 -1299 0
-760 -2530 0
-761 -2531 0
-762 -2532 0
-763 -3274 0
-764 -3275 0
-765 -3276 0
-763 -4051 0
-764 -4052 0
-765 -4053 0
-763 -1300 0
-764 -1301 0
-765 -1302 0
-763 -2515 0
-764 -2516 0
-765 -2517 0
-763 -4000 0
-764 -4001 0
-765 -4002 0
-766 -3145 0
-767 -3146 0
-768 -3147 0
-766 -2596 0
-767 -2597 0
-768 -2598 0
-766 -3910 0
-767 -3911 0
-768 -3912 0
-766 -1357 0
-767 -1358 0
-768 -1359 0
-769 -2548 0
-770 -2549 0
-771 -2550 0
-769 -2662 0
-770 -2663 0
-771 -2664 0
-769 -3820 0
-770 -3821 0
-771 -3822 0
-769 -3736 0
-770 -3737 0
-771 -3738 0
-769 -3865 0
-770 -3866 0
-771 -3867 0
-769 -1645 0
-770 -1646 0
-771 -1647 0
-772 -1654 0
-773 -1655 0
-774 -1656 0
-772 -3835 0
-773 -3836 0
-774 -3837 0
-772 -2941 0
-773 -2942 0
-774 -2943 0
-772 -3868 0
-773 -3869 0
-774 -3870 0
-775 -1537 0
-776 -1538 0
-777 -1539 0
-775 -1945 0
-776 -1946 0
-777 -1947 0
-775 -4114 0
-776 -4115 0
-777 -4116 0
-778 -3943 0
-779 -3944 0
-780 -3945 0
-778 -1621 0
-779 -1622 0
-780 -1623 0
-778 -3847 0
-779 -3848 0
-780 -3849 0
-778 -2599 0
-779 -2600 0
-780 -2601 0
-778 -3823 0
-779 -3824 0
-780 -3825 0
-778 -3352 0
-779 -3353 0
-780 -3354 0
-778 -3985 0
-779 -3986 0
-780 -3987 0
-781 -2308 0
-782 -2309 0
-783 -2310 0
-781 -3001 0
-782 -3002 0
-783 -3003 0
-781 -3253 0
-782 -3254 0
-783 -3255 0
-781 -3508 0
-782 -3509 0
-783 -3510 0
-781 -1630 0
-782 -1631 0
-783 -1632 0
-781 -3913 0
-782 -3914 0
-783 -3915 0
-781 -3043 0
-782 -3044 0
-783 -3045 0
-781 -2317 0
-782 -2318 0
-783 -2319 0
-781 -2473 0
-782 -2474 0
-783 -2475 0
-784 -3943 0
-785 -3944 0
-786 -3945 0
-784 -1546 0
-785 -1547 0
-786 -1548 0
-784 -2608 0
-785 -2609 0
-786 -2610 0
-784 -2611 0
-785 -2612 0
-786 -2613 0
-787 -1654 0
-788 -1655 0
-789 -1656 0
-787 -3907 0
-788 -3908 0
-789 -3909 0
-787 -4081 0
-788 -4082 0
-789 -4083 0
-790 -3274 0
-791 -3275 0
-792 -3276 0
-790 -1927 0
-791 -1928 0
-792 -1929 0
-790 -1402 0
-791 -1403 0
-792 -1404 0
-790 -3310 0
-791 -3311 0
-792 -3312 0
-793 -1924 0
-794 -1925 0
-795 -1926 0
-793 -2035 0
-794 -2036 0
-795 -2037 0
-793 -1408 0
-794 -1409 0
-795 -1410 0
-793 -3892 0
-794 -3893 0
-795 -3894 0
-793 -4168 0
-794 -4169 0
-795 -4170 0
-796 -3166 0
-797 -3167 0
-798 -3168 0
-796 -1531 0
-797 -1532 0
-798 -1533 0
-796 -2086 0
-797 -2087 0
-798 -2088 0
-796 -3976 0
-797 -3977 0
-798 -3978 0
-796 -2071 0
-797 -2072 0
-798 -2073 0
-796 -4096 0
-797 -4097 0
-798 -4098 0
-799 -3604 0
-800 -3605 0
-801 -3606 0
-799 -3832 0
-800 -3833 0
-801 -3834 0
-799 -1534 0
-800 -1535 0
-801 -1536 0
-802 -2056 0
-803 -2057 0
-804 -2058 0
-802 -2560 0
-803 -2561 0
-804 -2562 0
-802 -1675 0
-803 -1676 0
-804 -1677 0
-802 -2014 0
-803 -2015 0
-804 -2016 0
-805 -2926 0
-806 -2927 0
-807 -2928 0
-805 -2032 0
-806 -2033 0
-807 -2034 0
-805 -2638 0
-806 -2639 0
-807 -2640 0
-805 -2827 0
-806 -2828 0
-807 -2829 0
-805 -1684 0
-806 -1685 0
-807 -1686 0
-805 -3430 0
-806 -3431 0
-807 -3432 0
-805 -2902 0
-806 -2903 0
-807 -2904 0
-805 -2647 0
-806 -2648 0
-807 -2649 0
-808 -2755 0
-809 -2756 0
-810 -2757 0
-808 -2668 0
-809 -2669 0
-810 -2670 0
-808 -3346 0
-809 -3347 0
-810 -3348 0
-808 -3976 0
-809 -3977 0
-810 -3978 0
-808 -4204 0
-809 -4205 0
-810 -4206 0
-808 -2068 0
-809 -2069 0
-810 -2070 0
-808 -1531 0
-809 -1532 0
-810 -1533 0
-811 -1924 0
-812 -1925 0
-813 -1926 0
-811 -1429 0
-812 -1430 0
-813 -1431 0
-811 -1876 0
-812 -1877 0
-813 -1878 0
-814 -1918 0
-815 -1919 0
-816 -1920 0
-814 -1213 0
-815 -1214 0
-816 -1215 0
-814 -3373 0
-815 -3374 0
-816 -3375 0
-817 -3625 0
-818 -3626 0
-819 -3627 0
-817 -1537 0
-818 -1538 0
-819 -1539 0
-817 -3679 0
-818 -3680 0
-819 -3681 0
-817 -3658 0
-818 -3659 0
-819 -3660 0
-820 -3958 0
-821 -3959 0
-822 -3960 0
-820 -2527 0
-821 -2528 0
-822 -2529 0
-820 -1558 0
-821 -1559 0
-822 -1560 0
-820 -3721 0
-821 -3722 0
-822 -3723 0
-823 -3424 0
-824 -3425 0
-825 -3426 0
-823 -3454 0
-824 -3455 0
-825 -3456 0
-823 -1549 0
-824 -1550 0
-825 -1551 0
-823 -3643 0
-824 -3644 0
-825 -3645 0
-823 -2524 0
-824 -2525 0
-825 -2526 0
-826 -3061 0
-827 -3062 0
-828 -3063 0
-826 -2509 0
-827 -2510 0
-828 -2511 0
-826 -1558 0
-827 -1559 0
-828 -1560 0
-829 -1969 0
-830 -1970 0
-831 -1971 0
-829 -2536 0
-830 -2537 0
-831 -2538 0
-829 -3217 0
-830 -3218 0
-831 -3219 0
-829 -2287 0
-830 -2288 0
-831 -2289 0
-829 -2464 0
-830 -2465 0
-831 -2466 0
-829 -1474 0
-830 -1475 0
-831 -1476 0
-832 -2275 0
-833 -2276 0
-834 -2277 0
-832 -3691 0
-833 -3692 0
-834 -3693 0
-832 -2818 0
-833 -2819 0
-834 -2820 0
-832 -1492 0
-833 -1493 0
-834 -1494 0
-835 -1921 0
-836 -1922 0
-837 -1923 0
-835 -3898 0
-836 -3899 0
-837 -3900 0
-835 -3244 0
-836 -3245 0
-837 -3246 0
-835 -3478 0
-836 -3479 0
-837 -3480 0
-835 -1948 0
-836 -1949 0
-837 -1950 0
-835 -1495 0
-836 -1496 0
-837 -1497 0
-838 -3571 0
-839 -3572 0
-840 -3573 0
-838 -2536 0
-839 -2537 0
-840 -2538 0
-838 -3349 0
-839 -3350 0
-840 -3351 0
-838 -1297 0
-839 -1298 0
-840 -1299 0
-841 -3199 0
-842 -3200 0
-843 -3201 0
-841 -2029 0
-842 -2030 0
-843 -2031 0
-841 -1588 0
-842 -1589 0
-843 -1590 0
-841 -2002 0
-842 -2003 0
-843 -2004 0
-844 -2974 0
-845 -2975 0
-846 -2976 0
-844 -4147 0
-845 -4148 0
-846 -4149 0
-844 -2920 0
-845 -2921 0
-846 -2922 0
-844 -1591 0
-845 -1592 0
-846 -1593 0
-847 -2947 0
-848 -2948 0
-849 -2949 0
-847 -2803 0
-848 -2804 0
-849 -2805 0
-847 -2719 0
-848 -2720 0
-849 -2721 0
-847 -1588 0
-848 -1589 0
-849 -1590 0
-847 -4057 0
-848 -4058 0
-849 -4059 0
-847 -2944 0
-848 -2945 0
-849 -2946 0
-847 -3769 0
-848 -3770 0
-849 -3771 0
-850 -2029 0
-851 -2030 0
-852 -2031 0
-850 -1606 0
-851 -1607 0
-852 -1608 0
-850 -2005 0
-851 -2006 0
-852 -2007 0
-850 -3193 0
-851 -3194 0
-852 -3195 0
-853 -4171 0
-854 -4172 0
-855 -4173 0
-853 -4099 0
-854 -4100 0
-855 -4101 0
-853 -1606 0
-854 -1607 0
-855 -1608 0
-853 -3979 0
-854 -3980 0
-855 -3981 0
-853 -3952 0
-854 -3953 0
-855 -3954 0
-853 -3184 0
-854 -3185 0
-855 -3186 0
-853 -2242 0
-854 -2243 0
-855 -2244 0
-856 -3364 0
-857 -3365 0
-858 -3366 0
-856 -1603 0
-857 -1604 0
-858 -1605 0
-856 -4150 0
-857 -4151 0
-858 -4152 0
-856 -3826 0
-857 -3827 0
-858 -3828 0
-856 -3514 0
-857 -3515 0
-858 -3516 0
-859 -1606 0
-860 -1607 0
-861 -1608 0
-859 -2005 0
-860 -2006 0
-861 -2007 0
-859 -2098 0
-860 -2099 0
-861 -2100 0
-862 -1897 0
-863 -1898 0
-864 -1899 0
-862 -3385 0
-863 -3386 0
-864 -3387 0
-862 -2305 0
-863 -2306 0
-864 -2307 0
-865 -2290 0
-866 -2291 0
-867 -2292 0
-865 -2257 0
-866 -2258 0
-867 -2259 0
-865 -1630 0
-866 -1631 0
-867 -1632 0
-868 -2182 0
-869 -2183 0
-870 -2184 0
-868 -1855 0
-869 -1856 0
-870 -1857 0
-868 -1255 0
-869 -1256 0
-870 -1257 0
-871 -1603 0
-872 -1604 0
-873 -1605 0
-871 -3412 0
-872 -3413 0
-873 -3414 0
-871 -3730 0
-872 -3731 0
-873 -3732 0
-874 -2104 0
-875 -2105 0
-876 -2106 0
-874 -1324 0
-875 -1325 0
-876 -1326 0
-874 -2782 0
-875 -2783 0
-876 -2784 0
-874 -2365 0
-875 -2366 0
-876 -2367 0
-877 -3607 0
-878 -3608 0
-879 -3609 0
-877 -1315 0
-878 -1316 0
-879 -1317 0
-877 -3760 0
-878 -3761 0
-879 -3762 0
-877 -2026 0
-878 -2027 0
-879 -2028 0
-877 -2215 0
-878 -2216 0
-879 -2217 0
-877 -2221 0
-878 -2222 0
-879 -2223 0
-877 -2017 0
-878 -2018 0
-879 -2019 0
-880 -1507 0
-881 -1508 0
-882 -1509 0
-880 -1453 0
-881 -1454 0
-882 -1455 0
-880 -937 0
-881 -938 0
-882 -939 0
-880 -982 0
-881 -983 0
-882 -984 0
-880 -1579 0
-881 -1580 0
-882 -1581 0
-880 -886 0
-881 -887 0
-882 -888 0
-883 -4177 0
-884 -4178 0
-885 -4179 0
-883 -889 0
-884 -890 0
-885 -891 0
-883 -943 0
-884 -944 0
-885 -945 0
-883 -3181 0
-884 -3182 0
-885 -3183 0
-883 -2770 0
-884 -2771 0
-885 -2772 0
-886 -2506 0
-887 -2507 0
-888 -2508 0
-886 -2674 0
-887 -2675 0
-888 -2676 0
-886 -3682 0
-887 -3683 0
-888 -3684 0
-886 -3355 0
-887 -3356 0
-888 -3357 0
-886 -1027 0
-887 -1028 0
-888 -1029 0
-886 -3391 0
-887 -3392 0
-888 -3393 0
-889 -1510 0
-890 -1511 0
-891 -1512 0
-889 -982 0
-890 -983 0
-891 -984 0
-892 -2203 0
-893 -2204 0
-894 -2205 0
-892 -1900 0
-893 -1901 0
-894 -1902 0
-892 -1864 0
-893 -1865 0
-894 -1866 0
-892 -3901 0
-893 -3902 0
-894 -3903 0
-892 -3910 0
-893 -3911 0
-894 -3912 0
-892 -1357 0
-893 -1358 0
-894 -1359 0
-892 -3619 0
-893 -3620 0
-894 -3621 0
-895 -1348 0
-896 -1349 0
-897 -1350 0
-895 -2125 0
-896 -2126 0
-897 -2127 0
-898 -3445 0
-899 -3446 0
-900 -3447 0
-898 -3733 0
-899 -3734 0
-900 -3735 0
-898 -2785 0
-899 -2786 0
-900 -2787 0
-898 -1588 0
-899 -1589 0
-900 -1590 0
-901 -2020 0
-902 -2021 0
-903 -2022 0
-901 -2563 0
-902 -2564 0
-903 -2565 0
-901 -1279 0
-902 -1280 0
-903 -1281 0
-901 -2659 0
-902 -2660 0
-903 -2661 0
-904 -4174 0
-905 -4175 0
-906 -4176 0
-904 -2626 0
-905 -2627 0
-906 -2628 0
-904 -1300 0
-905 -1301 0
-906 -1302 0
-907 -1513 0
-908 -1514 0
-909 -1515 0
-907 -1303 0
-908 -1304 0
-909 -1305 0
-907 -982 0
-908 -983 0
-909 -984 0
-910 -1306 0
-911 -1307 0
-912 -1308 0
-910 -982 0
-911 -983 0
-912 -984 0
-910 -1042 0
-911 -1043 0
-912 -1044 0
-913 -2077 0
-914 -2078 0
-915 -2079 0
-913 -3136 0
-914 -3137 0
-915 -3138 0
-913 -3145 0
-914 -3146 0
-915 -3147 0
-913 -3160 0
-914 -3161 0
-915 -3162 0
-913 -1531 0
-914 -1532 0
-915 -1533 0
-916 -2395 0
-917 -2396 0
-918 -2397 0
-916 -3358 0
-917 -3359 0
-918 -3360 0
-916 -4183 0
-917 -4184 0
-918 -4185 0
-916 -3139 0
-917 -3140 0
-918 -3141 0
-916 -2788 0
-917 -2789 0
-918 -2790 0
-916 -3772 0
-917 -3773 0
-918 -3774 0
-916 -943 0
-917 -944 0
-918 -945 0
-916 -2938 0
-917 -2939 0
-918 -2940 0
-919 -3526 0
-920 -3527 0
-921 -3528 0
-919 -1969 0
-920 -1970 0
-921 -1971 0
-919 -3262 0
-920 -3263 0
-921 -3264 0
-919 -1957 0
-920 -1958 0
-921 -1959 0
-919 -949 0
-920 -950 0
-921 -951 0
-922 -2467 0
-923 -2468 0
-924 -2469 0
-922 -970 0
-923 -971 0
-924 -972 0
-922 -943 0
-923 -944 0
-924 -945 0
-922 -4111 0
-923 -4112 0
-924 -4113 0
-925 -1315 0
-926 -1316 0
-927 -1317 0
-925 -3610 0
-926 -3611 0
-927 -3612 0
-925 -4069 0
-926 -4070 0
-927 -4071 0
-925 -2116 0
-926 -2117 0
-927 -2118 0
-925 -2017 0
-926 -2018 0
-927 -2019 0
-928 -3484 0
-929 -3485 0
-930 -3486 0
-928 -2284 0
-929 -2285 0
-930 -2286 0
-928 -1471 0
-929 -1472 0
-930 -1473 0
-931 -2143 0
-932 -2144 0
-933 -2145 0
-931 -4024 0
-932 -4025 0
-933 -4026 0
-931 -1474 0
-932 -1475 0
-933 -1476 0
-934 -1324 0
-935 -1325 0
-936 -1326 0
-934 -2107 0
-935 -2108 0
-936 -2109 0
-934 -4189 0
-935 -4190 0
-936 -4191 0
-934 -2110 0
-935 -2111 0
-936 -2112 0
-934 -3487 0
-935 -3488 0
-936 -3489 0
-934 -2833 0
-935 -2834 0
-936 -2835 0
-937 -1087 0
-938 -1088 0
-939 -1089 0
-937 -3922 0
-938 -3923 0
-939 -3924 0
-937 -3322 0
-938 -3323 0
-939 -3324 0
-937 -3682 0
-938 -3683 0
-939 -3684 0
-937 -4075 0
-938 -4076 0
-939 -4077 0
-940 -3790 0
-941 -3791 0
-942 -3792 0
-940 -3406 0
-941 -3407 0
-942 -3408 0
-940 -3613 0
-941 -3614 0
-942 -3615 0
-940 -1090 0
-941 -1091 0
-942 -1092 0
-943 -1060 0
-944 -1061 0
-945 -1062 0
-943 -1093 0
-944 -1094 0
-945 -1095 0
-943 -1285 0
-944 -1286 0
-945 -1287 0
-943 -946 0
-944 -947 0
-945 -948 0
-943 -1741 0
-944 -1742 0
-945 -1743 0
-943 -982 0
-944 -983 0
-945 -984 0
-943 -1477 0
-944 -1478 0
-945 -1479 0
-943 -1327 0
-944 -1328 0
-945 -1329 0
-946 -2938 0
-947 -2939 0
-948 -2940 0
-946 -2557 0
-947 -2558 0
-948 -2559 0
-946 -2350 0
-947 -2351 0
-948 -2352 0
-946 -2470 0
-947 -2471 0
-948 -2472 0
-946 -985 0
-947 -986 0
-948 -987 0
-949 -1063 0
-950 -1064 0
-951 -1065 0
-949 -1585 0
-950 -1586 0
-951 -1587 0
-949 -1288 0
-950 -1289 0
-951 -1290 0
-949 -982 0
-950 -983 0
-951 -984 0
-949 -1480 0
-950 -1481 0
-951 -1482 0
-949 -991 0
-950 -992 0
-951 -993 0
-949 -1666 0
-950 -1667 0
-951 -1668 0
-952 -1402 0
-953 -1403 0
-954 -1404 0
-952 -1990 0
-953 -1991 0
-954 -1992 0
-952 -2365 0
-953 -2366 0
-954 -2367 0
-952 -2296 0
-953 -2297 0
-954 -2298 0
-955 -2026 0
-956 -2027 0
-957 -2028 0
-955 -1408 0
-956 -1409 0
-957 -1410 0
-955 -3232 0
-956 -3233 0
-957 -3234 0
-958 -3958 0
-959 -3959 0
-960 -3960 0
-958 -3418 0
-959 -3419 0
-960 -3420 0
-958 -4069 0
-959 -4070 0
-960 -4071 0
-958 -1588 0
-959 -1589 0
-960 -1590 0
-958 -3622 0
-959 -3623 0
-960 -3624 0
-961 -1903 0
-962 -1904 0
-963 -1905 0
-961 -3487 0
-962 -3488 0
-963 -3489 0
-961 -1591 0
-962 -1592 0
-963 -1593 0
-964 -3301 0
-965 -3302 0
-966 -3303 0
-964 -2089 0
-965 -2090 0
-966 -2091 0
-964 -1945 0
-965 -1946 0
-966 -1947 0
-964 -1951 0
-965 -1952 0
-966 -1953 0
-964 -970 0
-965 -971 0
-966 -972 0
-964 -3985 0
-965 -3986 0
-966 -3987 0
-967 -4048 0
-968 -4049 0
-969 -4050 0
-967 -2260 0
-968 -2261 0
-969 -2262 0
-967 -2443 0
-968 -2444 0
-969 -2445 0
-967 -1879 0
-968 -1880 0
-969 -1881 0
-967 -1675 0
-968 -1676 0
-969 -1677 0
-967 -3586 0
-968 -3587 0
-969 -3588 0
-967 -3232 0
-968 -3233 0
-969 -3234 0
-970 -1540 0
-971 -1541 0
-972 -1542 0
-970 -1618 0
-971 -1619 0
-972 -1620 0
-970 -1624 0
-971 -1625 0
-972 -1626 0
-970 -1744 0
-971 -1745 0
-972 -1746 0
-970 -973 0
-971 -974 0
-972 -975 0
-970 -982 0
-971 -983 0
-972 -984 0
-970 -1639 0
-971 -1640 0
-972 -1641 0
-970 -1342 0
-971 -1343 0
-972 -1344 0
-970 -1015 0
-971 -1016 0
-972 -1017 0
-973 -3214 0
-974 -3215 0
-975 -3216 0
-973 -985 0
-974 -986 0
-975 -987 0
-973 -2410 0
-974 -2411 0
-975 -2412 0
-976 -2548 0
-977 -2549 0
-978 -2550 0
-976 -2662 0
-977 -2663 0
-978 -2664 0
-976 -2047 0
-977 -2048 0
-978 -2049 0
-976 -2485 0
-977 -2486 0
-978 -2487 0
-976 -979 0
-977 -980 0
-978 -981 0
-976 -2059 0
-977 -2060 0
-978 -2061 0
-976 -4159 0
-977 -4160 0
-978 -4161 0
-976 -3493 0
-977 -3494 0
-978 -3495 0
-976 -2566 0
-977 -2567 0
-978 -2568 0
-979 -1066 0
-980 -1067 0
-981 -1068 0
-979 -1405 0
-980 -1406 0
-981 -1407 0
-979 -1600 0
-980 -1601 0
-981 -1602 0
-979 -1432 0
-980 -1433 0
-981 -1434 0
-979 -1552 0
-980 -1553 0
-981 -1554 0
-979 -982 0
-980 -983 0
-981 -984 0
-979 -1642 0
-980 -1643 0
-981 -1644 0
-979 -1648 0
-980 -1649 0
-981 -1650 0
-979 -1318 0
-980 -1319 0
-981 -1320 0
-979 -1351 0
-980 -1352 0
-981 -1353 0
-979 -1021 0
-980 -1022 0
-981 -1023 0
-982 -1048 0
-983 -1049 0
-984 -1050 0
-982 -1684 0
-983 -1685 0
-984 -1686 0
-982 -1687 0
-983 -1688 0
-984 -1689 0
-982 -1387 0
-983 -1388 0
-984 -1389 0
-982 -1069 0
-983 -1070 0
-984 -1071 0
-982 -1072 0
-983 -1073 0
-984 -1074 0
-982 -1255 0
-983 -1256 0
-984 -1257 0
-982 -1588 0
-983 -1589 0
-984 -1590 0
-982 -1591 0
-983 -1592 0
-984 -1593 0
-982 -1402 0
-983 -1403 0
-984 -1404 0
-982 -1603 0
-983 -1604 0
-984 -1605 0
-982 -1408 0
-983 -1409 0
-984 -1410 0
-982 -1606 0
-983 -1607 0
-984 -1608 0
-982 -1531 0
-983 -1532 0
-984 -1533 0
-982 -1534 0
-983 -1535 0
-984 -1536 0
-982 -1429 0
-983 -1430 0
-984 -1431 0
-982 -1435 0
-983 -1436 0
-984 -1437 0
-982 -1087 0
-983 -1088 0
-984 -1089 0
-982 -1090 0
-983 -1091 0
-984 -1092 0
-982 -1537 0
-983 -1538 0
-984 -1539 0
-982 -1546 0
-983 -1547 0
-984 -1548 0
-982 -1102 0
-983 -1103 0
-984 -1104 0
-982 -1279 0
-983 -1280 0
-984 -1281 0
-982 -1282 0
-983 -1283 0
-984 -1284 0
-982 -1297 0
-983 -1298 0
-984 -1299 0
-982 -1300 0
-983 -1301 0
-984 -1302 0
-982 -1621 0
-983 -1622 0
-984 -1623 0
-982 -1549 0
-983 -1550 0
-984 -1551 0
-982 -1558 0
-983 -1559 0
-984 -1560 0
-982 -1630 0
-983 -1631 0
-984 -1632 0
-982 -1747 0
-983 -1748 0
-984 -1749 0
-982 -1750 0
-983 -1751 0
-984 -1752 0
-982 -1213 0
-983 -1214 0
-984 -1215 0
-982 -1756 0
-983 -1757 0
-984 -1758 0
-982 -985 0
-983 -986 0
-984 -987 0
-982 -1471 0
-983 -1472 0
-984 -1473 0
-982 -1474 0
-983 -1475 0
-984 -1476 0
-982 -1645 0
-983 -1646 0
-984 -1647 0
-982 -1654 0
-983 -1655 0
-984 -1656 0
-982 -1315 0
-983 -1316 0
-984 -1317 0
-982 -1324 0
-983 -1325 0
-984 -1326 0
-982 -994 0
-983 -995 0
-984 -996 0
-982 -1492 0
-983 -1493 0
-984 -1494 0
-982 -1495 0
-983 -1496 0
-984 -1497 0
-982 -1348 0
-983 -1349 0
-984 -1350 0
-982 -1018 0
-983 -1019 0
-984 -1020 0
-982 -1027 0
-983 -1028 0
-984 -1029 0
-982 -1357 0
-983 -1358 0
-984 -1359 0
-982 -1030 0
-983 -1031 0
-984 -1032 0
-982 -1672 0
-983 -1673 0
-984 -1674 0
-982 -1675 0
-983 -1676 0
-984 -1677 0
-985 -1690 0
-986 -1691 0
-987 -1692 0
-985 -1693 0
-986 -1694 0
-987 -1695 0
-985 -1555 0
-986 -1556 0
-987 -1557 0
-985 -1651 0
-986 -1652 0
-987 -1653 0
-985 -1657 0
-986 -1658 0
-987 -1659 0
-985 -1321 0
-986 -1322 0
-987 -1323 0
-985 -988 0
-986 -989 0
-987 -990 0
-985 -1354 0
-986 -1355 0
-987 -1356 0
-985 -1024 0
-986 -1025 0
-987 -1026 0
-988 -2134 0
-989 -2135 0
-990 -2136 0
-988 -2482 0
-989 -2483 0
-990 -2484 0
-991 -3220 0
-992 -3221 0
-993 -3222 0
-991 -4162 0
-992 -4163 0
-993 -4164 0
-994 -1699 0
-995 -1700 0
-996 -1701 0
-994 -1543 0
-995 -1544 0
-996 -1545 0
-994 -1627 0
-995 -1628 0
-996 -1629 0
-994 -1633 0
-995 -1634 0
-996 -1635 0
-994 -1660 0
-995 -1661 0
-996 -1662 0
-994 -1003 0
-995 -1004 0
-996 -1005 0
-997 -4048 0
-998 -4049 0
-999 -4050 0
-997 -3028 0
-998 -3029 0
-999 -3030 0
-997 -1684 0
-998 -1685 0
-999 -1686 0
-997 -1903 0
-998 -1904 0
-999 -1905 0
-997 -3040 0
-998 -3041 0
-999 -3042 0
-997 -2248 0
-998 -2249 0
-999 -2250 0
-997 -2239 0
-998 -2240 0
-999 -2241 0
-997 -2650 0
-998 -2651 0
-999 -2652 0
-1000 -2959 0
-1001 -2960 0
-1002 -2961 0
-1000 -1687 0
-1001 -1688 0
-1002 -1689 0
-1000 -1882 0
-1001 -1883 0
-1002 -1884 0
-1000 -3622 0
-1001 -3623 0
-1002 -3624 0
-1003 -2308 0
-1004 -2309 0
-1005 -2310 0
-1003 -3334 0
-1004 -3335 0
-1005 -3336 0
-1003 -2338 0
-1004 -2339 0
-1005 -2340 0
-1006 -2260 0
-1007 -2261 0
-1008 -2262 0
-1006 -2443 0
-1007 -2444 0
-1008 -2445 0
-1006 -1603 0
-1007 -1604 0
-1008 -1605 0
-1006 -3421 0
-1007 -3422 0
-1008 -3423 0
-1009 -3742 0
-1010 -3743 0
-1011 -3744 0
-1009 -2446 0
-1010 -2447 0
-1011 -2448 0
-1009 -1606 0
-1010 -1607 0
-1011 -1608 0
-1009 -1906 0
-1010 -1907 0
-1011 -1908 0
-1009 -4060 0
-1010 -4061 0
-1011 -4062 0
-1012 -1429 0
-1013 -1430 0
-1014 -1431 0
-1012 -1867 0
-1013 -1868 0
-1014 -1869 0
-1012 -3592 0
-1013 -3593 0
-1014 -3594 0
-1015 -1861 0
-1016 -1862 0
-1017 -1863 0
-1015 -3670 0
-1016 -3671 0
-1017 -3672 0
-1015 -2173 0
-1016 -2174 0
-1017 -2175 0
-1015 -2779 0
-1016 -2780 0
-1017 -2781 0
-1015 -1030 0
-1016 -1031 0
-1017 -1032 0
-1018 -1051 0
-1019 -1052 0
-1020 -1053 0
-1018 -1705 0
-1019 -1706 0
-1020 -1707 0
-1018 -1438 0
-1019 -1439 0
-1020 -1440 0
-1018 -1444 0
-1019 -1445 0
-1020 -1446 0
-1018 -1291 0
-1019 -1292 0
-1020 -1293 0
-1018 -1483 0
-1019 -1484 0
-1020 -1485 0
-1018 -1498 0
-1019 -1499 0
-1020 -1500 0
-1018 -1024 0
-1019 -1025 0
-1020 -1026 0
-1018 -1036 0
-1019 -1037 0
-1020 -1038 0
-1021 -1027 0
-1022 -1028 0
-1023 -1029 0
-1021 -3568 0
-1022 -3569 0
-1023 -3570 0
-1021 -2146 0
-1022 -2147 0
-1023 -2148 0
-1021 -2038 0
-1022 -2039 0
-1023 -2040 0
-1024 -3502 0
-1025 -3503 0
-1026 -3504 0
-1024 -3082 0
-1025 -3083 0
-1026 -3084 0
-1024 -1861 0
-1025 -1862 0
-1026 -1863 0
-1024 -2917 0
-1025 -2918 0
-1026 -2919 0
-1024 -2992 0
-1025 -2993 0
-1026 -2994 0
-1024 -2128 0
-1025 -2129 0
-1026 -2130 0
-1024 -2131 0
-1025 -2132 0
-1026 -2133 0
-1024 -2158 0
-1025 -2159 0
-1026 -2160 0
-1024 -4030 0
-1025 -4031 0
-1026 -4032 0
-1024 -3451 0
-1025 -3452 0
-1026 -3453 0
-1024 -2185 0
-1025 -2186 0
-1026 -2187 0
-1024 -3055 0
-1025 -3056 0
-1026 -3057 0
-1027 -1054 0
-1028 -1055 0
-1029 -1056 0
-1027 -1708 0
-1028 -1709 0
-1029 -1710 0
-1027 -1441 0
-1028 -1442 0
-1029 -1443 0
-1027 -1450 0
-1028 -1451 0
-1029 -1452 0
-1027 -1099 0
-1028 -1100 0
-1029 -1101 0
-1027 -1294 0
-1028 -1295 0
-1029 -1296 0
-1027 -1486 0
-1028 -1487 0
-1029 -1488 0
-1027 -1345 0
-1028 -1346 0
-1029 -1347 0
-1027 -1039 0
-1028 -1040 0
-1029 -1041 0
-1030 -1636 0
-1031 -1637 0
-1032 -1638 0
-1030 -1489 0
-1031 -1490 0
-1032 -1491 0
-1033 -2170 0
-1034 -2171 0
-1035 -2172 0
-1033 -2446 0
-1034 -2447 0
-1035 -2448 0
-1033 -1864 0
-1034 -1865 0
-1035 -1866 0
-1033 -1357 0
-1034 -1358 0
-1035 -1359 0
-1036 -3571 0
-1037 -3572 0
-1038 -3573 0
-1036 -3598 0
-1037 -3599 0
-1038 -3600 0
-1036 -1861 0
-1037 -1862 0
-1038 -1863 0
-1036 -3691 0
-1037 -3692 0
-1038 -3693 0
-1036 -3304 0
-1037 -3305 0
-1038 -3306 0
-1036 -3886 0
-1037 -3887 0
-1038 -3888 0
-1039 -3634 0
-1040 -3635 0
-1041 -3636 0
-1039 -2449 0
-1040 -2450 0
-1041 -2451 0
-1039 -3250 0
-1040 -3251 0
-1041 -3252 0
-1039 -3697 0
-1040 -3698 0
-1041 -3699 0
-1039 -3313 0
-1040 -3314 0
-1041 -3315 0
-1039 -3898 0
-1040 -3899 0
-1041 -3900 0
-1039 -3391 0
-1040 -3392 0
-1041 -3393 0
-1042 -2170 0
-1043 -2171 0
-1044 -2172 0
-1042 -1069 0
-1043 -1070 0
-1044 -1071 0
-1042 -2299 0
-1043 -2300 0
-1044 -2301 0
-1045 -1654 0
-1046 -1655 0
-1047 -1656 0
-1045 -2404 0
-1046 -2405 0
-1047 -2406 0
-1045 -4114 0
-1046 -4115 0
-1047 -4116 0
-1048 -1054 0
-1049 -1055 0
-1050 -1056 0
-1051 -3595 0
-1052 -3596 0
-1053 -3597 0
-1051 -2212 0
-1052 -2213 0
-1053 -2214 0
-1051 -2116 0
-1052 -2117 0
-1053 -2118 0
-1051 -2131 0
-1052 -2132 0
-1053 -2133 0
-1054 -2146 0
-1055 -2147 0
-1056 -2148 0
-1054 -2110 0
-1055 -2111 0
-1056 -2112 0
-1054 -2113 0
-1055 -2114 0
-1056 -2115 0
-1057 -3628 0
-1058 -3629 0
-1059 -3630 0
-1057 -1756 0
-1058 -1757 0
-1059 -1758 0
-1057 -2896 0
-1058 -2897 0
-1059 -2898 0
-1057 -4072 0
-1058 -4073 0
-1059 -4074 0
-1060 -1072 0
-1061 -1073 0
-1062 -1074 0
-1060 -2155 0
-1061 -2156 0
-1062 -2157 0
-1060 -2188 0
-1061 -2189 0
-1062 -2190 0
-1060 -3358 0
-1061 -3359 0
-1062 -3360 0
-1063 -2170 0
-1064 -2171 0
-1065 -2172 0
-1063 -1069 0
-1064 -1070 0
-1065 -1071 0
-1066 -1069 0
-1067 -1070 0
-1068 -1071 0
-1066 -2218 0
-1067 -2219 0
-1068 -2220 0
-1066 -2299 0
-1067 -2300 0
-1068 -2301 0
-1075 -3169 0
-1076 -3170 0
-1077 -3171 0
-1075 -2596 0
-1076 -2597 0
-1077 -2598 0
-1075 -4006 0
-1076 -4007 0
-1077 -4008 0
-1075 -1357 0
-1076 -1358 0
-1077 -1359 0
-1075 -3289 0
-1076 -3290 0
-1077 -3291 0
-1075 -3196 0
-1076 -3197 0
-1077 -3198 0
-1078 -1387 0
-1079 -1388 0
-1080 -1389 0
-1078 -1978 0
-1079 -1979 0
-1080 -1980 0
-1078 -2677 0
-1079 -2678 0
-1080 -2679 0
-1081 -1402 0
-1082 -1403 0
-1083 -1404 0
-1081 -2233 0
-1082 -2234 0
-1083 -2235 0
-1081 -4189 0
-1082 -4190 0
-1083 -4191 0
-1081 -2635 0
-1082 -2636 0
-1083 -2637 0
-1081 -3937 0
-1082 -3938 0
-1083 -3939 0
-1081 -4201 0
-1082 -4202 0
-1083 -4203 0
-1081 -2320 0
-1082 -2321 0
-1083 -2322 0
-1084 -3079 0
-1085 -3080 0
-1086 -3081 0
-1084 -2665 0
-1085 -2666 0
-1086 -2667 0
-1084 -1408 0
-1085 -1409 0
-1086 -1410 0
-1084 -2281 0
-1085 -2282 0
-1086 -2283 0
-1084 -2182 0
-1085 -2183 0
-1086 -2184 0
-1084 -2380 0
-1085 -2381 0
-1086 -2382 0
-1084 -2152 0
-1085 -2153 0
-1086 -2154 0
-1084 -2224 0
-1085 -2225 0
-1086 -2226 0
-1087 -1099 0
-1088 -1100 0
-1089 -1101 0
-1087 -1117 0
-1088 -1118 0
-1089 -1119 0
-1093 -4177 0
-1094 -4178 0
-1095 -4179 0
-1093 -3631 0
-1094 -3632 0
-1095 -3633 0
-1093 -3034 0
-1094 -3035 0
-1095 -3036 0
-1093 -1888 0
-1094 -1889 0
-1095 -1890 0
-1093 -1102 0
-1094 -1103 0
-1095 -1104 0
-1096 -1429 0
-1097 -1430 0
-1098 -1431 0
-1096 -2281 0
-1097 -2282 0
-1098 -2283 0
-1096 -2383 0
-1097 -2384 0
-1098 -2385 0
-1096 -1885 0
-1097 -1886 0
-1098 -1887 0
-1096 -2995 0
-1097 -2996 0
-1098 -2997 0
-1099 -2593 0
-1100 -2594 0
-1101 -2595 0
-1099 -2512 0
-1100 -2513 0
-1101 -2514 0
-1099 -3682 0
-1100 -3683 0
-1101 -3684 0
-1102 -1117 0
-1103 -1118 0
-1104 -1119 0
-1105 -1429 0
-1106 -1430 0
-1107 -1431 0
-1105 -3553 0
-1106 -3554 0
-1107 -3555 0
-1105 -1933 0
-1106 -1934 0
-1107 -1935 0
-1105 -1867 0
-1106 -1868 0
-1107 -1869 0
-1105 -1960 0
-1106 -1961 0
-1107 -1962 0
-1105 -2488 0
-1106 -2489 0
-1107 -2490 0
-1105 -1885 0
-1106 -1886 0
-1107 -1887 0
-1105 -2305 0
-1106 -2306 0
-1107 -2307 0
-1105 -1909 0
-1106 -1910 0
-1107 -1911 0
-1105 -1912 0
-1106 -1913 0
-1107 -1914 0
-1108 -2728 0
-1109 -2729 0
-1110 -2730 0
-1108 -3400 0
-1109 -3401 0
-1110 -3402 0
-1108 -1435 0
-1109 -1436 0
-1110 -1437 0
-1108 -3940 0
-1109 -3941 0
-1110 -3942 0
-1111 -2509 0
-1112 -2510 0
-1113 -2511 0
-1111 -3667 0
-1112 -3668 0
-1113 -3669 0
-1111 -3727 0
-1112 -3728 0
-1113 -3729 0
-1111 -3427 0
-1112 -3428 0
-1113 -3429 0
-1111 -3223 0
-1112 -3224 0
-1113 -3225 0
-1111 -1672 0
-1112 -1673 0
-1113 -1674 0
-1114 -2524 0
-1115 -2525 0
-1116 -2526 0
-1114 -2542 0
-1115 -2543 0
-1116 -2544 0
-1114 -3418 0
-1115 -3419 0
-1116 -3420 0
-1114 -2401 0
-1115 -2402 0
-1116 -2403 0
-1114 -1675 0
-1115 -1676 0
-1116 -1677 0
-1114 -3490 0
-1115 -3491 0
-1116 -3492 0
-1114 -2746 0
-1115 -2747 0
-1116 -2748 0
-1117 -2977 0
-1118 -2978 0
-1119 -2979 0
-1120 -1684 0
-1121 -1685 0
-1122 -1686 0
-1120 -2332 0
-1121 -2333 0
-1122 -2334 0
-1120 -3643 0
-1121 -3644 0
-1122 -3645 0
-1120 -4060 0
-1121 -4061 0
-1122 -4062 0
-1120 -2989 0
-1121 -2990 0
-1122 -2991 0
-1120 -2239 0
-1121 -2240 0
-1122 -2241 0
-1120 -2011 0
-1121 -2012 0
-1122 -2013 0
-1120 -3688 0
-1121 -3689 0
-1122 -3690 0
-1120 -2521 0
-1121 -2522 0
-1122 -2523 0
-1120 -2791 0
-1121 -2792 0
-1122 -2793 0
-1120 -2527 0
-1121 -2528 0
-1122 -2529 0
-1123 -1687 0
-1124 -1688 0
-1125 -1689 0
-1123 -3421 0
-1124 -3422 0
-1125 -3423 0
-1123 -2965 0
-1124 -2966 0
-1125 -2967 0
-1123 -2980 0
-1124 -2981 0
-1125 -2982 0
-1123 -2890 0
-1124 -2891 0
-1125 -2892 0
-1126 -3058 0
-1127 -3059 0
-1128 -3060 0
-1126 -3037 0
-1127 -3038 0
-1128 -3039 0
-1126 -2602 0
-1127 -2603 0
-1128 -2604 0
-1126 -1495 0
-1127 -1496 0
-1128 -1497 0
-1129 -2728 0
-1130 -2729 0
-1131 -2730 0
-1129 -3217 0
-1130 -3218 0
-1131 -3219 0
-1129 -1474 0
-1130 -1475 0
-1131 -1476 0
-1132 -1531 0
-1133 -1532 0
-1134 -1533 0
-1132 -2395 0
-1133 -2396 0
-1134 -2397 0
-1132 -3136 0
-1133 -3137 0
-1134 -3138 0
-1132 -2458 0
-1133 -2459 0
-1134 -2460 0
-1132 -3805 0
-1133 -3806 0
-1134 -3807 0
-1132 -2407 0
-1133 -2408 0
-1134 -2409 0
-1135 -1534 0
-1136 -1535 0
-1137 -1536 0
-1135 -2809 0
-1136 -2810 0
-1137 -2811 0
-1135 -1957 0
-1136 -1958 0
-1137 -1959 0
-1138 -3598 0
-1139 -3599 0
-1140 -3600 0
-1138 -3661 0
-1139 -3662 0
-1140 -3663 0
-1138 -1534 0
-1139 -1535 0
-1140 -1536 0
-1138 -2671 0
-1139 -2672 0
-1140 -2673 0
-1138 -3832 0
-1139 -3833 0
-1140 -3834 0
-1138 -2272 0
-1139 -2273 0
-1140 -2274 0
-1138 -2530 0
-1139 -2531 0
-1140 -2532 0
-1141 -4117 0
-1142 -4118 0
-1143 -4119 0
-1141 -4051 0
-1142 -4052 0
-1143 -4053 0
-1141 -3442 0
-1142 -3443 0
-1143 -3444 0
-1141 -3634 0
-1142 -3635 0
-1143 -3636 0
-1141 -4000 0
-1142 -4001 0
-1143 -4002 0
-1141 -3697 0
-1142 -3698 0
-1143 -3699 0
-1141 -3763 0
-1142 -3764 0
-1143 -3765 0
-1141 -1531 0
-1142 -1532 0
-1143 -1533 0
-1141 -4096 0
-1142 -4097 0
-1143 -4098 0
-1144 -2794 0
-1145 -2795 0
-1146 -2796 0
-1144 -2248 0
-1145 -2249 0
-1146 -2250 0
-1144 -3601 0
-1145 -3602 0
-1146 -3603 0
-1144 -1588 0
-1145 -1589 0
-1146 -1590 0
-1147 -1870 0
-1148 -1871 0
-1149 -1872 0
-1147 -1873 0
-1148 -1874 0
-1149 -1875 0
-1147 -1591 0
-1148 -1592 0
-1149 -1593 0
-1150 -3199 0
-1151 -3200 0
-1152 -3201 0
-1150 -1756 0
-1151 -1757 0
-1152 -1758 0
-1150 -2605 0
-1151 -2606 0
-1152 -2607 0
-1150 -2821 0
-1151 -2822 0
-1152 -2823 0
-1153 -4207 0
-1154 -4208 0
-1155 -4209 0
-1153 -1606 0
-1154 -1607 0
-1155 -1608 0
-1153 -3505 0
-1154 -3506 0
-1155 -3507 0
-1153 -3319 0
-1154 -3320 0
-1155 -3321 0
-1153 -4156 0
-1154 -4157 0
-1155 -4158 0
-1153 -3520 0
-1154 -3521 0
-1155 -3522 0
-1156 -2683 0
-1157 -2684 0
-1158 -2685 0
-1156 -3160 0
-1157 -3161 0
-1158 -3162 0
-1156 -1531 0
-1157 -1532 0
-1158 -1533 0
-1159 -2773 0
-1160 -2774 0
-1161 -2775 0
-1159 -3709 0
-1160 -3710 0
-1161 -3711 0
-1159 -3787 0
-1160 -3788 0
-1161 -3789 0
-1159 -1747 0
-1160 -1748 0
-1161 -1749 0
-1159 -2080 0
-1160 -2081 0
-1161 -2082 0
-1159 -2083 0
-1160 -2084 0
-1161 -2085 0
-1159 -3094 0
-1160 -3095 0
-1161 -3096 0
-1159 -2359 0
-1160 -2360 0
-1161 -2361 0
-1159 -1951 0
-1160 -1952 0
-1161 -1953 0
-1159 -3157 0
-1160 -3158 0
-1161 -3159 0
-1162 -3946 0
-1163 -3947 0
-1164 -3948 0
-1162 -1747 0
-1163 -1748 0
-1164 -1749 0
-1162 -2338 0
-1163 -2339 0
-1164 -2340 0
-1162 -3955 0
-1163 -3956 0
-1164 -3957 0
-1162 -3799 0
-1163 -3800 0
-1164 -3801 0
-1162 -2752 0
-1163 -2753 0
-1164 -2754 0
-1162 -2386 0
-1163 -2387 0
-1164 -2388 0
-1162 -2761 0
-1163 -2762 0
-1164 -2763 0
-1162 -2776 0
-1163 -2777 0
-1164 -2778 0
-1165 -3787 0
-1166 -3788 0
-1167 -3789 0
-1165 -3838 0
-1166 -3839 0
-1167 -3840 0
-1165 -1630 0
-1166 -1631 0
-1167 -1632 0
-1168 -2548 0
-1169 -2549 0
-1170 -2550 0
-1168 -1645 0
-1169 -1646 0
-1170 -1647 0
-1168 -3808 0
-1169 -3809 0
-1170 -3810 0
-1171 -1756 0
-1172 -1757 0
-1173 -1758 0
-1171 -2245 0
-1172 -2246 0
-1173 -2247 0
-1171 -4087 0
-1172 -4088 0
-1173 -4089 0
-1171 -2362 0
-1172 -2363 0
-1173 -2364 0
-1171 -4159 0
-1172 -4160 0
-1173 -4161 0
-1171 -2566 0
-1172 -2567 0
-1173 -2568 0
-1174 -2377 0
-1175 -2378 0
-1176 -2379 0
-1174 -1756 0
-1175 -1757 0
-1176 -1758 0
-1174 -3103 0
-1175 -3104 0
-1176 -3105 0
-1174 -3796 0
-1175 -3797 0
-1176 -3798 0
-1174 -3808 0
-1175 -3809 0
-1176 -3810 0
-1177 -3253 0
-1178 -3254 0
-1179 -3255 0
-1177 -1630 0
-1178 -1631 0
-1179 -1632 0
-1177 -3325 0
-1178 -3326 0
-1179 -3327 0
-1180 -1891 0
-1181 -1892 0
-1182 -1893 0
-1180 -2068 0
-1181 -2069 0
-1182 -2070 0
-1180 -1531 0
-1181 -1532 0
-1182 -1533 0
-1183 -2533 0
-1184 -2534 0
-1185 -2535 0
-1183 -1534 0
-1184 -1535 0
-1185 -1536 0
-1186 -1531 0
-1187 -1532 0
-1188 -1533 0
-1186 -2071 0
-1187 -2072 0
-1188 -2073 0
-1186 -1891 0
-1187 -1892 0
-1188 -1893 0
-1189 -1537 0
-1190 -1538 0
-1191 -1539 0
-1189 -2665 0
-1190 -2666 0
-1191 -2667 0
-1189 -2641 0
-1190 -2642 0
-1191 -2643 0
-1189 -2659 0
-1190 -2660 0
-1191 -2661 0
-1189 -3658 0
-1190 -3659 0
-1191 -3660 0
-1189 -2590 0
-1190 -2591 0
-1191 -2592 0
-1192 -2440 0
-1193 -2441 0
-1194 -2442 0
-1192 -2767 0
-1193 -2768 0
-1194 -2769 0
-1192 -1747 0
-1193 -1748 0
-1194 -1749 0
-1192 -2422 0
-1193 -2423 0
-1194 -2424 0
-1192 -3124 0
-1193 -3125 0
-1194 -3126 0
-1195 -1747 0
-1196 -1748 0
-1197 -1749 0
-1195 -2050 0
-1196 -2051 0
-1197 -2052 0
-1195 -4042 0
-1196 -4043 0
-1197 -4044 0
-1195 -3157 0
-1196 -3158 0
-1197 -3159 0
-1195 -4027 0
-1196 -4028 0
-1197 -4029 0
-1195 -2656 0
-1196 -2657 0
-1197 -2658 0
-1198 -4051 0
-1199 -4052 0
-1200 -4053 0
-1198 -3403 0
-1199 -3404 0
-1200 -3405 0
-1198 -3793 0
-1199 -3794 0
-1200 -3795 0
-1198 -1531 0
-1199 -1532 0
-1200 -1533 0
-1201 -1534 0
-1202 -1535 0
-1203 -1536 0
-1201 -3418 0
-1202 -3419 0
-1203 -3420 0
-1201 -3877 0
-1202 -3878 0
-1203 -3879 0
-1201 -2530 0
-1202 -2531 0
-1203 -2532 0
-1204 -2839 0
-1205 -2840 0
-1206 -2841 0
-1204 -2971 0
-1205 -2972 0
-1206 -2973 0
-1204 -2842 0
-1205 -2843 0
-1206 -2844 0
-1204 -2845 0
-1205 -2846 0
-1206 -2847 0
-1204 -1684 0
-1205 -1685 0
-1206 -1686 0
-1204 -2827 0
-1205 -2828 0
-1206 -2829 0
-1204 -3676 0
-1205 -3677 0
-1206 -3678 0
-1204 -2692 0
-1205 -2693 0
-1206 -2694 0
-1207 -2533 0
-1208 -2534 0
-1209 -2535 0
-1207 -2275 0
-1208 -2276 0
-1209 -2277 0
-1207 -4060 0
-1208 -4061 0
-1209 -4062 0
-1207 -1534 0
-1208 -1535 0
-1209 -1536 0
-1210 -1918 0
-1211 -1919 0
-1212 -1920 0
-1210 -1921 0
-1211 -1922 0
-1212 -1923 0
-1210 -3421 0
-1211 -3422 0
-1212 -3423 0
-1210 -3154 0
-1211 -3155 0
-1212 -3156 0
-1210 -1531 0
-1211 -1532 0
-1212 -1533 0
-1213 -1561 0
-1214 -1562 0
-1215 -1563 0
-1213 -1762 0
-1214 -1763 0
-1215 -1764 0
-1216 -2521 0
-1217 -2522 0
-1218 -2523 0
-1216 -1879 0
-1217 -1880 0
-1218 -1881 0
-1216 -1675 0
-1217 -1676 0
-1218 -1677 0
-1219 -1684 0
-1220 -1685 0
-1221 -1686 0
-1219 -2932 0
-1220 -2933 0
-1221 -2934 0
-1219 -2542 0
-1220 -2543 0
-1221 -2544 0
-1222 -3700 0
-1223 -3701 0
-1224 -3702 0
-1222 -3406 0
-1223 -3407 0
-1224 -3408 0
-1222 -3418 0
-1223 -3419 0
-1224 -3420 0
-1222 -2524 0
-1223 -2525 0
-1224 -2526 0
-1222 -1549 0
-1223 -1550 0
-1224 -1551 0
-1225 -2614 0
-1226 -2615 0
-1227 -2616 0
-1225 -2509 0
-1226 -2510 0
-1227 -2511 0
-1225 -3766 0
-1226 -3767 0
-1227 -3768 0
-1225 -2983 0
-1226 -2984 0
-1227 -2985 0
-1225 -2806 0
-1226 -2807 0
-1227 -2808 0
-1225 -3322 0
-1226 -3323 0
-1227 -3324 0
-1225 -2860 0
-1226 -2861 0
-1227 -2862 0
-1225 -1558 0
-1226 -1559 0
-1227 -1560 0
-1228 -1756 0
-1229 -1757 0
-1230 -1758 0
-1228 -2977 0
-1229 -2978 0
-1230 -2979 0
-1228 -2716 0
-1229 -2717 0
-1230 -2718 0
-1231 -1894 0
-1232 -1895 0
-1233 -1896 0
-1231 -2509 0
-1232 -2510 0
-1233 -2511 0
-1231 -3064 0
-1232 -3065 0
-1233 -3066 0
-1231 -1672 0
-1232 -1673 0
-1233 -1674 0
-1231 -2953 0
-1232 -2954 0
-1233 -2955 0
-1234 -2869 0
-1235 -2870 0
-1236 -2871 0
-1234 -2539 0
-1235 -2540 0
-1236 -2541 0
-1234 -1675 0
-1235 -1676 0
-1236 -1677 0
-1234 -2524 0
-1235 -2525 0
-1236 -2526 0
-1237 -1684 0
-1238 -1685 0
-1239 -1686 0
-1237 -3958 0
-1238 -3959 0
-1239 -3960 0
-1237 -3580 0
-1238 -3581 0
-1239 -3582 0
-1237 -4045 0
-1238 -4046 0
-1239 -4047 0
-1237 -2527 0
-1238 -2528 0
-1239 -2529 0
-1240 -1687 0
-1241 -1688 0
-1242 -1689 0
-1240 -3064 0
-1241 -3065 0
-1242 -3066 0
-1240 -2980 0
-1241 -2981 0
-1242 -2982 0
-1240 -2254 0
-1241 -2255 0
-1242 -2256 0
-1240 -3739 0
-1241 -3740 0
-1242 -3741 0
-1243 -1756 0
-1244 -1757 0
-1245 -1758 0
-1243 -3061 0
-1244 -3062 0
-1245 -3063 0
-1243 -2977 0
-1244 -2978 0
-1245 -2979 0
-1246 -1756 0
-1247 -1757 0
-1248 -1758 0
-1246 -3583 0
-1247 -3584 0
-1248 -3585 0
-1246 -2800 0
-1247 -2801 0
-1248 -2802 0
-1246 -2806 0
-1247 -2807 0
-1248 -2808 0
-1246 -3454 0
-1247 -3455 0
-1248 -3456 0
-1246 -2791 0
-1247 -2792 0
-1248 -2793 0
-1249 -3703 0
-1250 -3704 0
-1251 -3705 0
-1249 -3421 0
-1250 -3422 0
-1251 -3423 0
-1249 -3757 0
-1250 -3758 0
-1251 -3759 0
-1249 -2980 0
-1250 -2981 0
-1251 -2982 0
-1249 -1549 0
-1250 -1550 0
-1251 -1551 0
-1252 -3781 0
-1253 -3782 0
-1254 -3783 0
-1252 -1558 0
-1253 -1559 0
-1254 -1560 0
-1252 -4060 0
-1253 -4061 0
-1254 -4062 0
-1252 -2716 0
-1253 -2717 0
-1254 -2718 0
-1252 -2527 0
-1253 -2528 0
-1254 -2529 0
-1255 -1582 0
-1256 -1583 0
-1257 -1584 0
-1258 -2200 0
-1259 -2201 0
-1260 -2202 0
-1258 -3901 0
-1259 -3902 0
-1260 -3903 0
-1258 -3619 0
-1259 -3620 0
-1260 -3621 0
-1258 -1858 0
-1259 -1859 0
-1260 -1860 0
-1258 -1645 0
-1259 -1646 0
-1260 -1647 0
-1261 -1654 0
-1262 -1655 0
-1263 -1656 0
-1261 -2119 0
-1262 -2120 0
-1263 -2121 0
-1261 -2284 0
-1262 -2285 0
-1263 -2286 0
-1261 -2101 0
-1262 -2102 0
-1263 -2103 0
-1264 -3742 0
-1265 -3743 0
-1266 -3744 0
-1264 -1606 0
-1265 -1607 0
-1266 -1608 0
-1264 -3193 0
-1265 -3194 0
-1266 -3195 0
-1267 -2137 0
-1268 -2138 0
-1269 -2139 0
-1267 -2104 0
-1268 -2105 0
-1269 -2106 0
-1267 -2149 0
-1268 -2150 0
-1269 -2151 0
-1267 -3919 0
-1268 -3920 0
-1269 -3921 0
-1267 -3865 0
-1268 -3866 0
-1269 -3867 0
-1267 -2191 0
-1268 -2192 0
-1269 -2193 0
-1267 -1645 0
-1268 -1646 0
-1269 -1647 0
-1270 -1654 0
-1271 -1655 0
-1272 -1656 0
-1270 -2209 0
-1271 -2210 0
-1272 -2211 0
-1270 -2221 0
-1271 -2222 0
-1272 -2223 0
-1270 -2197 0
-1271 -2198 0
-1272 -2199 0
-1270 -2302 0
-1271 -2303 0
-1272 -2304 0
-1273 -2863 0
-1274 -2864 0
-1275 -2865 0
-1273 -2803 0
-1274 -2804 0
-1275 -2805 0
-1273 -1546 0
-1274 -1547 0
-1275 -1548 0
-1276 -2866 0
-1277 -2867 0
-1278 -2868 0
-1276 -2248 0
-1277 -2249 0
-1278 -2250 0
-1276 -2803 0
-1277 -2804 0
-1278 -2805 0
-1276 -2986 0
-1277 -2987 0
-1278 -2988 0
-1276 -1588 0
-1277 -1589 0
-1278 -1590 0
-1279 -1723 0
-1280 -1724 0
-1281 -1725 0
-1279 -1732 0
-1280 -1733 0
-1281 -1734 0
-1279 -1294 0
-1280 -1295 0
-1281 -1296 0
-1282 -1291 0
-1283 -1292 0
-1284 -1293 0
-1282 -1765 0
-1283 -1766 0
-1284 -1767 0
-1285 -4015 0
-1286 -4016 0
-1287 -4017 0
-1285 -4174 0
-1286 -4175 0
-1287 -4176 0
-1285 -4051 0
-1286 -4052 0
-1287 -4053 0
-1285 -4117 0
-1286 -4118 0
-1287 -4119 0
-1285 -4183 0
-1286 -4184 0
-1287 -4185 0
-1285 -1300 0
-1286 -1301 0
-1287 -1302 0
-1288 -2074 0
-1289 -2075 0
-1290 -2076 0
-1288 -1297 0
-1289 -1298 0
-1290 -1299 0
-1288 -1969 0
-1289 -1970 0
-1290 -1971 0
-1288 -2536 0
-1289 -2537 0
-1290 -2538 0
-1288 -2671 0
-1289 -2672 0
-1290 -2673 0
-1288 -3874 0
-1289 -3875 0
-1290 -3876 0
-1288 -2530 0
-1289 -2531 0
-1290 -2532 0
-1291 -3691 0
-1292 -3692 0
-1293 -3693 0
-1294 -2452 0
-1295 -2453 0
-1296 -2454 0
-1294 -2458 0
-1295 -2459 0
-1296 -2460 0
-1294 -3898 0
-1295 -3899 0
-1296 -3900 0
-1297 -1726 0
-1298 -1727 0
-1299 -1728 0
-1300 -1729 0
-1301 -1730 0
-1302 -1731 0
-1300 -1615 0
-1301 -1616 0
-1302 -1617 0
-1300 -1735 0
-1301 -1736 0
-1302 -1737 0
-1303 -3169 0
-1304 -3170 0
-1305 -3171 0
-1303 -2137 0
-1304 -2138 0
-1305 -2139 0
-1303 -2140 0
-1304 -2141 0
-1305 -2142 0
-1303 -3172 0
-1304 -3173 0
-1305 -3174 0
-1303 -3919 0
-1304 -3920 0
-1305 -3921 0
-1303 -1357 0
-1304 -1358 0
-1305 -1359 0
-1306 -2200 0
-1307 -2201 0
-1308 -2202 0
-1306 -2203 0
-1307 -2204 0
-1308 -2205 0
-1306 -1324 0
-1307 -1325 0
-1308 -1326 0
-1306 -1858 0
-1307 -1859 0
-1308 -1860 0
-1306 -3499 0
-1307 -3500 0
-1308 -3501 0
-1309 -2023 0
-1310 -2024 0
-1311 -2025 0
-1309 -1909 0
-1310 -1910 0
-1311 -1911 0
-1309 -1630 0
-1310 -1631 0
-1311 -1632 0
-1312 -1684 0
-1313 -1685 0
-1314 -1686 0
-1312 -2707 0
-1313 -2708 0
-1314 -2709 0
-1312 -3676 0
-1313 -3677 0
-1314 -3678 0
-1315 -1594 0
-1316 -1595 0
-1317 -1596 0
-1315 -1564 0
-1316 -1565 0
-1317 -1566 0
-1315 -1321 0
-1316 -1322 0
-1317 -1323 0
-1315 -1345 0
-1316 -1346 0
-1317 -1347 0
-1315 -1768 0
-1316 -1769 0
-1317 -1770 0
-1318 -2200 0
-1319 -2201 0
-1320 -2202 0
-1318 -3784 0
-1319 -3785 0
-1320 -3786 0
-1318 -1324 0
-1319 -1325 0
-1320 -1326 0
-1318 -2110 0
-1319 -2111 0
-1320 -2112 0
-1321 -3760 0
-1322 -3761 0
-1323 -3762 0
-1321 -2134 0
-1322 -2135 0
-1323 -2136 0
-1321 -2167 0
-1322 -2168 0
-1323 -2169 0
-1321 -3457 0
-1322 -3458 0
-1323 -3459 0
-1321 -2116 0
-1322 -2117 0
-1323 -2118 0
-1321 -2119 0
-1322 -2120 0
-1323 -2121 0
-1321 -2122 0
-1322 -2123 0
-1323 -2124 0
-1324 -1714 0
-1325 -1715 0
-1326 -1716 0
-1324 -1597 0
-1325 -1598 0
-1326 -1599 0
-1324 -1789 0
-1325 -1790 0
-1326 -1791 0
-1327 -3748 0
-1328 -3749 0
-1329 -3750 0
-1327 -2770 0
-1328 -2771 0
-1329 -2772 0
-1327 -1357 0
-1328 -1358 0
-1329 -1359 0
-1327 -3196 0
-1328 -3197 0
-1329 -3198 0
-1327 -3772 0
-1328 -3773 0
-1329 -3774 0
-1330 -4099 0
-1331 -4100 0
-1332 -4101 0
-1330 -3367 0
-1331 -3368 0
-1332 -3369 0
-1330 -1606 0
-1331 -1607 0
-1332 -1608 0
-1330 -3505 0
-1331 -3506 0
-1332 -3507 0
-1333 -4141 0
-1334 -4142 0
-1335 -4143 0
-1333 -1603 0
-1334 -1604 0
-1335 -1605 0
-1333 -2092 0
-1334 -2093 0
-1335 -2094 0
-1336 -3532 0
-1337 -3533 0
-1338 -3534 0
-1336 -3517 0
-1337 -3518 0
-1338 -3519 0
-1336 -1591 0
-1337 -1592 0
-1338 -1593 0
-1339 -1588 0
-1340 -1589 0
-1341 -1590 0
-1339 -3706 0
-1340 -3707 0
-1341 -3708 0
-1339 -3436 0
-1340 -3437 0
-1341 -3438 0
-1339 -3163 0
-1340 -3164 0
-1341 -3165 0
-1342 -2731 0
-1343 -2732 0
-1344 -2733 0
-1342 -2089 0
-1343 -2090 0
-1344 -2091 0
-1342 -3283 0
-1343 -3284 0
-1344 -3285 0
-1342 -1357 0
-1343 -1358 0
-1344 -1359 0
-1342 -4165 0
-1343 -4166 0
-1344 -4167 0
-1345 -3607 0
-1346 -3608 0
-1347 -3609 0
-1345 -3610 0
-1346 -3611 0
-1347 -3612 0
-1345 -3751 0
-1346 -3752 0
-1347 -3753 0
-1345 -4039 0
-1346 -4040 0
-1347 -4041 0
-1348 -1597 0
-1349 -1598 0
-1350 -1599 0
-1348 -1609 0
-1349 -1610 0
-1350 -1611 0
-1348 -1354 0
-1349 -1355 0
-1350 -1356 0
-1351 -2137 0
-1352 -2138 0
-1353 -2139 0
-1351 -2170 0
-1352 -2171 0
-1353 -2172 0
-1351 -2206 0
-1352 -2207 0
-1353 -2208 0
-1351 -1975 0
-1352 -1976 0
-1353 -1977 0
-1351 -1357 0
-1352 -1358 0
-1353 -1359 0
-1351 -1954 0
-1352 -1955 0
-1353 -1956 0
-1354 -2125 0
-1355 -2126 0
-1356 -2127 0
-1354 -3268 0
-1355 -3269 0
-1356 -3270 0
-1354 -2209 0
-1355 -2210 0
-1356 -2211 0
-1354 -2188 0
-1355 -2189 0
-1356 -2190 0
-1357 -1717 0
-1358 -1718 0
-1359 -1719 0
-1357 -1594 0
-1358 -1595 0
-1359 -1596 0
-1357 -1612 0
-1358 -1613 0
-1359 -1614 0
-1357 -1738 0
-1358 -1739 0
-1359 -1740 0
-1357 -1561 0
-1358 -1562 0
-1359 -1563 0
-1357 -1795 0
-1358 -1796 0
-1359 -1797 0
-1360 -3532 0
-1361 -3533 0
-1362 -3534 0
-1360 -4141 0
-1361 -4142 0
-1362 -4143 0
-1360 -1603 0
-1361 -1604 0
-1362 -1605 0
-1360 -4186 0
-1361 -4187 0
-1362 -4188 0
-1363 -4018 0
-1364 -4019 0
-1365 -4020 0
-1363 -1747 0
-1364 -1748 0
-1365 -1749 0
-1363 -3280 0
-1364 -3281 0
-1365 -3282 0
-1363 -2692 0
-1364 -2693 0
-1365 -2694 0
-1363 -4027 0
-1364 -4028 0
-1365 -4029 0
-1363 -2680 0
-1364 -2681 0
-1365 -2682 0
-1366 -1750 0
-1367 -1751 0
-1368 -1752 0
-1366 -2335 0
-1367 -2336 0
-1368 -2337 0
-1366 -2251 0
-1367 -2252 0
-1368 -2253 0
-1369 -1654 0
-1370 -1655 0
-1371 -1656 0
-1369 -2479 0
-1370 -2480 0
-1371 -2481 0
-1369 -2356 0
-1370 -2357 0
-1371 -2358 0
-1369 -3868 0
-1370 -3869 0
-1371 -3870 0
-1372 -1747 0
-1373 -1748 0
-1374 -1749 0
-1372 -4054 0
-1373 -4055 0
-1374 -4056 0
-1372 -3799 0
-1373 -3800 0
-1374 -3801 0
-1372 -2392 0
-1373 -2393 0
-1374 -2394 0
-1375 -2620 0
-1376 -2621 0
-1377 -2622 0
-1375 -1750 0
-1376 -1751 0
-1377 -1752 0
-1375 -1981 0
-1376 -1982 0
-1377 -1983 0
-1375 -2251 0
-1376 -2252 0
-1377 -2253 0
-1378 -1747 0
-1379 -1748 0
-1380 -1749 0
-1378 -3094 0
-1379 -3095 0
-1380 -3096 0
-1378 -3508 0
-1379 -3509 0
-1380 -3510 0
-1378 -3904 0
-1379 -3905 0
-1380 -3906 0
-1378 -2263 0
-1379 -2264 0
-1380 -2265 0
-1381 -1756 0
-1382 -1757 0
-1383 -1758 0
-1381 -3790 0
-1382 -3791 0
-1383 -3792 0
-1381 -3916 0
-1382 -3917 0
-1383 -3918 0
-1381 -2713 0
-1382 -2714 0
-1383 -2715 0
-1381 -3796 0
-1382 -3797 0
-1383 -3798 0
-1381 -2230 0
-1382 -2231 0
-1383 -2232 0
-1384 -1756 0
-1385 -1757 0
-1386 -1758 0
-1384 -2245 0
-1385 -2246 0
-1386 -2247 0
-1384 -3835 0
-1385 -3836 0
-1386 -3837 0
-1384 -2266 0
-1385 -2267 0
-1386 -2268 0
-1384 -3175 0
-1385 -3176 0
-1386 -3177 0
-1384 -3922 0
-1385 -3923 0
-1386 -3924 0
-1387 -1753 0
-1388 -1754 0
-1389 -1755 0
-1390 -1630 0
-1391 -1631 0
-1392 -1632 0
-1390 -3913 0
-1391 -3914 0
-1392 -3915 0
-1390 -3838 0
-1391 -3839 0
-1392 -3840 0
-1390 -3178 0
-1391 -3179 0
-1392 -3180 0
-1390 -2677 0
-1391 -2678 0
-1392 -2679 0
-1390 -2563 0
-1391 -2564 0
-1392 -2565 0
-1393 -4180 0
-1394 -4181 0
-1395 -4182 0
-1393 -3370 0
-1394 -3371 0
-1395 -3372 0
-1393 -1621 0
-1394 -1622 0
-1395 -1623 0
-1393 -3352 0
-1394 -3353 0
-1395 -3354 0
-1393 -3265 0
-1394 -3266 0
-1395 -3267 0
-1393 -2857 0
-1394 -2858 0
-1395 -2859 0
-1396 -3628 0
-1397 -3629 0
-1398 -3630 0
-1396 -1756 0
-1397 -1757 0
-1398 -1758 0
-1396 -3754 0
-1397 -3755 0
-1398 -3756 0
-1399 -1675 0
-1400 -1676 0
-1401 -1677 0
-1399 -3586 0
-1400 -3587 0
-1401 -3588 0
-1399 -3433 0
-1400 -3434 0
-1401 -3435 0
-1402 -1438 0
-1403 -1439 0
-1404 -1440 0
-1402 -1441 0
-1403 -1442 0
-1404 -1443 0
-1402 -1615 0
-1403 -1616 0
-1404 -1617 0
-1402 -1663 0
-1403 -1664 0
-1404 -1665 0
-1402 -1678 0
-1403 -1679 0
-1404 -1680 0
-1405 -1408 0
-1406 -1409 0
-1407 -1410 0
-1405 -2455 0
-1406 -2456 0
-1407 -2457 0
-1405 -2485 0
-1406 -2486 0
-1407 -2487 0
-1405 -4168 0
-1406 -4169 0
-1407 -4170 0
-1408 -1582 0
-1409 -1583 0
-1410 -1584 0
-1408 -1444 0
-1409 -1445 0
-1410 -1446 0
-1408 -1450 0
-1409 -1451 0
-1410 -1452 0
-1408 -1777 0
-1409 -1778 0
-1410 -1779 0
-1408 -1801 0
-1409 -1802 0
-1410 -1803 0
-1408 -1681 0
-1409 -1682 0
-1410 -1683 0
-1411 -1687 0
-1412 -1688 0
-1413 -1689 0
-1411 -1972 0
-1412 -1973 0
-1413 -1974 0
-1411 -2341 0
-1412 -2342 0
-1413 -2343 0
-1411 -2782 0
-1412 -2783 0
-1413 -2784 0
-1411 -1882 0
-1412 -1883 0
-1413 -1884 0
-1411 -2293 0
-1412 -2294 0
-1413 -2295 0
-1411 -2368 0
-1412 -2369 0
-1413 -2370 0
-1414 -4048 0
-1415 -4049 0
-1416 -4050 0
-1414 -1684 0
-1415 -1685 0
-1416 -1686 0
-1414 -3430 0
-1415 -3431 0
-1416 -3432 0
-1414 -1993 0
-1415 -1994 0
-1416 -1995 0
-1414 -3232 0
-1415 -3233 0
-1416 -3234 0
-1417 -1756 0
-1418 -1757 0
-1419 -1758 0
-1417 -2035 0
-1418 -2036 0
-1419 -2037 0
-1417 -3637 0
-1418 -3638 0
-1419 -3639 0
-1417 -2851 0
-1418 -2852 0
-1419 -2853 0
-1417 -2854 0
-1418 -2855 0
-1419 -2856 0
-1420 -1756 0
-1421 -1757 0
-1422 -1758 0
-1420 -3841 0
-1421 -3842 0
-1422 -3843 0
-1420 -3052 0
-1421 -3053 0
-1422 -3054 0
-1423 -4048 0
-1424 -4049 0
-1425 -4050 0
-1423 -2683 0
-1424 -2684 0
-1425 -2685 0
-1423 -2401 0
-1424 -2402 0
-1425 -2403 0
-1423 -1993 0
-1424 -1994 0
-1425 -1995 0
-1423 -1675 0
-1424 -1676 0
-1425 -1677 0
-1423 -2371 0
-1424 -2372 0
-1425 -2373 0
-1423 -3433 0
-1424 -3434 0
-1425 -3435 0
-1423 -2014 0
-1424 -2015 0
-1425 -2016 0
-1423 -1963 0
-1424 -1964 0
-1425 -1965 0
-1426 -1966 0
-1427 -1967 0
-1428 -1968 0
-1426 -2686 0
-1427 -2687 0
-1428 -2688 0
-1426 -3667 0
-1427 -3668 0
-1428 -3669 0
-1426 -1972 0
-1427 -1973 0
-1428 -1974 0
-1426 -1882 0
-1427 -1883 0
-1428 -1884 0
-1426 -1672 0
-1427 -1673 0
-1428 -1674 0
-1426 -3235 0
-1427 -3236 0
-1428 -3237 0
-1429 -1702 0
-1430 -1703 0
-1431 -1704 0
-1429 -1681 0
-1430 -1682 0
-1431 -1683 0
-1432 -1435 0
-1433 -1436 0
-1434 -1437 0
-1432 -3286 0
-1433 -3287 0
-1434 -3288 0
-1432 -3460 0
-1433 -3461 0
-1434 -3462 0
-1435 -1711 0
-1436 -1712 0
-1437 -1713 0
-1435 -1720 0
-1436 -1721 0
-1437 -1722 0
-1435 -1786 0
-1436 -1787 0
-1437 -1788 0
-1435 -1792 0
-1436 -1793 0
-1437 -1794 0
-1435 -1678 0
-1436 -1679 0
-1437 -1680 0
-1438 -3025 0
-1439 -3026 0
-1440 -3027 0
-1438 -2635 0
-1439 -2636 0
-1440 -2637 0
-1441 -4144 0
-1442 -4145 0
-1443 -4146 0
-1441 -2296 0
-1442 -2297 0
-1443 -2298 0
-1441 -2233 0
-1442 -2234 0
-1443 -2235 0
-1444 -2152 0
-1445 -2153 0
-1446 -2154 0
-1444 -1855 0
-1445 -1856 0
-1446 -1857 0
-1447 -3028 0
-1448 -3029 0
-1449 -3030 0
-1447 -1684 0
-1448 -1685 0
-1449 -1686 0
-1447 -2902 0
-1448 -2903 0
-1449 -2904 0
-1450 -3313 0
-1451 -3314 0
-1452 -3315 0
-1453 -2506 0
-1454 -2507 0
-1455 -2508 0
-1453 -2689 0
-1454 -2690 0
-1455 -2691 0
-1453 -1930 0
-1454 -1931 0
-1455 -1932 0
-1453 -1471 0
-1454 -1472 0
-1455 -1473 0
-1456 -2104 0
-1457 -2105 0
-1458 -2106 0
-1456 -2107 0
-1457 -2108 0
-1458 -2109 0
-1456 -1645 0
-1457 -1646 0
-1458 -1647 0
-1459 -3901 0
-1460 -3902 0
-1461 -3903 0
-1459 -3694 0
-1460 -3695 0
-1461 -3696 0
-1459 -1645 0
-1460 -1646 0
-1461 -1647 0
-1462 -2506 0
-1463 -2507 0
-1464 -2508 0
-1462 -2704 0
-1463 -2705 0
-1464 -2706 0
-1462 -1606 0
-1463 -1607 0
-1464 -1608 0
-1462 -1930 0
-1463 -1931 0
-1464 -1932 0
-1465 -1933 0
-1466 -1934 0
-1467 -1935 0
-1465 -1909 0
-1466 -1910 0
-1467 -1911 0
-1465 -1630 0
-1466 -1631 0
-1467 -1632 0
-1468 -1621 0
-1469 -1622 0
-1470 -1623 0
-1468 -2281 0
-1469 -2282 0
-1470 -2283 0
-1468 -2599 0
-1469 -2600 0
-1470 -2601 0
-1468 -2224 0
-1469 -2225 0
-1470 -2226 0
-1468 -2374 0
-1469 -2375 0
-1470 -2376 0
-1471 -1486 0
-1472 -1487 0
-1473 -1488 0
-1471 -1489 0
-1472 -1490 0
-1473 -1491 0
-1474 -1717 0
-1475 -1718 0
-1476 -1719 0
-1474 -1720 0
-1475 -1721 0
-1476 -1722 0
-1474 -1483 0
-1475 -1484 0
-1476 -1485 0
-1477 -3031 0
-1478 -3032 0
-1479 -3033 0
-1477 -3259 0
-1478 -3260 0
-1479 -3261 0
-1477 -1495 0
-1478 -1496 0
-1479 -1497 0
-1477 -3181 0
-1478 -3182 0
-1479 -3183 0
-1477 -3937 0
-1478 -3938 0
-1479 -3939 0
-1477 -3805 0
-1478 -3806 0
-1479 -3807 0
-1480 -2809 0
-1481 -2810 0
-1482 -2811 0
-1480 -1492 0
-1481 -1493 0
-1482 -1494 0
-1480 -4078 0
-1481 -4079 0
-1482 -4080 0
-1483 -3055 0
-1484 -3056 0
-1485 -3057 0
-1483 -2536 0
-1484 -2537 0
-1485 -2538 0
-1483 -2272 0
-1484 -2273 0
-1485 -2274 0
-1483 -1885 0
-1484 -1886 0
-1485 -1887 0
-1483 -2887 0
-1484 -2888 0
-1485 -2889 0
-1486 -3442 0
-1487 -3443 0
-1488 -3444 0
-1486 -2506 0
-1487 -2507 0
-1488 -2508 0
-1486 -3697 0
-1487 -3698 0
-1488 -3699 0
-1486 -3940 0
-1487 -3941 0
-1488 -3942 0
-1489 -1930 0
-1490 -1931 0
-1491 -1932 0
-1489 -1888 0
-1490 -1889 0
-1491 -1890 0
-1492 -1498 0
-1493 -1499 0
-1494 -1500 0
-1492 -1759 0
-1493 -1760 0
-1494 -1761 0
-1495 -1714 0
-1496 -1715 0
-1497 -1716 0
-1498 -2179 0
-1499 -2180 0
-1500 -2181 0
-1498 -2185 0
-1499 -2186 0
-1500 -2187 0
-1501 -4045 0
-1502 -4046 0
-1503 -4047 0
-1501 -1684 0
-1502 -1685 0
-1503 -1686 0
-1504 -2539 0
-1505 -2540 0
-1506 -2541 0
-1504 -1675 0
-1505 -1676 0
-1506 -1677 0
-1507 -2722 0
-1508 -2723 0
-1509 -2724 0
-1507 -3853 0
-1508 -3854 0
-1509 -3855 0
-1507 -1531 0
-1508 -1532 0
-1509 -1533 0
-1510 -3646 0
-1511 -3647 0
-1512 -3648 0
-1510 -2722 0
-1511 -2723 0
-1512 -2724 0
-1510 -1531 0
-1511 -1532 0
-1512 -1533 0
-1513 -3166 0
-1514 -3167 0
-1515 -3168 0
-1513 -1918 0
-1514 -1919 0
-1515 -1920 0
-1513 -2755 0
-1514 -2756 0
-1515 -2757 0
-1513 -3172 0
-1514 -3173 0
-1515 -3174 0
-1513 -3640 0
-1514 -3641 0
-1515 -3642 0
-1513 -2725 0
-1514 -2726 0
-1515 -2727 0
-1513 -1531 0
-1514 -1532 0
-1515 -1533 0
-1516 -1747 0
-1517 -1748 0
-1518 -1749 0
-1516 -4054 0
-1517 -4055 0
-1518 -4056 0
-1519 -1747 0
-1520 -1748 0
-1521 -1749 0
-1519 -3904 0
-1520 -3905 0
-1521 -3906 0
-1519 -4042 0
-1520 -4043 0
-1521 -4044 0
-1522 -3403 0
-1523 -3404 0
-1524 -3405 0
-1522 -3640 0
-1523 -3641 0
-1524 -3642 0
-1522 -1531 0
-1523 -1532 0
-1524 -1533 0
-1525 -2866 0
-1526 -2867 0
-1527 -2868 0
-1525 -1747 0
-1526 -1748 0
-1527 -1749 0
-1525 -2752 0
-1526 -2753 0
-1527 -2754 0
-1525 -3373 0
-1526 -3374 0
-1527 -3375 0
-1525 -2836 0
-1526 -2837 0
-1527 -2838 0
-1528 -1756 0
-1529 -1757 0
-1530 -1758 0
-1528 -2713 0
-1529 -2714 0
-1530 -2715 0
-1531 -1771 0
-1532 -1772 0
-1533 -1773 0
-1531 -1723 0
-1532 -1724 0
-1533 -1725 0
-1531 -1729 0
-1532 -1730 0
-1533 -1731 0
-1531 -1738 0
-1532 -1739 0
-1533 -1740 0
-1531 -1807 0
-1532 -1808 0
-1533 -1809 0
-1534 -1774 0
-1535 -1775 0
-1536 -1776 0
-1534 -1726 0
-1535 -1727 0
-1536 -1728 0
-1534 -1804 0
-1535 -1805 0
-1536 -1806 0
-1537 -1822 0
-1538 -1823 0
-1539 -1824 0
-1537 -1732 0
-1538 -1733 0
-1539 -1734 0
-1537 -1543 0
-1538 -1544 0
-1539 -1545 0
-1537 -1753 0
-1538 -1754 0
-1539 -1755 0
-1540 -3943 0
-1541 -3944 0
-1542 -3945 0
-1540 -2779 0
-1541 -2780 0
-1542 -2781 0
-1540 -3799 0
-1541 -3800 0
-1542 -3801 0
-1540 -1546 0
-1541 -1547 0
-1542 -1548 0
-1540 -2386 0
-1541 -2387 0
-1542 -2388 0
-1540 -4111 0
-1541 -4112 0
-1542 -4113 0
-1543 -2308 0
-1544 -2309 0
-1545 -2310 0
-1543 -3811 0
-1544 -3812 0
-1545 -3813 0
-1543 -3709 0
-1544 -3710 0
-1545 -3711 0
-1543 -2641 0
-1544 -2642 0
-1545 -2643 0
-1543 -3094 0
-1544 -3095 0
-1545 -3096 0
-1543 -3679 0
-1544 -3680 0
-1545 -3681 0
-1543 -3961 0
-1544 -3962 0
-1545 -3963 0
-1546 -1825 0
-1547 -1826 0
-1548 -1827 0
-1546 -1735 0
-1547 -1736 0
-1548 -1737 0
-1549 -1834 0
-1550 -1835 0
-1551 -1836 0
-1549 -1780 0
-1550 -1781 0
-1551 -1782 0
-1549 -1555 0
-1550 -1556 0
-1551 -1557 0
-1549 -1798 0
-1550 -1799 0
-1551 -1800 0
-1552 -2662 0
-1553 -2663 0
-1554 -2664 0
-1552 -3103 0
-1553 -3104 0
-1554 -3105 0
-1552 -3796 0
-1553 -3797 0
-1554 -3798 0
-1552 -3766 0
-1553 -3767 0
-1554 -3768 0
-1552 -1558 0
-1553 -1559 0
-1554 -1560 0
-1555 -2245 0
-1556 -2246 0
-1557 -2247 0
-1555 -2917 0
-1556 -2918 0
-1557 -2919 0
-1555 -4105 0
-1556 -4106 0
-1557 -4107 0
-1558 -1780 0
-1559 -1781 0
-1560 -1782 0
-1558 -1783 0
-1559 -1784 0
-1560 -1785 0
-1558 -1759 0
-1559 -1760 0
-1560 -1761 0
-1561 -1918 0
-1562 -1919 0
-1563 -1920 0
-1561 -2731 0
-1562 -2732 0
-1563 -2733 0
-1564 -3403 0
-1565 -3404 0
-1566 -3405 0
-1564 -2905 0
-1565 -2906 0
-1566 -2907 0
-1567 -1756 0
-1568 -1757 0
-1569 -1758 0
-1567 -1927 0
-1568 -1928 0
-1569 -1929 0
-1567 -2266 0
-1568 -2267 0
-1569 -2268 0
-1567 -2380 0
-1568 -2381 0
-1569 -2382 0
-1567 -2383 0
-1568 -2384 0
-1569 -2385 0
-1570 -1756 0
-1571 -1757 0
-1572 -1758 0
-1570 -1924 0
-1571 -1925 0
-1572 -1926 0
-1570 -2230 0
-1571 -2231 0
-1572 -2232 0
-1570 -2605 0
-1571 -2606 0
-1572 -2607 0
-1573 -1756 0
-1574 -1757 0
-1575 -1758 0
-1573 -1927 0
-1574 -1928 0
-1575 -1929 0
-1573 -3916 0
-1574 -3917 0
-1575 -3918 0
-1576 -1603 0
-1577 -1604 0
-1578 -1605 0
-1576 -3790 0
-1577 -3791 0
-1578 -3792 0
-1576 -2875 0
-1577 -2876 0
-1578 -2877 0
-1579 -1606 0
-1580 -1607 0
-1581 -1608 0
-1579 -2689 0
-1580 -2690 0
-1581 -2691 0
-1579 -2674 0
-1580 -2675 0
-1581 -2676 0
-1579 -2881 0
-1580 -2882 0
-1581 -2883 0
-1579 -3922 0
-1580 -3923 0
-1581 -3924 0
-1582 -2182 0
-1583 -2183 0
-1584 -2184 0
-1582 -2215 0
-1583 -2216 0
-1584 -2217 0
-1585 -2260 0
-1586 -2261 0
-1587 -2262 0
-1585 -1603 0
-1586 -1604 0
-1587 -1605 0
-1585 -4186 0
-1586 -4187 0
-1587 -4188 0
-1588 -1828 0
-1589 -1829 0
-1590 -1830 0
-1588 -1846 0
-1589 -1847 0
-1590 -1848 0
-1588 -1813 0
-1589 -1814 0
-1590 -1815 0
-1591 -1810 0
-1592 -1811 0
-1593 -1812 0
-1591 -1816 0
-1592 -1817 0
-1593 -1818 0
-1594 -3331 0
-1595 -3332 0
-1596 -3333 0
-1594 -3376 0
-1595 -3377 0
-1596 -3378 0
-1594 -3619 0
-1595 -3620 0
-1596 -3621 0
-1594 -3706 0
-1595 -3707 0
-1596 -3708 0
-1597 -3532 0
-1598 -3533 0
-1599 -3534 0
-1597 -4141 0
-1598 -4142 0
-1599 -4143 0
-1597 -4144 0
-1598 -4145 0
-1599 -4146 0
-1597 -2227 0
-1598 -2228 0
-1599 -2229 0
-1600 -4138 0
-1601 -4139 0
-1602 -4140 0
-1600 -1606 0
-1601 -1607 0
-1602 -1608 0
-1600 -1906 0
-1601 -1907 0
-1602 -1908 0
-1600 -2059 0
-1601 -2060 0
-1602 -2061 0
-1600 -3964 0
-1601 -3965 0
-1602 -3966 0
-1603 -1816 0
-1604 -1817 0
-1605 -1818 0
-1606 -1831 0
-1607 -1832 0
-1608 -1833 0
-1606 -1765 0
-1607 -1766 0
-1608 -1767 0
-1606 -1813 0
-1607 -1814 0
-1608 -1815 0
-1606 -1819 0
-1607 -1820 0
-1608 -1821 0
-1606 -1768 0
-1607 -1769 0
-1608 -1770 0
-1609 -3532 0
-1610 -3533 0
-1611 -3534 0
-1609 -3517 0
-1610 -3518 0
-1611 -3519 0
-1612 -2203 0
-1613 -2204 0
-1614 -2205 0
-1612 -1975 0
-1613 -1976 0
-1614 -1977 0
-1612 -3991 0
-1613 -3992 0
-1614 -3993 0
-1612 -3283 0
-1613 -3284 0
-1614 -3285 0
-1612 -3436 0
-1613 -3437 0
-1614 -3438 0
-1612 -3706 0
-1613 -3707 0
-1614 -3708 0
-1615 -3274 0
-1616 -3275 0
-1617 -3276 0
-1615 -3994 0
-1616 -3995 0
-1617 -3996 0
-1618 -2623 0
-1619 -2624 0
-1620 -2625 0
-1618 -1621 0
-1619 -1622 0
-1620 -1623 0
-1618 -2164 0
-1619 -2165 0
-1620 -2166 0
-1618 -2374 0
-1619 -2375 0
-1620 -2376 0
-1621 -1627 0
-1622 -1628 0
-1623 -1629 0
-1624 -3787 0
-1625 -3788 0
-1626 -3789 0
-1624 -2884 0
-1625 -2885 0
-1626 -2886 0
-1624 -3463 0
-1625 -3464 0
-1626 -3465 0
-1624 -2257 0
-1625 -2258 0
-1626 -2259 0
-1624 -1630 0
-1625 -1631 0
-1626 -1632 0
-1627 -4138 0
-1628 -4139 0
-1629 -4140 0
-1627 -3943 0
-1628 -3944 0
-1629 -3945 0
-1627 -3949 0
-1628 -3950 0
-1629 -3951 0
-1627 -3955 0
-1628 -3956 0
-1629 -3957 0
-1627 -3964 0
-1628 -3965 0
-1629 -3966 0
-1630 -1777 0
-1631 -1778 0
-1632 -1779 0
-1630 -1633 0
-1631 -1634 0
-1632 -1635 0
-1630 -1636 0
-1631 -1637 0
-1632 -1638 0
-1630 -1798 0
-1631 -1799 0
-1632 -1800 0
-1633 -2023 0
-1634 -2024 0
-1635 -2025 0
-1633 -3508 0
-1634 -3509 0
-1635 -3510 0
-1633 -3535 0
-1634 -3536 0
-1635 -3537 0
-1633 -2491 0
-1634 -2492 0
-1635 -2493 0
-1636 -1933 0
-1637 -1934 0
-1638 -1935 0
-1636 -2473 0
-1637 -2474 0
-1638 -2475 0
-1639 -1654 0
-1640 -1655 0
-1641 -1656 0
-1639 -2410 0
-1640 -2411 0
-1641 -2412 0
-1639 -3445 0
-1640 -3446 0
-1641 -3447 0
-1639 -3463 0
-1640 -3464 0
-1641 -3465 0
-1639 -4081 0
-1640 -4082 0
-1641 -4083 0
-1642 -3694 0
-1643 -3695 0
-1644 -3696 0
-1642 -2632 0
-1643 -2633 0
-1644 -2634 0
-1642 -1645 0
-1643 -1646 0
-1644 -1647 0
-1645 -1651 0
-1646 -1652 0
-1647 -1653 0
-1645 -1660 0
-1646 -1661 0
-1647 -1662 0
-1648 -1654 0
-1649 -1655 0
-1650 -1656 0
-1648 -2503 0
-1649 -2504 0
-1650 -2505 0
-1648 -3445 0
-1649 -3446 0
-1650 -3447 0
-1648 -1984 0
-1649 -1985 0
-1650 -1986 0
-1648 -1915 0
-1649 -1916 0
-1650 -1917 0
-1648 -2566 0
-1649 -2567 0
-1650 -2568 0
-1648 -4003 0
-1649 -4004 0
-1650 -4005 0
-1651 -2518 0
-1652 -2519 0
-1653 -2520 0
-1651 -3919 0
-1652 -3920 0
-1653 -3921 0
-1651 -3808 0
-1652 -3809 0
-1653 -3810 0
-1651 -1858 0
-1652 -1859 0
-1653 -1860 0
-1654 -1849 0
-1655 -1850 0
-1656 -1851 0
-1654 -1657 0
-1655 -1658 0
-1656 -1659 0
-1657 -2101 0
-1658 -2102 0
-1659 -2103 0
-1657 -2278 0
-1658 -2279 0
-1659 -2280 0
-1657 -2476 0
-1658 -2477 0
-1659 -2478 0
-1657 -2479 0
-1658 -2480 0
-1659 -2481 0
-1657 -3004 0
-1658 -3005 0
-1659 -3006 0
-1657 -2497 0
-1658 -2498 0
-1659 -2499 0
-1657 -2500 0
-1658 -2501 0
-1659 -2502 0
-1657 -2302 0
-1658 -2303 0
-1659 -2304 0
-1657 -3835 0
-1658 -3836 0
-1659 -3837 0
-1657 -3457 0
-1658 -3458 0
-1659 -3459 0
-1657 -2404 0
-1658 -2405 0
-1659 -2406 0
-1657 -2410 0
-1658 -2411 0
-1659 -2412 0
-1660 -3964 0
-1661 -3965 0
-1662 -3966 0
-1663 -3310 0
-1664 -3311 0
-1665 -3312 0
-1663 -2293 0
-1664 -2294 0
-1665 -2295 0
-1666 -2839 0
-1667 -2840 0
-1668 -2841 0
-1666 -1684 0
-1667 -1685 0
-1668 -1686 0
-1666 -1903 0
-1667 -1904 0
-1668 -1905 0
-1666 -2413 0
-1667 -2414 0
-1668 -2415 0
-1669 -3448 0
-1670 -3449 0
-1671 -3450 0
-1669 -3223 0
-1670 -3224 0
-1671 -3225 0
-1669 -1915 0
-1670 -1916 0
-1671 -1917 0
-1669 -1672 0
-1670 -1673 0
-1671 -1674 0
-1669 -2653 0
-1670 -2654 0
-1671 -2655 0
-1672 -1708 0
-1673 -1709 0
-1674 -1710 0
-1672 -1840 0
-1673 -1841 0
-1674 -1842 0
-1672 -1792 0
-1673 -1793 0
-1674 -1794 0
-1672 -1804 0
-1673 -1805 0
-1674 -1806 0
-1675 -1705 0
-1676 -1706 0
-1677 -1707 0
-1675 -1831 0
-1676 -1832 0
-1677 -1833 0
-1675 -1837 0
-1676 -1838 0
-1677 -1839 0
-1678 -2353 0
-1679 -2354 0
-1680 -2355 0
-1678 -1927 0
-1679 -1928 0
-1680 -1929 0
-1678 -2569 0
-1679 -2570 0
-1680 -2571 0
-1678 -1891 0
-1679 -1892 0
-1680 -1893 0
-1678 -3235 0
-1679 -3236 0
-1680 -3237 0
-1678 -2911 0
-1679 -2912 0
-1680 -2913 0
-1678 -3271 0
-1679 -3272 0
-1680 -3273 0
-1681 -1924 0
-1682 -1925 0
-1683 -1926 0
-1681 -2554 0
-1682 -2555 0
-1683 -2556 0
-1681 -2041 0
-1682 -2042 0
-1683 -2043 0
-1681 -2281 0
-1682 -2282 0
-1683 -2283 0
-1681 -1933 0
-1682 -1934 0
-1683 -1935 0
-1681 -3997 0
-1682 -3998 0
-1683 -3999 0
-1681 -3433 0
-1682 -3434 0
-1683 -3435 0
-1684 -1690 0
-1685 -1691 0
-1686 -1692 0
-1684 -1699 0
-1685 -1700 0
-1686 -1701 0
-1684 -1828 0
-1685 -1829 0
-1686 -1830 0
-1684 -1843 0
-1685 -1844 0
-1686 -1845 0
-1684 -1762 0
-1685 -1763 0
-1686 -1764 0
-1687 -1693 0
-1688 -1694 0
-1689 -1695 0
-1687 -1696 0
-1688 -1697 0
-1689 -1698 0
-1687 -1840 0
-1688 -1841 0
-1689 -1842 0
-1687 -1789 0
-1688 -1790 0
-1689 -1791 0
-1687 -1807 0
-1688 -1808 0
-1689 -1809 0
-1690 -2845 0
-1691 -2846 0
-1692 -2847 0
-1690 -2884 0
-1691 -2885 0
-1692 -2886 0
-1690 -3463 0
-1691 -3464 0
-1692 -3465 0
-1693 -3616 0
-1694 -3617 0
-1695 -3618 0
-1693 -3451 0
-1694 -3452 0
-1695 -3453 0
-1693 -2368 0
-1694 -2369 0
-1695 -2370 0
-1696 -2959 0
-1697 -2960 0
-1698 -2961 0
-1696 -2518 0
-1697 -2519 0
-1698 -2520 0
-1696 -2890 0
-1697 -2891 0
-1698 -2892 0
-1699 -3040 0
-1700 -3041 0
-1701 -3042 0
-1699 -1984 0
-1700 -1985 0
-1701 -1986 0
-1699 -2989 0
-1700 -2990 0
-1701 -2991 0
-1702 -2488 0
-1703 -2489 0
-1704 -2490 0
-1702 -1963 0
-1703 -1964 0
-1704 -1965 0
-1705 -2443 0
-1706 -2444 0
-1707 -2445 0
-1705 -3082 0
-1706 -3083 0
-1707 -3084 0
-1705 -2710 0
-1706 -2711 0
-1707 -2712 0
-1705 -2848 0
-1706 -2849 0
-1707 -2850 0
-1708 -3775 0
-1709 -3776 0
-1710 -3777 0
-1708 -2038 0
-1709 -2039 0
-1710 -2040 0
-1708 -1906 0
-1709 -1907 0
-1710 -1908 0
-1711 -1966 0
-1712 -1967 0
-1713 -1968 0
-1711 -3307 0
-1712 -3308 0
-1713 -3309 0
-1711 -3286 0
-1712 -3287 0
-1713 -3288 0
-1711 -3235 0
-1712 -3236 0
-1713 -3237 0
-1714 -4144 0
-1715 -4145 0
-1716 -4146 0
-1714 -2233 0
-1715 -2234 0
-1716 -2235 0
-1717 -2695 0
-1718 -2696 0
-1719 -2697 0
-1717 -1912 0
-1718 -1913 0
-1719 -1914 0
-1720 -2728 0
-1721 -2729 0
-1722 -2730 0
-1720 -3511 0
-1721 -3512 0
-1722 -3513 0
-1723 -3646 0
-1724 -3647 0
-1725 -3648 0
-1723 -2893 0
-1724 -2894 0
-1725 -2895 0
-1726 -2644 0
-1727 -2645 0
-1728 -2646 0
-1726 -2986 0
-1727 -2987 0
-1728 -2988 0
-1729 -3697 0
-1730 -3698 0
-1731 -3699 0
-1729 -4204 0
-1730 -4205 0
-1731 -4206 0
-1729 -3853 0
-1730 -3854 0
-1731 -3855 0
-1729 -2269 0
-1730 -2270 0
-1731 -2271 0
-1732 -3337 0
-1733 -3338 0
-1734 -3339 0
-1732 -3961 0
-1733 -3962 0
-1734 -3963 0
-1732 -2659 0
-1733 -2660 0
-1734 -2661 0
-1735 -3883 0
-1736 -3884 0
-1737 -3885 0
-1735 -4090 0
-1736 -4091 0
-1737 -4092 0
-1735 -3361 0
-1736 -3362 0
-1737 -3363 0
-1738 -3145 0
-1739 -3146 0
-1740 -3147 0
-1738 -3172 0
-1739 -3173 0
-1740 -3174 0
-1738 -2407 0
-1739 -2408 0
-1740 -2409 0
-1738 -2956 0
-1739 -2957 0
-1740 -2958 0
-1741 -1747 0
-1742 -1748 0
-1743 -1749 0
-1741 -2788 0
-1742 -2789 0
-1743 -2790 0
-1741 -2761 0
-1742 -2762 0
-1743 -2763 0
-1744 -1747 0
-1745 -1748 0
-1746 -1749 0
-1744 -3280 0
-1745 -3281 0
-1746 -3282 0
-1744 -3226 0
-1745 -3227 0
-1746 -3228 0
-1744 -3955 0
-1745 -3956 0
-1746 -3957 0
-1747 -1822 0
-1748 -1823 0
-1749 -1824 0
-1747 -1825 0
-1748 -1826 0
-1749 -1827 0
-1747 -1852 0
-1748 -1853 0
-1749 -1854 0
-1747 -1795 0
-1748 -1796 0
-1749 -1797 0
-1753 -3811 0
-1754 -3812 0
-1755 -3813 0
-1753 -3952 0
-1754 -3953 0
-1755 -3954 0
-1756 -1834 0
-1757 -1835 0
-1758 -1836 0
-1756 -1846 0
-1757 -1847 0
-1758 -1848 0
-1756 -1849 0
-1757 -1850 0
-1758 -1851 0
-1756 -1801 0
-1757 -1802 0
-1758 -1803 0
-1759 -3115 0
-1760 -3116 0
-1761 -3117 0
-1762 -3688 0
-1763 -3689 0
-1764 -3690 0
-1762 -2542 0
-1763 -2543 0
-1764 -2544 0
-1765 -2758 0
-1766 -2759 0
-1767 -2760 0
-1765 -2719 0
-1766 -2720 0
-1767 -2721 0
-1765 -4057 0
-1766 -4058 0
-1767 -4059 0
-1768 -3712 0
-1769 -3713 0
-1770 -3714 0
-1768 -3376 0
-1769 -3377 0
-1770 -3378 0
-1768 -2098 0
-1769 -2099 0
-1770 -2100 0
-1771 -4117 0
-1772 -4118 0
-1773 -4119 0
-1771 -2458 0
-1772 -2459 0
-1773 -2460 0
-1771 -3895 0
-1772 -3896 0
-1773 -3897 0
-1774 -3277 0
-1775 -3278 0
-1776 -3279 0
-1774 -2671 0
-1775 -2672 0
-1776 -2673 0
-1777 -2491 0
-1778 -2492 0
-1779 -2493 0
-1780 -3700 0
-1781 -3701 0
-1782 -3702 0
-1780 -2860 0
-1781 -2861 0
-1782 -2862 0
-1780 -3703 0
-1781 -3704 0
-1782 -3705 0
-1783 -3118 0
-1784 -3119 0
-1785 -3120 0
-1783 -3103 0
-1784 -3104 0
-1785 -3105 0
-1786 -2491 0
-1787 -2492 0
-1788 -2493 0
-1786 -2494 0
-1787 -2495 0
-1788 -2496 0
-1786 -3460 0
-1787 -3461 0
-1788 -3462 0
-1789 -2782 0
-1790 -2783 0
-1791 -2784 0
-1789 -2965 0
-1790 -2966 0
-1791 -2967 0
-1789 -2764 0
-1790 -2765 0
-1791 -2766 0
-1792 -2569 0
-1793 -2570 0
-1794 -2571 0
-1795 -2080 0
-1796 -2081 0
-1797 -2082 0
-1795 -3289 0
-1796 -3290 0
-1797 -3291 0
-1798 -2428 0
-1799 -2429 0
-1800 -2430 0
-1798 -3535 0
-1799 -3536 0
-1800 -3537 0
-1801 -2035 0
-1802 -2036 0
-1803 -2037 0
-1801 -2041 0
-1802 -2042 0
-1803 -2043 0
-1801 -4087 0
-1802 -4088 0
-1803 -4089 0
-1801 -2380 0
-1802 -2381 0
-1803 -2382 0
-1804 -2686 0
-1805 -2687 0
-1806 -2688 0
-1804 -3844 0
-1805 -3845 0
-1806 -3846 0
-1807 -2668 0
-1808 -2669 0
-1809 -2670 0
-1807 -4120 0
-1808 -4121 0
-1809 -4122 0
-1810 -2701 0
-1811 -2702 0
-1812 -2703 0
-1810 -1873 0
-1811 -1874 0
-1812 -1875 0
-1813 -2029 0
-1814 -2030 0
-1815 -2031 0
-1813 -2947 0
-1814 -2948 0
-1815 -2949 0
-1813 -2935 0
-1814 -2936 0
-1815 -2937 0
-1813 -3706 0
-1814 -3707 0
-1815 -3708 0
-1816 -3532 0
-1817 -3533 0
-1818 -3534 0
-1816 -2920 0
-1817 -2921 0
-1818 -2922 0
-1816 -2722 0
-1817 -2723 0
-1818 -2724 0
-1819 -2704 0
-1820 -2705 0
-1821 -2706 0
-1819 -3712 0
-1820 -3713 0
-1821 -3714 0
-1819 -2872 0
-1820 -2873 0
-1821 -2874 0
-1819 -3316 0
-1820 -3317 0
-1821 -3318 0
-1819 -3319 0
-1820 -3320 0
-1821 -3321 0
-1822 -2680 0
-1823 -2681 0
-1824 -2682 0
-1822 -3850 0
-1823 -3851 0
-1824 -3852 0
-1822 -3124 0
-1823 -3125 0
-1824 -3126 0
-1825 -2863 0
-1826 -2864 0
-1827 -2865 0
-1825 -2734 0
-1826 -2735 0
-1827 -2736 0
-1828 -3445 0
-1829 -3446 0
-1830 -3447 0
-1828 -3463 0
-1829 -3464 0
-1830 -3465 0
-1831 -3964 0
-1832 -3965 0
-1833 -3966 0
-1834 -2896 0
-1835 -2897 0
-1836 -2898 0
-1834 -3454 0
-1835 -3455 0
-1836 -3456 0
-1834 -2566 0
-1835 -2567 0
-1836 -2568 0
-1837 -2710 0
-1838 -2711 0
-1839 -2712 0
-1837 -2056 0
-1838 -2057 0
-1839 -2058 0
-1837 -1993 0
-1838 -1994 0
-1839 -1995 0
-1837 -3232 0
-1838 -3233 0
-1839 -3234 0
-1840 -3064 0
-1841 -3065 0
-1842 -3066 0
-1840 -3235 0
-1841 -3236 0
-1842 -3237 0
-1840 -4120 0
-1841 -4121 0
-1842 -4122 0
-1843 -2032 0
-1844 -2033 0
-1845 -2034 0
-1843 -2707 0
-1844 -2708 0
-1845 -2709 0
-1843 -2932 0
-1844 -2933 0
-1845 -2934 0
-1843 -1993 0
-1844 -1994 0
-1845 -1995 0
-1846 -3199 0
-1847 -3200 0
-1848 -3201 0
-1846 -2785 0
-1847 -2786 0
-1848 -2787 0
-1849 -2503 0
-1850 -2504 0
-1851 -2505 0
-1849 -3175 0
-1850 -3176 0
-1851 -3177 0
-1849 -2497 0
-1850 -2498 0
-1851 -2499 0
-1852 -3709 0
-1853 -3710 0
-1854 -3711 0
-1852 -2422 0
-1853 -2423 0
-1854 -2424 0
-1852 -2386 0
-1853 -2387 0
-1854 -2388 0
-1855 -2023 0
-1856 -2024 0
-1857 -2025 0
-1855 -1975 0
-1856 -1976 0
-1857 -1977 0
-1855 -1954 0
-1856 -1955 0
-1857 -1956 0
-1858 -1870 0
-1859 -1871 0
-1860 -1872 0
-1858 -1873 0
-1859 -1874 0
-1860 -1875 0
-1861 -1864 0
-1862 -1865 0
-1863 -1866 0
-1861 -1867 0
-1862 -1868 0
-1863 -1869 0
-1864 -2173 0
-1865 -2174 0
-1866 -2175 0
-1867 -2158 0
-1868 -2159 0
-1869 -2160 0
-1870 -2518 0
-1871 -2519 0
-1872 -2520 0
-1870 -3496 0
-1871 -3497 0
-1872 -3498 0
-1870 -3499 0
-1871 -3500 0
-1872 -3501 0
-1882 -3085 0
-1883 -3086 0
-1884 -3087 0
-1885 -2926 0
-1886 -2927 0
-1887 -2928 0
-1885 -2032 0
-1886 -2033 0
-1887 -2034 0
-1891 -2029 0
-1892 -2030 0
-1893 -2031 0
-1891 -2002 0
-1892 -2003 0
-1893 -2004 0
-1891 -2005 0
-1892 -2006 0
-1893 -2007 0
-1894 -2053 0
-1895 -2054 0
-1896 -2055 0
-1894 -2008 0
-1895 -2009 0
-1896 -2010 0
-1897 -2122 0
-1898 -2123 0
-1899 -2124 0
-1897 -2164 0
-1898 -2165 0
-1899 -2166 0
-1900 -2173 0
-1901 -2174 0
-1902 -2175 0
-1900 -2215 0
-1901 -2216 0
-1902 -2217 0
-1903 -2347 0
-1904 -2348 0
-1905 -2349 0
-1903 -2293 0
-1904 -2294 0
-1905 -2295 0
-1903 -2368 0
-1904 -2369 0
-1905 -2370 0
-1906 -2416 0
-1907 -2417 0
-1908 -2418 0
-1906 -4198 0
-1907 -4199 0
-1908 -4200 0
-1906 -2371 0
-1907 -2372 0
-1908 -2373 0
-1906 -3664 0
-1907 -3665 0
-1908 -3666 0
-1906 -1963 0
-1907 -1964 0
-1908 -1965 0
-1909 -2374 0
-1910 -2375 0
-1911 -2376 0
-1909 -2224 0
-1910 -2225 0
-1911 -2226 0
-1909 -2164 0
-1910 -2165 0
-1911 -2166 0
-1912 -2167 0
-1913 -2168 0
-1914 -2169 0
-1912 -2161 0
-1913 -2162 0
-1914 -2163 0
-1912 -2152 0
-1913 -2153 0
-1914 -2154 0
-1912 -2122 0
-1913 -2123 0
-1914 -2124 0
-1912 -2158 0
-1913 -2159 0
-1914 -2160 0
-1915 -2287 0
-1916 -2288 0
-1917 -2289 0
-1918 -2308 0
-1919 -2309 0
-1920 -2310 0
-1918 -2641 0
-1919 -2642 0
-1920 -2643 0
-1918 -3088 0
-1919 -3089 0
-1920 -3090 0
-1918 -3913 0
-1919 -3914 0
-1920 -3915 0
-1924 -1972 0
-1925 -1973 0
-1926 -1974 0
-1924 -2341 0
-1925 -2342 0
-1926 -2343 0
-1927 -2032 0
-1928 -2033 0
-1929 -2034 0
-1927 -3430 0
-1928 -3431 0
-1929 -3432 0
-1927 -2056 0
-1928 -2057 0
-1929 -2058 0
-1927 -1993 0
-1928 -1994 0
-1929 -1995 0
-1927 -2014 0
-1928 -2015 0
-1929 -2016 0
-1933 -2050 0
-1934 -2051 0
-1935 -2052 0
-1939 -3556 0
-1940 -3557 0
-1941 -3558 0
-1942 -2326 0
-1943 -2327 0
-1944 -2328 0
-1942 -3085 0
-1943 -3086 0
-1944 -3087 0
-1942 -2227 0
-1943 -2228 0
-1944 -2229 0
-1942 -2389 0
-1943 -2390 0
-1944 -2391 0
-1945 -3247 0
-1946 -3248 0
-1947 -3249 0
-1948 -2044 0
-1949 -2045 0
-1950 -2046 0
-1948 -1984 0
-1949 -1985 0
-1950 -1986 0
-1948 -1996 0
-1949 -1997 0
-1950 -1998 0
-1948 -2989 0
-1949 -2990 0
-1950 -2991 0
-1948 -2011 0
-1949 -2012 0
-1950 -2013 0
-1948 -4108 0
-1949 -4109 0
-1950 -4110 0
-1951 -2020 0
-1952 -2021 0
-1953 -2022 0
-1951 -4123 0
-1952 -4124 0
-1953 -4125 0
-1951 -1978 0
-1952 -1979 0
-1953 -1980 0
-1951 -1999 0
-1952 -2000 0
-1953 -2001 0
-1954 -2176 0
-1955 -2177 0
-1956 -2178 0
-1954 -2152 0
-1955 -2153 0
-1956 -2154 0
-1954 -2155 0
-1955 -2156 0
-1956 -2157 0
-1957 -2230 0
-1958 -2231 0
-1959 -2232 0
-1957 -2320 0
-1958 -2321 0
-1959 -2322 0
-1960 -2179 0
-1961 -2180 0
-1962 -2181 0
-1960 -2185 0
-1961 -2186 0
-1962 -2187 0
-1960 -2161 0
-1961 -2162 0
-1962 -2163 0
-1963 -2434 0
-1964 -2435 0
-1965 -2436 0
-1963 -2038 0
-1964 -2039 0
-1965 -2040 0
-1963 -2047 0
-1964 -2048 0
-1965 -2049 0
-1963 -2059 0
-1964 -2060 0
-1965 -2061 0
-1966 -2443 0
-1967 -2444 0
-1968 -2445 0
-1966 -3085 0
-1967 -3086 0
-1968 -3087 0
-1966 -2482 0
-1967 -2483 0
-1968 -2484 0
-1966 -3082 0
-1967 -3083 0
-1968 -3084 0
-1966 -4126 0
-1967 -4127 0
-1968 -4128 0
-1966 -2992 0
-1967 -2993 0
-1968 -2994 0
-1969 -3673 0
-1970 -3674 0
-1971 -3675 0
-1969 -1981 0
-1970 -1982 0
-1971 -1983 0
-1972 -2035 0
-1973 -2036 0
-1974 -2037 0
-1972 -2041 0
-1973 -2042 0
-1974 -2043 0
-1975 -2197 0
-1976 -2198 0
-1977 -2199 0
-1978 -2080 0
-1979 -2081 0
-1980 -2082 0
-1978 -3556 0
-1979 -3557 0
-1980 -3558 0
-1978 -2089 0
-1979 -2090 0
-1980 -2091 0
-1981 -2074 0
-1982 -2075 0
-1983 -2076 0
-1981 -3217 0
-1982 -3218 0
-1983 -3219 0
-1984 -3889 0
-1985 -3890 0
-1986 -3891 0
-1990 -4198 0
-1991 -4199 0
-1992 -4200 0
-1996 -3382 0
-1997 -3383 0
-1998 -3384 0
-1996 -2065 0
-1997 -2066 0
-1998 -2067 0
-1999 -2323 0
-2000 -2324 0
-2001 -2325 0
-1999 -2086 0
-2000 -2087 0
-2001 -2088 0
-2002 -2071 0
-2003 -2072 0
-2004 -2073 0
-2005 -2062 0
-2006 -2063 0
-2007 -2064 0
-2005 -2068 0
-2006 -2069 0
-2007 -2070 0
-2008 -2614 0
-2009 -2615 0
-2010 -2616 0
-2008 -2509 0
-2009 -2510 0
-2010 -2511 0
-2011 -2467 0
-2012 -2468 0
-2013 -2469 0
-2014 -2353 0
-2015 -2354 0
-2016 -2355 0
-2017 -3298 0
-2018 -3299 0
-2019 -3300 0
-2017 -3262 0
-2018 -3263 0
-2019 -3264 0
-2017 -2194 0
-2018 -2195 0
-2019 -2196 0
-2020 -2077 0
-2021 -2078 0
-2022 -2079 0
-2020 -2083 0
-2021 -2084 0
-2022 -2085 0
-2023 -2182 0
-2024 -2183 0
-2025 -2184 0
-2023 -2224 0
-2024 -2225 0
-2025 -2226 0
-2026 -2206 0
-2027 -2207 0
-2028 -2208 0
-2029 -2569 0
-2030 -2570 0
-2031 -2571 0
-2032 -2929 0
-2033 -2930 0
-2034 -2931 0
-2032 -2383 0
-2033 -2384 0
-2034 -2385 0
-2032 -2362 0
-2033 -2363 0
-2034 -2364 0
-2032 -3076 0
-2033 -3077 0
-2034 -3078 0
-2035 -2356 0
-2036 -2357 0
-2037 -2358 0
-2038 -3685 0
-2039 -3686 0
-2040 -3687 0
-2041 -2686 0
-2042 -2687 0
-2043 -2688 0
-2044 -2416 0
-2045 -2417 0
-2046 -2418 0
-2044 -3478 0
-2045 -3479 0
-2046 -3480 0
-2047 -2401 0
-2048 -2402 0
-2049 -2403 0
-2047 -3889 0
-2048 -3890 0
-2049 -3891 0
-2050 -2929 0
-2051 -2930 0
-2052 -2931 0
-2050 -2554 0
-2051 -2555 0
-2052 -2556 0
-2050 -3553 0
-2051 -3554 0
-2052 -3555 0
-2050 -3388 0
-2051 -3389 0
-2052 -3390 0
-2050 -2473 0
-2051 -2474 0
-2052 -2475 0
-2050 -3394 0
-2051 -3395 0
-2052 -3396 0
-2050 -3076 0
-2051 -3077 0
-2052 -3078 0
-2053 -3757 0
-2054 -3758 0
-2055 -3759 0
-2056 -2377 0
-2057 -2378 0
-2058 -2379 0
-2056 -2380 0
-2057 -2381 0
-2058 -2382 0
-2059 -3769 0
-2060 -3770 0
-2061 -3771 0
-2062 -3202 0
-2063 -3203 0
-2064 -3204 0
-2062 -3193 0
-2063 -3194 0
-2064 -3195 0
-2065 -2095 0
-2066 -2096 0
-2067 -2097 0
-2068 -2098 0
-2069 -2099 0
-2070 -2100 0
-2071 -3208 0
-2072 -3209 0
-2073 -3210 0
-2074 -3565 0
-2075 -3566 0
-2076 -3567 0
-2074 -3142 0
-2075 -3143 0
-2076 -3144 0
-2077 -2551 0
-2078 -2552 0
-2079 -2553 0
-2080 -2677 0
-2081 -2678 0
-2082 -2679 0
-2080 -3325 0
-2081 -3326 0
-2082 -3327 0
-2083 -2563 0
-2084 -2564 0
-2085 -2565 0
-2086 -3100 0
-2087 -3101 0
-2088 -3102 0
-2086 -3109 0
-2087 -3110 0
-2088 -3111 0
-2086 -3541 0
-2087 -3542 0
-2088 -3543 0
-2089 -4099 0
-2090 -4100 0
-2091 -4101 0
-2092 -3448 0
-2093 -3449 0
-2094 -3450 0
-2095 -2290 0
-2096 -2291 0
-2097 -2292 0
-2098 -2668 0
-2099 -2669 0
-2100 -2670 0
-2101 -4102 0
-2102 -4103 0
-2103 -4104 0
-2101 -2104 0
-2102 -2105 0
-2103 -2106 0
-2101 -2140 0
-2102 -2141 0
-2103 -2142 0
-2101 -2107 0
-2102 -2108 0
-2103 -2109 0
-2104 -2278 0
-2105 -2279 0
-2106 -2280 0
-2104 -2125 0
-2105 -2126 0
-2106 -2127 0
-2107 -2284 0
-2108 -2285 0
-2109 -2286 0
-2110 -2134 0
-2111 -2135 0
-2112 -2136 0
-2110 -3484 0
-2111 -3485 0
-2112 -3486 0
-2110 -2284 0
-2111 -2285 0
-2112 -2286 0
-2110 -2116 0
-2111 -2117 0
-2112 -2118 0
-2110 -2128 0
-2111 -2129 0
-2112 -2130 0
-2110 -2131 0
-2111 -2132 0
-2112 -2133 0
-2113 -2119 0
-2114 -2120 0
-2115 -2121 0
-2113 -2122 0
-2114 -2123 0
-2115 -2124 0
-2116 -2143 0
-2117 -2144 0
-2118 -2145 0
-2116 -2146 0
-2117 -2147 0
-2118 -2148 0
-2116 -3262 0
-2117 -3263 0
-2118 -3264 0
-2119 -2137 0
-2120 -2138 0
-2121 -2139 0
-2119 -2140 0
-2120 -2141 0
-2121 -2142 0
-2119 -2149 0
-2120 -2150 0
-2121 -2151 0
-2122 -2143 0
-2123 -2144 0
-2124 -2145 0
-2122 -3982 0
-2123 -3983 0
-2124 -3984 0
-2122 -3385 0
-2123 -3386 0
-2124 -3387 0
-2125 -2449 0
-2126 -2450 0
-2127 -2451 0
-2125 -2149 0
-2126 -2150 0
-2127 -2151 0
-2128 -2200 0
-2129 -2201 0
-2130 -2202 0
-2131 -2218 0
-2132 -2219 0
-2133 -2220 0
-2134 -2140 0
-2135 -2141 0
-2136 -2142 0
-2137 -2155 0
-2138 -2156 0
-2139 -2157 0
-2143 -2314 0
-2144 -2315 0
-2145 -2316 0
-2146 -3097 0
-2147 -3098 0
-2148 -3099 0
-2152 -3802 0
-2153 -3803 0
-2154 -3804 0
-2155 -3556 0
-2156 -3557 0
-2157 -3558 0
-2155 -3481 0
-2156 -3482 0
-2157 -3483 0
-2155 -2191 0
-2156 -2192 0
-2157 -2193 0
-2164 -2305 0
-2165 -2306 0
-2166 -2307 0
-2167 -2695 0
-2168 -2696 0
-2169 -2697 0
-2170 -2176 0
-2171 -2177 0
-2172 -2178 0
-2170 -2416 0
-2171 -2417 0
-2172 -2418 0
-2170 -2188 0
-2171 -2189 0
-2172 -2190 0
-2173 -2305 0
-2174 -2306 0
-2175 -2307 0
-2179 -2218 0
-2180 -2219 0
-2181 -2220 0
-2182 -2194 0
-2183 -2195 0
-2184 -2196 0
-2188 -2434 0
-2189 -2435 0
-2190 -2436 0
-2188 -2449 0
-2189 -2450 0
-2190 -2451 0
-2188 -2296 0
-2189 -2297 0
-2190 -2298 0
-2188 -2191 0
-2189 -2192 0
-2190 -2193 0
-2188 -2299 0
-2189 -2300 0
-2190 -2301 0
-2194 -2215 0
-2195 -2216 0
-2196 -2217 0
-2197 -2200 0
-2198 -2201 0
-2199 -2202 0
-2197 -2203 0
-2198 -2204 0
-2199 -2205 0
-2200 -2209 0
-2201 -2210 0
-2202 -2211 0
-2200 -2212 0
-2201 -2213 0
-2202 -2214 0
-2203 -2302 0
-2204 -2303 0
-2205 -2304 0
-2206 -2221 0
-2207 -2222 0
-2208 -2223 0
-2212 -3784 0
-2213 -3785 0
-2214 -3786 0
-2218 -3502 0
-2219 -3503 0
-2220 -3504 0
-2218 -3595 0
-2219 -3596 0
-2220 -3597 0
-2221 -3901 0
-2222 -3902 0
-2223 -3903 0
-2221 -3694 0
-2222 -3695 0
-2223 -3696 0
-2227 -2821 0
-2228 -2822 0
-2229 -2823 0
-2230 -3526 0
-2231 -3527 0
-2232 -3528 0
-2233 -3400 0
-2234 -3401 0
-2235 -3402 0
-2233 -3409 0
-2234 -3410 0
-2235 -3411 0
-2233 -2557 0
-2234 -2558 0
-2235 -2559 0
-2233 -2350 0
-2234 -2351 0
-2235 -2352 0
-2236 -2572 0
-2237 -2573 0
-2238 -2574 0
-2236 -3538 0
-2237 -3539 0
-2238 -3540 0
-2239 -2830 0
-2240 -2831 0
-2241 -2832 0
-2239 -3301 0
-2240 -3302 0
-2241 -3303 0
-2242 -2521 0
-2243 -2522 0
-2244 -2523 0
-2242 -3544 0
-2243 -3545 0
-2244 -3546 0
-2245 -2950 0
-2246 -2951 0
-2247 -2952 0
-2251 -2923 0
-2252 -2924 0
-2253 -2925 0
-2254 -2701 0
-2255 -2702 0
-2256 -2703 0
-2254 -2587 0
-2255 -2588 0
-2256 -2589 0
-2257 -2452 0
-2258 -2453 0
-2259 -2454 0
-2257 -2458 0
-2258 -2459 0
-2259 -2460 0
-2260 -2833 0
-2261 -2834 0
-2262 -2835 0
-2260 -3592 0
-2261 -3593 0
-2262 -3594 0
-2263 -2404 0
-2264 -2405 0
-2265 -2406 0
-2263 -3073 0
-2264 -3074 0
-2265 -3075 0
-2263 -2410 0
-2264 -2411 0
-2265 -2412 0
-2266 -2395 0
-2267 -2396 0
-2268 -2397 0
-2266 -2962 0
-2267 -2963 0
-2268 -2964 0
-2266 -3772 0
-2267 -3773 0
-2268 -3774 0
-2266 -2407 0
-2267 -2408 0
-2268 -2409 0
-2266 -3196 0
-2267 -3197 0
-2268 -3198 0
-2269 -3061 0
-2270 -3062 0
-2271 -3063 0
-2272 -3673 0
-2273 -3674 0
-2274 -3675 0
-2281 -2440 0
-2282 -2441 0
-2283 -2442 0
-2281 -2422 0
-2282 -2423 0
-2283 -2424 0
-2287 -2437 0
-2288 -2438 0
-2289 -2439 0
-2287 -3673 0
-2288 -3674 0
-2289 -3675 0
-2287 -3223 0
-2288 -3224 0
-2289 -3225 0
-2287 -2431 0
-2288 -2432 0
-2289 -2433 0
-2290 -2452 0
-2291 -2453 0
-2292 -2454 0
-2293 -2413 0
-2294 -2414 0
-2295 -2415 0
-2296 -2350 0
-2297 -2351 0
-2298 -2352 0
-2296 -4198 0
-2297 -4199 0
-2298 -4200 0
-2296 -3358 0
-2297 -3359 0
-2298 -3360 0
-2299 -3502 0
-2300 -3503 0
-2301 -3504 0
-2302 -3901 0
-2303 -3902 0
-2304 -3903 0
-2308 -3169 0
-2309 -3170 0
-2310 -3171 0
-2308 -3172 0
-2309 -3173 0
-2310 -3174 0
-2308 -3112 0
-2309 -3113 0
-2310 -3114 0
-2311 -4009 0
-2312 -4010 0
-2313 -4011 0
-2314 -4024 0
-2315 -4025 0
-2316 -4026 0
-2317 -2593 0
-2318 -2594 0
-2319 -2595 0
-2317 -2512 0
-2318 -2513 0
-2319 -2514 0
-2317 -3112 0
-2318 -3113 0
-2319 -3114 0
-2320 -2419 0
-2321 -2420 0
-2322 -2421 0
-2320 -2461 0
-2321 -2462 0
-2322 -2463 0
-2323 -2551 0
-2324 -2552 0
-2325 -2553 0
-2323 -2344 0
-2324 -2345 0
-2325 -2346 0
-2326 -2629 0
-2327 -2630 0
-2328 -2631 0
-2329 -2398 0
-2330 -2399 0
-2331 -2400 0
-2329 -2392 0
-2330 -2393 0
-2331 -2394 0
-2332 -2644 0
-2333 -2645 0
-2334 -2646 0
-2332 -2581 0
-2333 -2582 0
-2334 -2583 0
-2335 -2923 0
-2336 -2924 0
-2337 -2925 0
-2338 -3574 0
-2339 -3575 0
-2340 -3576 0
-2338 -4009 0
-2339 -4010 0
-2340 -4011 0
-2338 -2515 0
-2339 -2516 0
-2340 -2517 0
-2338 -2626 0
-2339 -2627 0
-2340 -2628 0
-2338 -2584 0
-2339 -2585 0
-2340 -2586 0
-2338 -2698 0
-2339 -2699 0
-2340 -2700 0
-2341 -2605 0
-2342 -2606 0
-2343 -2607 0
-2344 -2596 0
-2345 -2597 0
-2346 -2598 0
-2347 -3049 0
-2348 -3050 0
-2349 -3051 0
-2347 -3028 0
-2348 -3029 0
-2349 -3030 0
-2347 -3016 0
-2348 -3017 0
-2349 -3018 0
-2347 -3022 0
-2348 -3023 0
-2349 -3024 0
-2350 -4012 0
-2351 -4013 0
-2352 -4014 0
-2353 -2683 0
-2354 -2684 0
-2355 -2685 0
-2353 -2560 0
-2354 -2561 0
-2355 -2562 0
-2356 -4087 0
-2357 -4088 0
-2358 -4089 0
-2359 -2563 0
-2360 -2564 0
-2361 -2565 0
-2362 -2707 0
-2363 -2708 0
-2364 -2709 0
-2362 -2950 0
-2363 -2951 0
-2364 -2952 0
-2365 -2938 0
-2366 -2939 0
-2367 -2940 0
-2368 -2650 0
-2369 -2651 0
-2370 -2652 0
-2371 -2455 0
-2372 -2456 0
-2373 -2457 0
-2374 -2488 0
-2375 -2489 0
-2376 -2490 0
-2377 -2710 0
-2378 -2711 0
-2379 -2712 0
-2383 -2638 0
-2384 -2639 0
-2385 -2640 0
-2383 -2962 0
-2384 -2963 0
-2385 -2964 0
-2386 -2506 0
-2387 -2507 0
-2388 -2508 0
-2386 -2704 0
-2387 -2705 0
-2388 -2706 0
-2386 -2689 0
-2387 -2690 0
-2388 -2691 0
-2386 -2674 0
-2387 -2675 0
-2388 -2676 0
-2389 -2923 0
-2390 -2924 0
-2391 -2925 0
-2389 -2815 0
-2390 -2816 0
-2391 -2817 0
-2389 -4201 0
-2390 -4202 0
-2391 -4203 0
-2392 -2632 0
-2393 -2633 0
-2394 -2634 0
-2395 -3079 0
-2396 -3080 0
-2397 -3081 0
-2395 -2665 0
-2396 -2666 0
-2397 -2667 0
-2395 -3091 0
-2396 -3092 0
-2397 -3093 0
-2395 -2590 0
-2396 -2591 0
-2397 -2592 0
-2398 -2578 0
-2399 -2579 0
-2400 -2580 0
-2398 -3475 0
-2399 -3476 0
-2400 -3477 0
-2401 -2455 0
-2402 -2456 0
-2403 -2457 0
-2401 -2485 0
-2402 -2486 0
-2403 -2487 0
-2404 -3088 0
-2405 -3089 0
-2406 -3090 0
-2404 -3121 0
-2405 -3122 0
-2406 -3123 0
-2407 -2617 0
-2408 -2618 0
-2409 -2619 0
-2407 -2602 0
-2408 -2603 0
-2409 -2604 0
-2410 -2428 0
-2411 -2429 0
-2412 -2430 0
-2410 -3838 0
-2411 -3839 0
-2412 -3840 0
-2413 -2425 0
-2414 -2426 0
-2415 -2427 0
-2416 -2434 0
-2417 -2435 0
-2418 -2436 0
-2416 -2446 0
-2417 -2447 0
-2418 -2448 0
-2419 -3271 0
-2420 -3272 0
-2421 -3273 0
-2422 -2506 0
-2423 -2507 0
-2424 -2508 0
-2425 -2839 0
-2426 -2840 0
-2427 -2841 0
-2425 -2842 0
-2426 -2843 0
-2427 -2844 0
-2428 -2479 0
-2429 -2480 0
-2430 -2481 0
-2428 -4210 0
-2429 -4211 0
-2430 -4212 0
-2431 -2464 0
-2432 -2465 0
-2433 -2466 0
-2434 -3718 0
-2435 -3719 0
-2436 -3720 0
-2434 -3268 0
-2435 -3269 0
-2436 -3270 0
-2437 -4030 0
-2438 -4031 0
-2439 -4032 0
-2440 -3079 0
-2441 -3080 0
-2442 -3081 0
-2440 -2554 0
-2441 -2555 0
-2442 -2556 0
-2440 -3091 0
-2441 -3092 0
-2442 -3093 0
-2440 -2599 0
-2441 -2600 0
-2442 -2601 0
-2443 -3286 0
-2444 -3287 0
-2445 -3288 0
-2443 -3829 0
-2444 -3830 0
-2445 -3831 0
-2455 -3655 0
-2456 -3656 0
-2457 -3657 0
-2461 -2635 0
-2462 -2636 0
-2463 -2637 0
-2464 -3604 0
-2465 -3605 0
-2466 -3606 0
-2470 -3241 0
-2471 -3242 0
-2472 -3243 0
-2473 -2656 0
-2474 -2657 0
-2475 -2658 0
-2476 -2494 0
-2477 -2495 0
-2478 -2496 0
-2476 -2491 0
-2477 -2492 0
-2478 -2493 0
-2479 -4102 0
-2480 -4103 0
-2481 -4104 0
-2479 -3535 0
-2480 -3536 0
-2481 -3537 0
-2482 -3667 0
-2483 -3668 0
-2484 -3669 0
-2485 -3418 0
-2486 -3419 0
-2487 -3420 0
-2485 -3877 0
-2486 -3878 0
-2487 -3879 0
-2488 -3670 0
-2489 -3671 0
-2490 -3672 0
-2491 -3175 0
-2492 -3176 0
-2493 -3177 0
-2491 -2497 0
-2492 -2498 0
-2493 -2499 0
-2494 -3004 0
-2495 -3005 0
-2496 -3006 0
-2497 -3535 0
-2498 -3536 0
-2499 -3537 0
-2500 -3529 0
-2501 -3530 0
-2502 -3531 0
-2503 -2692 0
-2504 -2693 0
-2505 -2694 0
-2503 -2680 0
-2504 -2681 0
-2505 -2682 0
-2509 -2974 0
-2510 -2975 0
-2511 -2976 0
-2509 -3013 0
-2510 -3014 0
-2511 -3015 0
-2509 -3019 0
-2510 -3020 0
-2511 -3021 0
-2509 -3046 0
-2510 -3047 0
-2511 -3048 0
-2512 -3001 0
-2513 -3002 0
-2514 -3003 0
-2515 -2776 0
-2516 -2777 0
-2517 -2778 0
-2515 -4036 0
-2516 -4037 0
-2517 -4038 0
-2518 -2818 0
-2519 -2819 0
-2520 -2820 0
-2521 -3850 0
-2522 -3851 0
-2523 -3852 0
-2524 -2737 0
-2525 -2738 0
-2526 -2739 0
-2524 -2740 0
-2525 -2741 0
-2526 -2742 0
-2524 -2758 0
-2525 -2759 0
-2526 -2760 0
-2524 -2812 0
-2525 -2813 0
-2526 -2814 0
-2524 -2719 0
-2525 -2720 0
-2526 -2721 0
-2524 -3523 0
-2525 -3524 0
-2526 -3525 0
-2527 -2581 0
-2528 -2582 0
-2529 -2583 0
-2527 -3184 0
-2528 -3185 0
-2529 -3186 0
-2530 -3673 0
-2531 -3674 0
-2532 -3675 0
-2533 -4162 0
-2534 -4163 0
-2535 -4164 0
-2539 -2734 0
-2540 -2735 0
-2541 -2736 0
-2539 -2872 0
-2540 -2873 0
-2541 -2874 0
-2539 -2812 0
-2540 -2813 0
-2541 -2814 0
-2542 -2863 0
-2543 -2864 0
-2544 -2865 0
-2542 -2866 0
-2543 -2867 0
-2544 -2868 0
-2542 -2734 0
-2543 -2735 0
-2544 -2736 0
-2542 -2803 0
-2543 -2804 0
-2544 -2805 0
-2542 -2836 0
-2543 -2837 0
-2544 -2838 0
-2545 -3967 0
-2546 -3968 0
-2547 -3969 0
-2554 -2962 0
-2555 -2963 0
-2556 -2964 0
-2554 -3190 0
-2555 -3191 0
-2556 -3192 0
-2557 -4189 0
-2558 -4190 0
-2559 -4191 0
-2563 -2725 0
-2564 -2726 0
-2565 -2727 0
-2566 -3889 0
-2567 -3890 0
-2568 -3891 0
-2569 -3199 0
-2570 -3200 0
-2571 -3201 0
-2575 -3211 0
-2576 -3212 0
-2577 -3213 0
-2575 -3148 0
-2576 -3149 0
-2577 -3150 0
-2575 -3151 0
-2576 -3152 0
-2577 -3153 0
-2578 -3469 0
-2579 -3470 0
-2580 -3471 0
-2581 -3721 0
-2582 -3722 0
-2583 -3723 0
-2584 -3946 0
-2585 -3947 0
-2586 -3948 0
-2584 -2755 0
-2585 -2756 0
-2586 -2757 0
-2584 -3346 0
-2585 -3347 0
-2586 -3348 0
-2587 -2980 0
-2588 -2981 0
-2589 -2982 0
-2590 -3139 0
-2591 -3140 0
-2592 -3141 0
-2590 -3073 0
-2591 -3074 0
-2592 -3075 0
-2590 -3151 0
-2591 -3152 0
-2592 -3153 0
-2593 -3034 0
-2594 -3035 0
-2595 -3036 0
-2593 -3043 0
-2594 -3044 0
-2595 -3045 0
-2593 -3067 0
-2594 -3068 0
-2595 -3069 0
-2593 -3559 0
-2594 -3560 0
-2595 -3561 0
-2596 -2968 0
-2597 -2969 0
-2598 -2970 0
-2596 -3334 0
-2597 -3335 0
-2598 -3336 0
-2596 -3250 0
-2597 -3251 0
-2598 -3252 0
-2596 -3313 0
-2597 -3314 0
-2598 -3315 0
-2596 -3361 0
-2597 -3362 0
-2598 -3363 0
-2599 -2767 0
-2600 -2768 0
-2601 -2769 0
-2602 -2956 0
-2603 -2957 0
-2604 -2958 0
-2605 -2782 0
-2606 -2783 0
-2607 -2784 0
-2605 -2764 0
-2606 -2765 0
-2607 -2766 0
-2608 -3226 0
-2609 -3227 0
-2610 -3228 0
-2608 -3187 0
-2609 -3188 0
-2610 -3189 0
-2611 -3469 0
-2612 -3470 0
-2613 -3471 0
-2614 -2722 0
-2615 -2723 0
-2616 -2724 0
-2617 -3136 0
-2618 -3137 0
-2619 -3138 0
-2617 -3145 0
-2618 -3146 0
-2619 -3147 0
-2620 -2728 0
-2621 -2729 0
-2622 -2730 0
-2620 -3217 0
-2621 -3218 0
-2622 -3219 0
-2623 -2749 0
-2624 -2750 0
-2625 -2751 0
-2623 -2713 0
-2624 -2714 0
-2625 -2715 0
-2629 -3844 0
-2630 -3845 0
-2631 -3846 0
-2638 -2995 0
-2639 -2996 0
-2640 -2997 0
-2641 -3328 0
-2642 -3329 0
-2643 -3330 0
-2641 -2731 0
-2642 -2732 0
-2643 -2733 0
-2641 -3073 0
-2642 -3074 0
-2643 -3075 0
-2644 -3583 0
-2645 -3584 0
-2646 -3585 0
-2644 -2716 0
-2645 -2717 0
-2646 -2718 0
-2644 -2791 0
-2645 -2792 0
-2646 -2793 0
-2647 -2914 0
-2648 -2915 0
-2649 -2916 0
-2647 -2908 0
-2648 -2909 0
-2649 -2910 0
-2647 -2911 0
-2648 -2912 0
-2649 -2913 0
-2650 -3451 0
-2651 -3452 0
-2652 -3453 0
-2653 -2965 0
-2654 -2966 0
-2655 -2967 0
-2653 -2890 0
-2654 -2891 0
-2655 -2892 0
-2656 -3001 0
-2657 -3002 0
-2658 -3003 0
-2659 -2794 0
-2660 -2795 0
-2661 -2796 0
-2659 -3139 0
-2660 -3140 0
-2661 -3141 0
-2659 -3601 0
-2660 -3602 0
-2661 -3603 0
-2659 -2788 0
-2660 -2789 0
-2661 -2790 0
-2662 -3274 0
-2663 -3275 0
-2664 -3276 0
-2662 -3310 0
-2663 -3311 0
-2664 -3312 0
-2665 -2788 0
-2666 -2789 0
-2667 -2790 0
-2668 -3331 0
-2669 -3332 0
-2670 -3333 0
-2668 -3376 0
-2669 -3377 0
-2670 -3378 0
-2671 -3412 0
-2672 -3413 0
-2673 -3414 0
-2671 -3514 0
-2672 -3515 0
-2673 -3516 0
-2674 -2770 0
-2675 -2771 0
-2676 -2772 0
-2677 -2773 0
-2678 -2774 0
-2679 -2775 0
-2680 -2785 0
-2681 -2786 0
-2682 -2787 0
-2686 -3997 0
-2687 -3998 0
-2688 -3999 0
-2689 -2761 0
-2690 -2762 0
-2691 -2763 0
-2689 -4111 0
-2690 -4112 0
-2691 -4113 0
-2692 -4003 0
-2693 -4004 0
-2694 -4005 0
-2695 -3457 0
-2696 -3458 0
-2697 -3459 0
-2698 -2752 0
-2699 -2753 0
-2700 -2754 0
-2698 -2743 0
-2699 -2744 0
-2700 -2745 0
-2701 -2983 0
-2702 -2984 0
-2703 -2985 0
-2704 -2779 0
-2705 -2780 0
-2706 -2781 0
-2707 -2917 0
-2708 -2918 0
-2709 -2919 0
-2710 -3103 0
-2711 -3104 0
-2712 -3105 0
-2713 -3214 0
-2714 -3215 0
-2715 -3216 0
-2716 -2878 0
-2717 -2879 0
-2718 -2880 0
-2719 -3454 0
-2720 -3455 0
-2721 -3456 0
-2722 -3064 0
-2723 -3065 0
-2724 -3066 0
-2722 -2800 0
-2723 -2801 0
-2724 -2802 0
-2722 -2851 0
-2723 -2852 0
-2724 -2853 0
-2722 -2854 0
-2723 -2855 0
-2724 -2856 0
-2722 -2860 0
-2723 -2861 0
-2724 -2862 0
-2722 -2953 0
-2723 -2954 0
-2724 -2955 0
-2722 -3703 0
-2723 -3704 0
-2724 -3705 0
-2725 -3913 0
-2726 -3914 0
-2727 -3915 0
-2728 -3661 0
-2729 -3662 0
-2730 -3663 0
-2731 -3811 0
-2732 -3812 0
-2733 -3813 0
-2737 -2824 0
-2738 -2825 0
-2739 -2826 0
-2737 -2746 0
-2738 -2747 0
-2739 -2748 0
-2740 -3424 0
-2741 -3425 0
-2742 -3426 0
-2740 -3490 0
-2741 -3491 0
-2742 -3492 0
-2743 -2830 0
-2744 -2831 0
-2745 -2832 0
-2749 -3265 0
-2750 -3266 0
-2751 -3267 0
-2749 -3187 0
-2750 -3188 0
-2751 -3189 0
-2752 -4180 0
-2753 -4181 0
-2754 -4182 0
-2755 -3163 0
-2756 -3164 0
-2757 -3165 0
-2758 -3700 0
-2759 -3701 0
-2760 -3702 0
-2764 -2815 0
-2765 -2816 0
-2766 -2817 0
-2764 -2821 0
-2765 -2822 0
-2766 -2823 0
-2767 -3847 0
-2768 -3848 0
-2769 -3849 0
-2770 -3367 0
-2771 -3368 0
-2772 -3369 0
-2770 -3355 0
-2771 -3356 0
-2772 -3357 0
-2773 -3178 0
-2774 -3179 0
-2775 -3180 0
-2776 -4180 0
-2777 -4181 0
-2778 -4182 0
-2776 -2857 0
-2777 -2858 0
-2778 -2859 0
-2779 -3316 0
-2780 -3317 0
-2781 -3318 0
-2785 -3280 0
-2786 -3281 0
-2787 -3282 0
-2791 -3277 0
-2792 -3278 0
-2793 -3279 0
-2791 -3184 0
-2792 -3185 0
-2793 -3186 0
-2794 -3337 0
-2795 -3338 0
-2796 -3339 0
-2797 -3238 0
-2798 -3239 0
-2799 -3240 0
-2797 -3205 0
-2798 -3206 0
-2799 -3207 0
-2800 -4063 0
-2801 -4064 0
-2802 -4065 0
-2800 -3277 0
-2801 -3278 0
-2802 -3279 0
-2806 -2881 0
-2807 -2882 0
-2808 -2883 0
-2806 -3646 0
-2807 -3647 0
-2808 -3648 0
-2806 -2893 0
-2807 -2894 0
-2808 -2895 0
-2809 -4033 0
-2810 -4034 0
-2811 -4035 0
-2812 -2899 0
-2813 -2900 0
-2814 -2901 0
-2815 -4066 0
-2816 -4067 0
-2817 -4068 0
-2818 -4033 0
-2819 -4034 0
-2820 -4035 0
-2818 -2890 0
-2819 -2891 0
-2820 -2892 0
-2824 -4063 0
-2825 -4064 0
-2826 -4065 0
-2824 -2875 0
-2825 -2876 0
-2826 -2877 0
-2827 -3298 0
-2828 -3299 0
-2829 -3300 0
-2827 -2929 0
-2828 -2930 0
-2829 -2931 0
-2827 -3907 0
-2828 -3908 0
-2829 -3909 0
-2827 -4153 0
-2828 -4154 0
-2829 -4155 0
-2827 -3928 0
-2828 -3929 0
-2829 -3930 0
-2827 -4003 0
-2828 -4004 0
-2829 -4005 0
-2830 -3040 0
-2831 -3041 0
-2832 -3042 0
-2830 -3007 0
-2831 -3008 0
-2832 -3009 0
-2830 -2989 0
-2831 -2990 0
-2832 -2991 0
-2833 -3586 0
-2834 -3587 0
-2835 -3588 0
-2836 -3550 0
-2837 -3551 0
-2838 -3552 0
-2836 -3688 0
-2837 -3689 0
-2838 -3690 0
-2836 -3490 0
-2837 -3491 0
-2838 -3492 0
-2839 -2998 0
-2840 -2999 0
-2841 -3000 0
-2839 -4135 0
-2840 -4136 0
-2841 -4137 0
-2842 -4153 0
-2843 -4154 0
-2844 -4155 0
-2842 -2887 0
-2843 -2888 0
-2844 -2889 0
-2845 -3628 0
-2846 -3629 0
-2847 -3630 0
-2845 -3907 0
-2846 -3908 0
-2847 -3909 0
-2848 -3103 0
-2849 -3104 0
-2850 -3105 0
-2848 -3118 0
-2849 -3119 0
-2850 -3120 0
-2851 -2875 0
-2852 -2876 0
-2853 -2877 0
-2854 -2878 0
-2855 -2879 0
-2856 -2880 0
-2857 -2905 0
-2858 -2906 0
-2859 -2907 0
-2860 -3646 0
-2861 -3647 0
-2862 -3648 0
-2866 -2932 0
-2867 -2933 0
-2868 -2934 0
-2869 -2947 0
-2870 -2948 0
-2871 -2949 0
-2869 -2935 0
-2870 -2936 0
-2871 -2937 0
-2881 -2899 0
-2882 -2900 0
-2883 -2901 0
-2881 -2983 0
-2882 -2984 0
-2883 -2985 0
-2884 -3628 0
-2885 -3629 0
-2886 -3630 0
-2884 -2896 0
-2885 -2897 0
-2886 -2898 0
-2884 -4153 0
-2885 -4154 0
-2886 -4155 0
-2887 -2926 0
-2888 -2927 0
-2889 -2928 0
-2887 -2971 0
-2888 -2972 0
-2889 -2973 0
-2887 -2941 0
-2888 -2942 0
-2889 -2943 0
-2890 -3562 0
-2891 -3563 0
-2892 -3564 0
-2893 -3427 0
-2894 -3428 0
-2895 -3429 0
-2902 -2914 0
-2903 -2915 0
-2904 -2916 0
-2905 -3352 0
-2906 -3353 0
-2907 -3354 0
-2911 -3430 0
-2912 -3431 0
-2913 -3432 0
-2914 -3862 0
-2915 -3863 0
-2916 -3864 0
-2917 -3676 0
-2918 -3677 0
-2919 -3678 0
-2917 -2950 0
-2918 -2951 0
-2919 -2952 0
-2920 -3841 0
-2921 -3842 0
-2922 -3843 0
-2920 -2953 0
-2921 -2954 0
-2922 -2955 0
-2923 -3085 0
-2924 -3086 0
-2925 -3087 0
-2926 -2995 0
-2927 -2996 0
-2928 -2997 0
-2929 -4132 0
-2930 -4133 0
-2931 -4134 0
-2929 -2962 0
-2930 -2963 0
-2931 -2964 0
-2929 -2950 0
-2930 -2951 0
-2931 -2952 0
-2929 -3382 0
-2930 -3383 0
-2931 -3384 0
-2929 -3625 0
-2930 -3626 0
-2931 -3627 0
-2932 -2986 0
-2933 -2987 0
-2934 -2988 0
-2932 -3076 0
-2933 -3077 0
-2934 -3078 0
-2935 -2977 0
-2936 -2978 0
-2937 -2979 0
-2935 -3700 0
-2936 -3701 0
-2937 -3702 0
-2935 -3052 0
-2936 -3053 0
-2937 -3054 0
-2938 -4189 0
-2939 -4190 0
-2940 -4191 0
-2941 -3031 0
-2942 -3032 0
-2943 -3033 0
-2941 -3070 0
-2942 -3071 0
-2943 -3072 0
-2944 -3637 0
-2945 -3638 0
-2946 -3639 0
-2947 -3637 0
-2948 -3638 0
-2949 -3639 0
-2950 -3142 0
-2951 -3143 0
-2952 -3144 0
-2956 -3058 0
-2957 -3059 0
-2958 -3060 0
-2959 -3517 0
-2960 -3518 0
-2961 -3519 0
-2959 -3562 0
-2960 -3563 0
-2961 -3564 0
-2962 -3091 0
-2963 -3092 0
-2964 -3093 0
-2965 -3448 0
-2966 -3449 0
-2967 -3450 0
-2968 -3574 0
-2969 -3575 0
-2970 -3576 0
-2968 -3388 0
-2969 -3389 0
-2970 -3390 0
-2971 -2992 0
-2972 -2993 0
-2973 -2994 0
-2971 -2998 0
-2972 -2999 0
-2973 -3000 0
-2971 -3055 0
-2972 -3056 0
-2973 -3057 0
-2974 -3061 0
-2975 -3062 0
-2976 -3063 0
-2977 -3439 0
-2978 -3440 0
-2979 -3441 0
-2977 -3895 0
-2978 -3896 0
-2979 -3897 0
-2980 -3817 0
-2981 -3818 0
-2982 -3819 0
-2980 -3826 0
-2981 -3827 0
-2982 -3828 0
-2986 -3583 0
-2987 -3584 0
-2988 -3585 0
-2986 -3424 0
-2987 -3425 0
-2988 -3426 0
-2986 -3454 0
-2987 -3455 0
-2988 -3456 0
-2992 -3676 0
-2993 -3677 0
-2994 -3678 0
-2992 -3307 0
-2993 -3308 0
-2994 -3309 0
-3004 -3529 0
-3005 -3530 0
-3006 -3531 0
-3007 -3652 0
-3008 -3653 0
-3009 -3654 0
-3010 -3133 0
-3011 -3134 0
-3012 -3135 0
-3013 -3298 0
-3014 -3299 0
-3015 -3300 0
-3013 -3427 0
-3014 -3428 0
-3015 -3429 0
-3016 -3340 0
-3017 -3341 0
-3018 -3342 0
-3019 -3727 0
-3020 -3728 0
-3021 -3729 0
-3022 -3343 0
-3023 -3344 0
-3024 -3345 0
-3025 -3028 0
-3026 -3029 0
-3027 -3030 0
-3031 -4192 0
-3032 -4193 0
-3033 -4194 0
-3034 -3751 0
-3035 -3752 0
-3036 -3753 0
-3037 -3229 0
-3038 -3230 0
-3039 -3231 0
-3040 -3283 0
-3041 -3284 0
-3042 -3285 0
-3040 -3436 0
-3041 -3437 0
-3042 -3438 0
-3046 -3064 0
-3047 -3065 0
-3048 -3066 0
-3046 -3739 0
-3047 -3740 0
-3048 -3741 0
-3049 -3364 0
-3050 -3365 0
-3051 -3366 0
-3052 -3778 0
-3053 -3779 0
-3054 -3780 0
-3055 -3382 0
-3056 -3383 0
-3057 -3384 0
-3058 -3904 0
-3059 -3905 0
-3060 -3906 0
-3058 -3160 0
-3059 -3161 0
-3060 -3162 0
-3061 -3439 0
-3062 -3440 0
-3063 -3441 0
-3067 -3931 0
-3068 -3932 0
-3069 -3933 0
-3070 -3568 0
-3071 -3569 0
-3072 -3570 0
-3073 -3088 0
-3074 -3089 0
-3075 -3090 0
-3073 -3094 0
-3074 -3095 0
-3075 -3096 0
-3073 -3292 0
-3074 -3293 0
-3075 -3294 0
-3076 -3424 0
-3077 -3425 0
-3078 -3426 0
-3079 -3133 0
-3080 -3134 0
-3081 -3135 0
-3079 -3136 0
-3080 -3137 0
-3081 -3138 0
-3079 -3148 0
-3080 -3149 0
-3081 -3150 0
-3082 -3115 0
-3083 -3116 0
-3084 -3117 0
-3082 -3118 0
-3083 -3119 0
-3084 -3120 0
-3088 -3154 0
-3089 -3155 0
-3090 -3156 0
-3088 -3112 0
-3089 -3113 0
-3090 -3114 0
-3091 -3127 0
-3092 -3128 0
-3093 -3129 0
-3091 -3124 0
-3092 -3125 0
-3093 -3126 0
-3094 -3112 0
-3095 -3113 0
-3096 -3114 0
-3097 -3130 0
-3098 -3131 0
-3099 -3132 0
-3106 -3481 0
-3107 -3482 0
-3108 -3483 0
-3109 -3346 0
-3110 -3347 0
-3111 -3348 0
-3109 -3190 0
-3110 -3191 0
-3111 -3192 0
-3112 -3787 0
-3113 -3788 0
-3114 -3789 0
-3115 -4126 0
-3116 -4127 0
-3117 -4128 0
-3115 -4135 0
-3116 -4136 0
-3117 -4137 0
-3121 -4114 0
-3122 -4115 0
-3123 -4116 0
-3124 -4129 0
-3125 -4130 0
-3126 -4131 0
-3127 -3577 0
-3128 -3578 0
-3129 -3579 0
-3127 -3547 0
-3128 -3548 0
-3129 -3549 0
-3139 -3247 0
-3140 -3248 0
-3141 -3249 0
-3142 -3295 0
-3143 -3296 0
-3144 -3297 0
-3142 -4132 0
-3143 -4133 0
-3144 -4134 0
-3145 -3334 0
-3146 -3335 0
-3147 -3336 0
-3145 -3880 0
-3146 -3881 0
-3147 -3882 0
-3151 -3247 0
-3152 -3248 0
-3153 -3249 0
-3151 -3292 0
-3152 -3293 0
-3153 -3294 0
-3157 -3256 0
-3158 -3257 0
-3159 -3258 0
-3157 -3259 0
-3158 -3260 0
-3159 -3261 0
-3157 -3181 0
-3158 -3182 0
-3159 -3183 0
-3160 -3880 0
-3161 -3881 0
-3162 -3882 0
-3163 -3640 0
-3164 -3641 0
-3165 -3642 0
-3166 -3505 0
-3167 -3506 0
-3168 -3507 0
-3166 -3520 0
-3167 -3521 0
-3168 -3522 0
-3169 -3253 0
-3170 -3254 0
-3171 -3255 0
-3172 -3319 0
-3173 -3320 0
-3174 -3321 0
-3172 -3961 0
-3173 -3962 0
-3174 -3963 0
-3172 -3520 0
-3173 -3521 0
-3174 -3522 0
-3175 -3460 0
-3176 -3461 0
-3177 -3462 0
-3178 -3373 0
-3179 -3374 0
-3180 -3375 0
-3178 -3229 0
-3179 -3230 0
-3180 -3231 0
-3181 -3709 0
-3182 -3710 0
-3183 -3711 0
-3181 -3679 0
-3182 -3680 0
-3183 -3681 0
-3202 -3967 0
-3203 -3968 0
-3204 -3969 0
-3205 -3907 0
-3206 -3908 0
-3207 -3909 0
-3208 -3976 0
-3209 -3977 0
-3210 -3978 0
-3211 -3253 0
-3212 -3254 0
-3213 -3255 0
-3211 -3913 0
-3212 -3914 0
-3213 -3915 0
-3220 -3349 0
-3221 -3350 0
-3222 -3351 0
-3223 -3397 0
-3224 -3398 0
-3225 -3399 0
-3229 -4210 0
-3230 -4211 0
-3231 -4212 0
-3238 -3649 0
-3239 -3650 0
-3240 -3651 0
-3244 -3910 0
-3245 -3911 0
-3246 -3912 0
-3250 -3910 0
-3251 -3911 0
-3252 -3912 0
-3256 -3931 0
-3257 -3932 0
-3258 -3933 0
-3262 -3760 0
-3263 -3761 0
-3264 -3762 0
-3265 -3475 0
-3266 -3476 0
-3267 -3477 0
-3271 -3472 0
-3272 -3473 0
-3273 -3474 0
-3274 -3736 0
-3275 -3737 0
-3276 -3738 0
-3274 -3493 0
-3275 -3494 0
-3276 -3495 0
-3280 -3754 0
-3281 -3755 0
-3282 -3756 0
-3280 -3733 0
-3281 -3734 0
-3282 -3735 0
-3283 -4171 0
-3284 -4172 0
-3285 -4173 0
-3283 -3811 0
-3284 -3812 0
-3285 -3813 0
-3286 -3421 0
-3287 -3422 0
-3288 -3423 0
-3289 -3313 0
-3290 -3314 0
-3291 -3315 0
-3289 -3325 0
-3290 -3326 0
-3291 -3327 0
-3292 -3859 0
-3293 -3860 0
-3294 -3861 0
-3292 -3328 0
-3293 -3329 0
-3294 -3330 0
-3295 -3406 0
-3296 -3407 0
-3297 -3408 0
-3295 -3613 0
-3296 -3614 0
-3297 -3615 0
-3298 -3607 0
-3299 -3608 0
-3300 -3609 0
-3298 -3610 0
-3299 -3611 0
-3300 -3612 0
-3301 -3403 0
-3302 -3404 0
-3303 -3405 0
-3304 -3781 0
-3305 -3782 0
-3306 -3783 0
-3304 -3415 0
-3305 -3416 0
-3306 -3417 0
-3304 -3589 0
-3305 -3590 0
-3306 -3591 0
-3307 -3616 0
-3308 -3617 0
-3309 -3618 0
-3307 -3451 0
-3308 -3452 0
-3309 -3453 0
-3310 -3766 0
-3311 -3767 0
-3312 -3768 0
-3313 -3388 0
-3314 -3389 0
-3315 -3390 0
-3313 -3394 0
-3314 -3395 0
-3315 -3396 0
-3316 -3337 0
-3317 -3338 0
-3318 -3339 0
-3319 -3763 0
-3320 -3764 0
-3321 -3765 0
-3319 -3919 0
-3320 -3920 0
-3321 -3921 0
-3319 -3640 0
-3320 -3641 0
-3321 -3642 0
-3322 -3559 0
-3323 -3560 0
-3324 -3561 0
-3331 -3976 0
-3332 -3977 0
-3333 -3978 0
-3334 -3574 0
-3335 -3575 0
-3336 -3576 0
-3337 -3712 0
-3338 -3713 0
-3339 -3714 0
-3340 -3715 0
-3341 -3716 0
-3342 -3717 0
-3343 -3829 0
-3344 -3830 0
-3345 -3831 0
-3346 -3574 0
-3347 -3575 0
-3348 -3576 0
-3346 -3478 0
-3347 -3479 0
-3348 -3480 0
-3352 -3403 0
-3353 -3404 0
-3354 -3405 0
-3352 -3793 0
-3353 -3794 0
-3354 -3795 0
-3355 -3748 0
-3356 -3749 0
-3357 -3750 0
-3361 -4006 0
-3362 -4007 0
-3363 -4008 0
-3364 -3493 0
-3365 -3494 0
-3366 -3495 0
-3367 -4177 0
-3368 -4178 0
-3369 -4179 0
-3370 -3946 0
-3371 -3947 0
-3372 -3948 0
-3370 -3793 0
-3371 -3794 0
-3372 -3795 0
-3373 -4129 0
-3374 -4130 0
-3375 -4131 0
-3376 -4120 0
-3377 -4121 0
-3378 -4122 0
-3379 -3820 0
-3380 -3821 0
-3381 -3822 0
-3379 -3865 0
-3380 -3866 0
-3381 -3867 0
-3379 -4198 0
-3380 -4199 0
-3381 -4200 0
-3382 -4108 0
-3383 -4109 0
-3384 -4110 0
-3391 -3436 0
-3392 -3437 0
-3393 -3438 0
-3394 -3634 0
-3395 -3635 0
-3396 -3636 0
-3397 -3448 0
-3398 -3449 0
-3399 -3450 0
-3400 -3784 0
-3401 -3785 0
-3402 -3786 0
-3412 -3832 0
-3413 -3833 0
-3414 -3834 0
-3415 -3691 0
-3416 -3692 0
-3417 -3693 0
-3436 -3682 0
-3437 -3683 0
-3438 -3684 0
-3454 -3646 0
-3455 -3647 0
-3456 -3648 0
-3454 -3889 0
-3455 -3890 0
-3456 -3891 0
-3466 -4153 0
-3467 -4154 0
-3468 -4155 0
-3472 -3856 0
-3473 -3857 0
-3474 -3858 0
-3481 -4123 0
-3482 -4124 0
-3483 -4125 0
-3484 -3784 0
-3485 -3785 0
-3486 -3786 0
-3490 -4102 0
-3491 -4103 0
-3492 -4104 0
-3496 -3856 0
-3497 -3857 0
-3498 -3858 0
-3505 -3640 0
-3506 -3641 0
-3507 -3642 0
-3511 -3661 0
-3512 -3662 0
-3513 -3663 0
-3517 -3613 0
-3518 -3614 0
-3519 -3615 0
-3517 -3886 0
-3518 -3887 0
-3519 -3888 0
-3523 -3580 0
-3524 -3581 0
-3525 -3582 0
-3523 -3643 0
-3524 -3644 0
-3525 -3645 0
-3526 -3790 0
-3527 -3791 0
-3528 -3792 0
-3541 -4096 0
-3542 -4097 0
-3543 -4098 0
-3544 -3925 0
-3545 -3926 0
-3546 -3927 0
-3544 -3979 0
-3545 -3980 0
-3546 -3981 0
-3547 -3658 0
-3548 -3659 0
-3549 -3660 0
-3547 -3625 0
-3548 -3626 0
-3549 -3627 0
-3550 -3988 0
-3551 -3989 0
-3552 -3990 0
-3550 -3925 0
-3551 -3926 0
-3552 -3927 0
-3553 -3634 0
-3554 -3635 0
-3555 -3636 0
-3553 -4042 0
-3554 -4043 0
-3555 -4044 0
-3553 -3973 0
-3554 -3974 0
-3555 -3975 0
-3556 -4123 0
-3557 -4124 0
-3558 -4125 0
-3559 -3745 0
-3560 -3746 0
-3561 -3747 0
-3559 -3682 0
-3560 -3683 0
-3561 -3684 0
-3565 -3874 0
-3566 -3875 0
-3567 -3876 0
-3568 -3685 0
-3569 -3686 0
-3570 -3687 0
-3571 -4033 0
-3572 -4034 0
-3573 -4035 0
-3574 -4204 0
-3575 -4205 0
-3576 -4206 0
-3577 -3871 0
-3578 -3872 0
-3579 -3873 0
-3577 -4021 0
-3578 -4022 0
-3579 -4023 0
-3586 -3724 0
-3587 -3725 0
-3588 -3726 0
-3589 -3886 0
-3590 -3887 0
-3591 -3888 0
-3592 -4186 0
-3593 -4187 0
-3594 -4188 0
-3595 -3802 0
-3596 -3803 0
-3597 -3804 0
-3601 -3658 0
-3602 -3659 0
-3603 -3660 0
-3604 -3730 0
-3605 -3731 0
-3606 -3732 0
-3607 -4015 0
-3608 -4016 0
-3609 -4017 0
-3607 -3883 0
-3608 -3884 0
-3609 -3885 0
-3610 -3742 0
-3611 -3743 0
-3612 -3744 0
-3616 -3775 0
-3617 -3776 0
-3618 -3777 0
-3628 -3970 0
-3629 -3971 0
-3630 -3972 0
-3631 -3847 0
-3632 -3848 0
-3633 -3849 0
-3631 -3823 0
-3632 -3824 0
-3633 -3825 0
-3634 -3916 0
-3635 -3917 0
-3636 -3918 0
-3637 -3979 0
-3638 -3980 0
-3639 -3981 0
-3664 -3775 0
-3665 -3776 0
-3666 -3777 0
-3664 -3715 0
-3665 -3716 0
-3666 -3717 0
-3682 -3748 0
-3683 -3749 0
-3684 -3750 0
-3688 -3850 0
-3689 -3851 0
-3690 -3852 0
-3691 -4033 0
-3692 -4034 0
-3693 -4035 0
-3703 -3853 0
-3704 -3854 0
-3705 -3855 0
-3712 -4090 0
-3713 -4091 0
-3714 -4092 0
-3727 -3895 0
-3728 -3896 0
-3729 -3897 0
-3730 -3832 0
-3731 -3833 0
-3732 -3834 0
-3733 -4018 0
-3734 -4019 0
-3735 -4020 0
-3736 -3994 0
-3737 -3995 0
-3738 -3996 0
-3739 -3817 0
-3740 -3818 0
-3741 -3819 0
-3745 -4174 0
-3746 -4175 0
-3747 -4176 0
-3748 -4075 0
-3749 -4076 0
-3750 -4077 0
-3751 -4177 0
-3752 -4178 0
-3753 -4179 0
-3754 -3970 0
-3755 -3971 0
-3756 -3972 0
-3754 -4027 0
-3755 -4028 0
-3756 -4029 0
-3757 -3826 0
-3758 -3827 0
-3759 -3828 0
-3757 -3778 0
-3758 -3779 0
-3759 -3780 0
-3760 -3901 0
-3761 -3902 0
-3762 -3903 0
-3760 -3982 0
-3761 -3983 0
-3762 -3984 0
-3763 -4156 0
-3764 -4157 0
-3765 -4158 0
-3772 -3922 0
-3773 -3923 0
-3774 -3924 0
-3772 -4075 0
-3773 -4076 0
-3774 -4077 0
-3799 -4009 0
-3800 -4010 0
-3801 -4011 0
-3820 -4078 0
-3821 -4079 0
-3822 -4080 0
-3823 -4009 0
-3824 -4010 0
-3825 -4011 0
-3838 -4081 0
-3839 -4082 0
-3840 -4083 0
-3841 -4147 0
-3842 -4148 0
-3843 -4149 0
-3841 -4150 0
-3842 -4151 0
-3843 -4152 0
-3841 -4108 0
-3842 -4109 0
-3843 -4110 0
-3844 -3997 0
-3845 -3998 0
-3846 -3999 0
-3850 -4084 0
-3851 -4085 0
-3852 -4086 0
-3850 -4045 0
-3851 -4046 0
-3852 -4047 0
-3850 -4129 0
-3851 -4130 0
-3852 -4131 0
-3862 -3994 0
-3863 -3995 0
-3864 -3996 0
-3868 -3892 0
-3869 -3893 0
-3870 -3894 0
-3871 -4039 0
-3872 -4040 0
-3873 -4041 0
-3871 -3973 0
-3872 -3974 0
-3873 -3975 0
-3874 -4126 0
-3875 -4127 0
-3876 -4128 0
-3874 -4135 0
-3875 -4136 0
-3876 -4137 0
-3877 -4087 0
-3878 -4088 0
-3879 -4089 0
-3877 -4159 0
-3878 -4160 0
-3879 -4161 0
-3880 -3910 0
-3881 -3911 0
-3882 -3912 0
-3892 -4105 0
-3893 -4106 0
-3894 -4107 0
-3898 -3904 0
-3899 -3905 0
-3900 -3906 0
-3898 -3910 0
-3899 -3911 0
-3900 -3912 0
-3898 -3991 0
-3899 -3992 0
-3900 -3993 0
-3919 -4207 0
-3920 -4208 0
-3921 -4209 0
-3937 -4192 0
-3938 -4193 0
-3939 -4194 0
-3940 -4066 0
-3941 -4067 0
-3942 -4068 0
-3943 -4009 0
-3944 -4010 0
-3945 -4011 0
-3949 -4072 0
-3950 -4073 0
-3951 -4074 0
-3976 -4102 0
-3977 -4103 0
-3978 -4104 0
-3988 -4084 0
-3989 -4085 0
-3990 -4086 0
-4003 -4018 0
-4004 -4019 0
-4005 -4020 0
-4006 -4090 0
-4007 -4091 0
-4008 -4092 0
-4012 -4093 0
-4013 -4094 0
-4014 -4095 0
-4015 -4039 0
-4016 -4040 0
-4017 -4041 0
-4021 -4036 0
-4022 -4037 0
-4023 -4038 0
-4054 -4174 0
-4055 -4175 0
-4056 -4176 0
-4054 -4183 0
-4055 -4184 0
-4056 -4185 0
-4096 -4138 0
-4097 -4139 0
-4098 -4140 0
-4096 -4156 0
-4097 -4157 0
-4098 -4158 0
-4099 -4165 0
-4100 -4166 0
-4101 -4167 0
-4102 -4210 0
-4103 -4211 0
-4104 -4212 0
-4105 -4168 0
-4106 -4169 0
-4107 -4170 0
-4117 -4171 0
-4118 -4172 0
-4119 -4173 0
-4117 -4138 0
-4118 -4139 0
-4119 -4140 0
-4126 -4195 0
-4127 -4196 0
-4128 -4197 0
-4132 -4153 0
-4133 -4154 0
-4134 -4155 0
-4165 -4171 0
-4166 -4172 0
-4167 -4173 0
-4192 -4201 0
-4193 -4202 0
-4194 -4203 0
1 0
2927 0
