p cnf 1539 4214
1 2 3 0
4 5 6 0
7 8 9 0
10 11 12 0
13 14 15 0
16 17 18 0
19 20 21 0
22 23 24 0
25 26 27 0
28 29 30 0
31 32 33 0
34 35 36 0
37 38 39 0
40 41 42 0
43 44 45 0
46 47 48 0
49 50 51 0
52 53 54 0
55 56 57 0
58 59 60 0
61 62 63 0
64 65 66 0
67 68 69 0
70 71 72 0
73 74 75 0
76 77 78 0
79 80 81 0
82 83 84 0
85 86 87 0
88 89 90 0
91 92 93 0
94 95 96 0
97 98 99 0
100 101 102 0
103 104 105 0
106 107 108 0
109 110 111 0
112 113 114 0
115 116 117 0
118 119 120 0
121 122 123 0
124 125 126 0
127 128 129 0
130 131 132 0
133 134 135 0
136 137 138 0
139 140 141 0
142 143 144 0
145 146 147 0
148 149 150 0
151 152 153 0
154 155 156 0
157 158 159 0
160 161 162 0
163 164 165 0
166 167 168 0
169 170 171 0
172 173 174 0
175 176 177 0
178 179 180 0
181 182 183 0
184 185 186 0
187 188 189 0
190 191 192 0
193 194 195 0
196 197 198 0
199 200 201 0
202 203 204 0
205 206 207 0
208 209 210 0
211 212 213 0
214 215 216 0
217 218 219 0
220 221 222 0
223 224 225 0
226 227 228 0
229 230 231 0
232 233 234 0
235 236 237 0
238 239 240 0
241 242 243 0
244 245 246 0
247 248 249 0
250 251 252 0
253 254 255 0
256 257 258 0
259 260 261 0
262 263 264 0
265 266 267 0
268 269 270 0
271 272 273 0
274 275 276 0
277 278 279 0
280 281 282 0
283 284 285 0
286 287 288 0
289 290 291 0
292 293 294 0
295 296 297 0
298 299 300 0
301 302 303 0
304 305 306 0
307 308 309 0
310 311 312 0
313 314 315 0
316 317 318 0
319 320 321 0
322 323 324 0
325 326 327 0
328 329 330 0
331 332 333 0
334 335 336 0
337 338 339 0
340 341 342 0
343 344 345 0
346 347 348 0
349 350 351 0
352 353 354 0
355 356 357 0
358 359 360 0
361 362 363 0
364 365 366 0
367 368 369 0
370 371 372 0
373 374 375 0
376 377 378 0
379 380 381 0
382 383 384 0
385 386 387 0
388 389 390 0
391 392 393 0
394 395 396 0
397 398 399 0
400 401 402 0
403 404 405 0
406 407 408 0
409 410 411 0
412 413 414 0
415 416 417 0
418 419 420 0
421 422 423 0
424 425 426 0
427 428 429 0
430 431 432 0
433 434 435 0
436 437 438 0
439 440 441 0
442 443 444 0
445 446 447 0
448 449 450 0
451 452 453 0
454 455 456 0
457 458 459 0
460 461 462 0
463 464 465 0
466 467 468 0
469 470 471 0
472 473 474 0
475 476 477 0
478 479 480 0
481 482 483 0
484 485 486 0
487 488 489 0
490 491 492 0
493 494 495 0
496 497 498 0
499 500 501 0
502 503 504 0
505 506 507 0
508 509 510 0
511 512 513 0
514 515 516 0
517 518 519 0
520 521 522 0
523 524 525 0
526 527 528 0
529 530 531 0
532 533 534 0
535 536 537 0
538 539 540 0
541 542 543 0
544 545 546 0
547 548 549 0
550 551 552 0
553 554 555 0
556 557 558 0
559 560 561 0
562 563 564 0
565 566 567 0
568 569 570 0
571 572 573 0
574 575 576 0
577 578 579 0
580 581 582 0
583 584 585 0
586 587 588 0
589 590 591 0
592 593 594 0
595 596 597 0
598 599 600 0
601 602 603 0
604 605 606 0
607 608 609 0
610 611 612 0
613 614 615 0
616 617 618 0
619 620 621 0
622 623 624 0
625 626 627 0
628 629 630 0
631 632 633 0
634 635 636 0
637 638 639 0
640 641 642 0
643 644 645 0
646 647 648 0
649 650 651 0
652 653 654 0
655 656 657 0
658 659 660 0
661 662 663 0
664 665 666 0
667 668 669 0
670 671 672 0
673 674 675 0
676 677 678 0
679 680 681 0
682 683 684 0
685 686 687 0
688 689 690 0
691 692 693 0
694 695 696 0
697 698 699 0
700 701 702 0
703 704 705 0
706 707 708 0
709 710 711 0
712 713 714 0
715 716 717 0
718 719 720 0
721 722 723 0
724 725 726 0
727 728 729 0
730 731 732 0
733 734 735 0
736 737 738 0
739 740 741 0
742 743 744 0
745 746 747 0
748 749 750 0
751 752 753 0
754 755 756 0
757 758 759 0
760 761 762 0
763 764 765 0
766 767 768 0
769 770 771 0
772 773 774 0
775 776 777 0
778 779 780 0
781 782 783 0
784 785 786 0
787 788 789 0
790 791 792 0
793 794 795 0
796 797 798 0
799 800 801 0
802 803 804 0
805 806 807 0
808 809 810 0
811 812 813 0
814 815 816 0
817 818 819 0
820 821 822 0
823 824 825 0
826 827 828 0
829 830 831 0
832 833 834 0
835 836 837 0
838 839 840 0
841 842 843 0
844 845 846 0
847 848 849 0
850 851 852 0
853 854 855 0
856 857 858 0
859 860 861 0
862 863 864 0
865 866 867 0
868 869 870 0
871 872 873 0
874 875 876 0
877 878 879 0
880 881 882 0
883 884 885 0
886 887 888 0
889 890 891 0
892 893 894 0
895 896 897 0
898 899 900 0
901 902 903 0
904 905 906 0
907 908 909 0
910 911 912 0
913 914 915 0
916 917 918 0
919 920 921 0
922 923 924 0
925 926 927 0
928 929 930 0
931 932 933 0
934 935 936 0
937 938 939 0
940 941 942 0
943 944 945 0
946 947 948 0
949 950 951 0
952 953 954 0
955 956 957 0
958 959 960 0
961 962 963 0
964 965 966 0
967 968 969 0
970 971 972 0
973 974 975 0
976 977 978 0
979 980 981 0
982 983 984 0
985 986 987 0
988 989 990 0
991 992 993 0
994 995 996 0
997 998 999 0
1000 1001 1002 0
1003 1004 1005 0
1006 1007 1008 0
1009 1010 1011 0
1012 1013 1014 0
1015 1016 1017 0
1018 1019 1020 0
1021 1022 1023 0
1024 1025 1026 0
1027 1028 1029 0
1030 1031 1032 0
1033 1034 1035 0
1036 1037 1038 0
1039 1040 1041 0
1042 1043 1044 0
1045 1046 1047 0
1048 1049 1050 0
1051 1052 1053 0
1054 1055 1056 0
1057 1058 1059 0
1060 1061 1062 0
1063 1064 1065 0
1066 1067 1068 0
1069 1070 1071 0
1072 1073 1074 0
1075 1076 1077 0
1078 1079 1080 0
1081 1082 1083 0
1084 1085 1086 0
1087 1088 1089 0
1090 1091 1092 0
1093 1094 1095 0
1096 1097 1098 0
1099 1100 1101 0
1102 1103 1104 0
1105 1106 1107 0
1108 1109 1110 0
1111 1112 1113 0
1114 1115 1116 0
1117 1118 1119 0
1120 1121 1122 0
1123 1124 1125 0
1126 1127 1128 0
1129 1130 1131 0
1132 1133 1134 0
1135 1136 1137 0
1138 1139 1140 0
1141 1142 1143 0
1144 1145 1146 0
1147 1148 1149 0
1150 1151 1152 0
1153 1154 1155 0
1156 1157 1158 0
1159 1160 1161 0
1162 1163 1164 0
1165 1166 1167 0
1168 1169 1170 0
1171 1172 1173 0
1174 1175 1176 0
1177 1178 1179 0
1180 1181 1182 0
1183 1184 1185 0
1186 1187 1188 0
1189 1190 1191 0
1192 1193 1194 0
1195 1196 1197 0
1198 1199 1200 0
1201 1202 1203 0
1204 1205 1206 0
1207 1208 1209 0
1210 1211 1212 0
1213 1214 1215 0
1216 1217 1218 0
1219 1220 1221 0
1222 1223 1224 0
1225 1226 1227 0
1228 1229 1230 0
1231 1232 1233 0
1234 1235 1236 0
1237 1238 1239 0
1240 1241 1242 0
1243 1244 1245 0
1246 1247 1248 0
1249 1250 1251 0
1252 1253 1254 0
1255 1256 1257 0
1258 1259 1260 0
1261 1262 1263 0
1264 1265 1266 0
1267 1268 1269 0
1270 1271 1272 0
1273 1274 1275 0
1276 1277 1278 0
1279 1280 1281 0
1282 1283 1284 0
1285 1286 1287 0
1288 1289 1290 0
1291 1292 1293 0
1294 1295 1296 0
1297 1298 1299 0
1300 1301 1302 0
1303 1304 1305 0
1306 1307 1308 0
1309 1310 1311 0
1312 1313 1314 0
1315 1316 1317 0
1318 1319 1320 0
1321 1322 1323 0
1324 1325 1326 0
1327 1328 1329 0
1330 1331 1332 0
1333 1334 1335 0
1336 1337 1338 0
1339 1340 1341 0
1342 1343 1344 0
1345 1346 1347 0
1348 1349 1350 0
1351 1352 1353 0
1354 1355 1356 0
1357 1358 1359 0
1360 1361 1362 0
1363 1364 1365 0
1366 1367 1368 0
1369 1370 1371 0
1372 1373 1374 0
1375 1376 1377 0
1378 1379 1380 0
1381 1382 1383 0
1384 1385 1386 0
1387 1388 1389 0
1390 1391 1392 0
1393 1394 1395 0
1396 1397 1398 0
1399 1400 1401 0
1402 1403 1404 0
1405 1406 1407 0
1408 1409 1410 0
1411 1412 1413 0
1414 1415 1416 0
1417 1418 1419 0
1420 1421 1422 0
1423 1424 1425 0
1426 1427 1428 0
1429 1430 1431 0
1432 1433 1434 0
1435 1436 1437 0
1438 1439 1440 0
1441 1442 1443 0
1444 1445 1446 0
1447 1448 1449 0
1450 1451 1452 0
1453 1454 1455 0
1456 1457 1458 0
1459 1460 1461 0
1462 1463 1464 0
1465 1466 1467 0
1468 1469 1470 0
1471 1472 1473 0
1474 1475 1476 0
1477 1478 1479 0
1480 1481 1482 0
1483 1484 1485 0
1486 1487 1488 0
1489 1490 1491 0
1492 1493 1494 0
1495 1496 1497 0
1498 1499 1500 0
1501 1502 1503 0
1504 1505 1506 0
1507 1508 1509 0
1510 1511 1512 0
1513 1514 1515 0
1516 1517 1518 0
1519 1520 1521 0
1522 1523 1524 0
1525 1526 1527 0
1528 1529 1530 0
1531 1532 1533 0
1534 1535 1536 0
1537 1538 1539 0
-1 -946 0
-2 -947 0
-3 -948 0
-1 -982 0
-2 -983 0
-3 -984 0
-1 -874 0
-2 -875 0
-3 -876 0
-1 -799 0
-2 -800 0
-3 -801 0
-1 -118 0
-2 -119 0
-3 -120 0
-1 -970 0
-2 -971 0
-3 -972 0
-1 -811 0
-2 -812 0
-3 -813 0
-4 -943 0
-5 -944 0
-6 -945 0
-4 -136 0
-5 -137 0
-6 -138 0
-4 -859 0
-5 -860 0
-6 -861 0
-7 -127 0
-8 -128 0
-9 -129 0
-7 -961 0
-8 -962 0
-9 -963 0
-7 -142 0
-8 -143 0
-9 -144 0
-7 -973 0
-8 -974 0
-9 -975 0
-10 -946 0
-11 -947 0
-12 -948 0
-10 -1081 0
-11 -1082 0
-12 -1083 0
-10 -121 0
-11 -122 0
-12 -123 0
-10 -148 0
-11 -149 0
-12 -150 0
-13 -151 0
-14 -152 0
-15 -153 0
-13 -730 0
-14 -731 0
-15 -732 0
-13 -880 0
-14 -881 0
-15 -882 0
-13 -883 0
-14 -884 0
-15 -885 0
-13 -136 0
-14 -137 0
-15 -138 0
-13 -892 0
-14 -893 0
-15 -894 0
-16 -730 0
-17 -731 0
-18 -732 0
-16 -160 0
-17 -161 0
-18 -162 0
-16 -1456 0
-17 -1457 0
-18 -1458 0
-16 -130 0
-17 -131 0
-18 -132 0
-16 -859 0
-17 -860 0
-18 -861 0
-19 -982 0
-20 -983 0
-21 -984 0
-19 -808 0
-20 -809 0
-21 -810 0
-19 -148 0
-20 -149 0
-21 -150 0
-22 -1399 0
-23 -1400 0
-24 -1401 0
-22 -985 0
-23 -986 0
-24 -987 0
-22 -118 0
-23 -119 0
-24 -120 0
-22 -196 0
-23 -197 0
-24 -198 0
-25 -130 0
-26 -131 0
-27 -132 0
-25 -862 0
-26 -863 0
-27 -864 0
-25 -193 0
-26 -194 0
-27 -195 0
-28 -190 0
-29 -191 0
-30 -192 0
-28 -196 0
-29 -197 0
-30 -198 0
-28 -130 0
-29 -131 0
-30 -132 0
-28 -133 0
-29 -134 0
-30 -135 0
-28 -31 0
-29 -32 0
-30 -33 0
-31 -193 0
-32 -194 0
-33 -195 0
-31 -199 0
-32 -200 0
-33 -201 0
-31 -136 0
-32 -137 0
-33 -138 0
-34 -979 0
-35 -980 0
-36 -981 0
-34 -151 0
-35 -152 0
-36 -153 0
-34 -880 0
-35 -881 0
-36 -882 0
-34 -967 0
-35 -968 0
-36 -969 0
-34 -196 0
-35 -197 0
-36 -198 0
-34 -766 0
-35 -767 0
-36 -768 0
-37 -1078 0
-38 -1079 0
-39 -1080 0
-37 -277 0
-38 -278 0
-39 -279 0
-37 -118 0
-38 -119 0
-39 -120 0
-37 -748 0
-38 -749 0
-39 -750 0
-37 -751 0
-38 -752 0
-39 -753 0
-37 -895 0
-38 -896 0
-39 -897 0
-40 -1210 0
-41 -1211 0
-42 -1212 0
-40 -193 0
-41 -194 0
-42 -195 0
-40 -871 0
-41 -872 0
-42 -873 0
-43 -76 0
-44 -77 0
-45 -78 0
-43 -280 0
-44 -281 0
-45 -282 0
-43 -1414 0
-44 -1415 0
-45 -1416 0
-43 -871 0
-44 -872 0
-45 -873 0
-43 -193 0
-44 -194 0
-45 -195 0
-43 -196 0
-44 -197 0
-45 -198 0
-43 -1387 0
-44 -1388 0
-45 -1389 0
-43 -1066 0
-44 -1067 0
-45 -1068 0
-43 -1069 0
-44 -1070 0
-45 -1071 0
-46 -73 0
-47 -74 0
-48 -75 0
-46 -79 0
-47 -80 0
-48 -81 0
-46 -787 0
-47 -788 0
-48 -789 0
-46 -790 0
-47 -791 0
-48 -792 0
-49 -118 0
-50 -119 0
-51 -120 0
-49 -283 0
-50 -284 0
-51 -285 0
-49 -754 0
-50 -755 0
-51 -756 0
-49 -757 0
-50 -758 0
-51 -759 0
-49 -1099 0
-50 -1100 0
-51 -1101 0
-52 -130 0
-53 -131 0
-54 -132 0
-52 -919 0
-53 -920 0
-54 -921 0
-52 -289 0
-53 -290 0
-54 -291 0
-52 -1276 0
-53 -1277 0
-54 -1278 0
-55 -1228 0
-56 -1229 0
-57 -1230 0
-55 -127 0
-56 -128 0
-57 -129 0
-55 -961 0
-56 -962 0
-57 -963 0
-55 -1240 0
-56 -1241 0
-57 -1242 0
-58 -964 0
-59 -965 0
-60 -966 0
-58 -1234 0
-59 -1235 0
-60 -1236 0
-58 -1240 0
-59 -1241 0
-60 -1242 0
-58 -139 0
-59 -140 0
-60 -141 0
-58 -289 0
-59 -290 0
-60 -291 0
-58 -1276 0
-59 -1277 0
-60 -1278 0
-61 -943 0
-62 -944 0
-63 -945 0
-61 -151 0
-62 -152 0
-63 -153 0
-61 -283 0
-62 -284 0
-63 -285 0
-64 -178 0
-65 -179 0
-66 -180 0
-64 -1381 0
-65 -1382 0
-66 -1383 0
-64 -1444 0
-65 -1445 0
-66 -1446 0
-64 -1354 0
-65 -1355 0
-66 -1356 0
-64 -229 0
-65 -230 0
-66 -231 0
-67 -178 0
-68 -179 0
-69 -180 0
-67 -1339 0
-68 -1340 0
-69 -1341 0
-67 -1435 0
-68 -1436 0
-69 -1437 0
-67 -1174 0
-68 -1175 0
-69 -1176 0
-67 -238 0
-68 -239 0
-69 -240 0
-70 -1216 0
-71 -1217 0
-72 -1218 0
-70 -298 0
-71 -299 0
-72 -300 0
-70 -136 0
-71 -137 0
-72 -138 0
-73 -1078 0
-74 -1079 0
-75 -1080 0
-73 -118 0
-74 -119 0
-75 -120 0
-73 -952 0
-74 -953 0
-75 -954 0
-76 -118 0
-77 -119 0
-78 -120 0
-76 -256 0
-77 -257 0
-78 -258 0
-79 -118 0
-80 -119 0
-81 -120 0
-79 -997 0
-80 -998 0
-81 -999 0
-79 -1099 0
-80 -1100 0
-81 -1101 0
-82 -151 0
-83 -152 0
-84 -153 0
-82 -298 0
-83 -299 0
-84 -300 0
-82 -1102 0
-83 -1103 0
-84 -1104 0
-82 -967 0
-83 -968 0
-84 -969 0
-85 -298 0
-86 -299 0
-87 -300 0
-85 -160 0
-86 -161 0
-87 -162 0
-85 -1480 0
-86 -1481 0
-87 -1482 0
-88 -151 0
-89 -152 0
-90 -153 0
-88 -304 0
-89 -305 0
-90 -306 0
-88 -892 0
-89 -893 0
-90 -894 0
-91 -1381 0
-92 -1382 0
-93 -1383 0
-91 -1282 0
-92 -1283 0
-93 -1284 0
-91 -229 0
-92 -230 0
-93 -231 0
-94 -1144 0
-95 -1145 0
-96 -1146 0
-94 -244 0
-95 -245 0
-96 -246 0
-94 -991 0
-95 -992 0
-96 -993 0
-94 -1141 0
-95 -1142 0
-96 -1143 0
-94 -241 0
-95 -242 0
-96 -243 0
-97 -160 0
-98 -161 0
-99 -162 0
-97 -349 0
-98 -350 0
-99 -351 0
-97 -1447 0
-98 -1448 0
-99 -1449 0
-100 -298 0
-101 -299 0
-102 -300 0
-100 -1348 0
-101 -1349 0
-102 -1350 0
-100 -1243 0
-101 -1244 0
-102 -1245 0
-100 -1357 0
-101 -1358 0
-102 -1359 0
-103 -304 0
-104 -305 0
-105 -306 0
-103 -1525 0
-104 -1526 0
-105 -1527 0
-103 -1177 0
-104 -1178 0
-105 -1179 0
-103 -1180 0
-104 -1181 0
-105 -1182 0
-106 -274 0
-107 -275 0
-108 -276 0
-106 -1351 0
-107 -1352 0
-108 -1353 0
-106 -229 0
-107 -230 0
-108 -231 0
-109 -1348 0
-110 -1349 0
-111 -1350 0
-109 -967 0
-110 -968 0
-111 -969 0
-109 -994 0
-110 -995 0
-111 -996 0
-109 -196 0
-110 -197 0
-111 -198 0
-109 -1432 0
-110 -1433 0
-111 -1434 0
-109 -1297 0
-110 -1298 0
-111 -1299 0
-109 -949 0
-110 -950 0
-111 -951 0
-109 -1303 0
-110 -1304 0
-111 -1305 0
-109 -1153 0
-110 -1154 0
-111 -1155 0
-109 -298 0
-110 -299 0
-111 -300 0
-109 -826 0
-110 -827 0
-111 -828 0
-112 -304 0
-113 -305 0
-114 -306 0
-112 -1279 0
-113 -1280 0
-114 -1281 0
-112 -1525 0
-113 -1526 0
-114 -1527 0
-112 -1111 0
-113 -1112 0
-114 -1113 0
-112 -193 0
-113 -194 0
-114 -195 0
-112 -1168 0
-113 -1169 0
-114 -1170 0
-112 -1387 0
-113 -1388 0
-114 -1389 0
-112 -1318 0
-113 -1319 0
-114 -1320 0
-112 -856 0
-113 -857 0
-114 -858 0
-112 -1063 0
-113 -1064 0
-114 -1065 0
-115 -427 0
-116 -428 0
-117 -429 0
-115 -118 0
-116 -119 0
-117 -120 0
-115 -1006 0
-116 -1007 0
-117 -1008 0
-115 -1096 0
-116 -1097 0
-117 -1098 0
-115 -1072 0
-116 -1073 0
-117 -1074 0
-118 -430 0
-119 -431 0
-120 -432 0
-118 -400 0
-119 -401 0
-120 -402 0
-118 -310 0
-119 -311 0
-120 -312 0
-118 -313 0
-119 -314 0
-120 -315 0
-118 -379 0
-119 -380 0
-120 -381 0
-118 -382 0
-119 -383 0
-120 -384 0
-121 -430 0
-122 -431 0
-123 -432 0
-121 -391 0
-122 -392 0
-123 -393 0
-124 -1228 0
-125 -1229 0
-126 -1230 0
-124 -427 0
-125 -428 0
-126 -429 0
-124 -127 0
-125 -128 0
-126 -129 0
-124 -415 0
-125 -416 0
-126 -417 0
-127 -430 0
-128 -431 0
-129 -432 0
-130 -430 0
-131 -431 0
-132 -432 0
-130 -385 0
-131 -386 0
-132 -387 0
-130 -247 0
-131 -248 0
-132 -249 0
-130 -418 0
-131 -419 0
-132 -420 0
-133 -427 0
-134 -428 0
-135 -429 0
-133 -436 0
-134 -437 0
-135 -438 0
-133 -136 0
-134 -137 0
-135 -138 0
-133 -1096 0
-134 -1097 0
-135 -1098 0
-136 -430 0
-137 -431 0
-138 -432 0
-136 -439 0
-137 -440 0
-138 -441 0
-136 -388 0
-137 -389 0
-138 -390 0
-139 -430 0
-140 -431 0
-141 -432 0
-139 -328 0
-140 -329 0
-141 -330 0
-142 -430 0
-143 -431 0
-144 -432 0
-142 -331 0
-143 -332 0
-144 -333 0
-142 -334 0
-143 -335 0
-144 -336 0
-142 -337 0
-143 -338 0
-144 -339 0
-145 -913 0
-146 -914 0
-147 -915 0
-145 -916 0
-146 -917 0
-147 -918 0
-145 -349 0
-146 -350 0
-147 -351 0
-145 -196 0
-146 -197 0
-147 -198 0
-148 -430 0
-149 -431 0
-150 -432 0
-148 -463 0
-149 -464 0
-150 -465 0
-148 -187 0
-149 -188 0
-150 -189 0
-148 -376 0
-149 -377 0
-150 -378 0
-148 -457 0
-149 -458 0
-150 -459 0
-148 -250 0
-149 -251 0
-150 -252 0
-151 -430 0
-152 -431 0
-153 -432 0
-151 -154 0
-152 -155 0
-153 -156 0
-154 -1108 0
-155 -1109 0
-156 -1110 0
-154 -433 0
-155 -434 0
-156 -435 0
-154 -766 0
-155 -767 0
-156 -768 0
-154 -769 0
-155 -770 0
-156 -771 0
-154 -883 0
-155 -884 0
-156 -885 0
-157 -427 0
-158 -428 0
-159 -429 0
-157 -1309 0
-158 -1310 0
-159 -1311 0
-157 -934 0
-158 -935 0
-159 -936 0
-157 -160 0
-158 -161 0
-159 -162 0
-157 -742 0
-158 -743 0
-159 -744 0
-157 -760 0
-158 -761 0
-159 -762 0
-160 -430 0
-161 -431 0
-162 -432 0
-160 -259 0
-161 -260 0
-162 -261 0
-160 -460 0
-161 -461 0
-162 -462 0
-163 -1192 0
-164 -1193 0
-165 -1194 0
-163 -274 0
-164 -275 0
-165 -276 0
-163 -832 0
-164 -833 0
-165 -834 0
-163 -268 0
-164 -269 0
-165 -270 0
-163 -835 0
-164 -836 0
-165 -837 0
-163 -1207 0
-164 -1208 0
-165 -1209 0
-163 -1165 0
-164 -1166 0
-165 -1167 0
-163 -1105 0
-164 -1106 0
-165 -1107 0
-166 -274 0
-167 -275 0
-168 -276 0
-166 -1351 0
-167 -1352 0
-168 -1353 0
-166 -1165 0
-167 -1166 0
-168 -1167 0
-169 -289 0
-170 -290 0
-171 -291 0
-169 -1372 0
-170 -1373 0
-171 -1374 0
-169 -817 0
-170 -818 0
-171 -819 0
-172 -814 0
-173 -815 0
-174 -816 0
-172 -820 0
-173 -821 0
-174 -822 0
-172 -1396 0
-173 -1397 0
-174 -1398 0
-175 -178 0
-176 -179 0
-177 -180 0
-175 -793 0
-176 -794 0
-177 -795 0
-175 -1435 0
-176 -1436 0
-177 -1437 0
-175 -1282 0
-176 -1283 0
-177 -1284 0
-175 -406 0
-176 -407 0
-177 -408 0
-178 -430 0
-179 -431 0
-180 -432 0
-178 -181 0
-179 -182 0
-180 -183 0
-178 -520 0
-179 -521 0
-180 -522 0
-181 -1519 0
-182 -1520 0
-183 -1521 0
-181 -448 0
-182 -449 0
-183 -450 0
-181 -1351 0
-182 -1352 0
-183 -1353 0
-181 -1471 0
-182 -1472 0
-183 -1473 0
-184 -1018 0
-185 -1019 0
-186 -1020 0
-184 -922 0
-185 -923 0
-186 -924 0
-184 -1231 0
-185 -1232 0
-186 -1233 0
-184 -193 0
-185 -194 0
-186 -195 0
-184 -1060 0
-185 -1061 0
-186 -1062 0
-184 -412 0
-185 -413 0
-186 -414 0
-187 -1147 0
-188 -1148 0
-189 -1149 0
-187 -1129 0
-188 -1130 0
-189 -1131 0
-187 -1087 0
-188 -1088 0
-189 -1089 0
-187 -1195 0
-188 -1196 0
-189 -1197 0
-187 -1066 0
-188 -1067 0
-189 -1068 0
-187 -505 0
-188 -506 0
-189 -507 0
-190 -427 0
-191 -428 0
-192 -429 0
-190 -742 0
-191 -743 0
-192 -744 0
-190 -763 0
-191 -764 0
-192 -765 0
-190 -193 0
-191 -194 0
-192 -195 0
-190 -418 0
-191 -419 0
-192 -420 0
-190 -955 0
-191 -956 0
-192 -957 0
-190 -856 0
-191 -857 0
-192 -858 0
-193 -430 0
-194 -431 0
-195 -432 0
-193 -535 0
-194 -536 0
-195 -537 0
-193 -358 0
-194 -359 0
-195 -360 0
-193 -205 0
-194 -206 0
-195 -207 0
-193 -307 0
-194 -308 0
-195 -309 0
-193 -523 0
-194 -524 0
-195 -525 0
-193 -253 0
-194 -254 0
-195 -255 0
-193 -421 0
-194 -422 0
-195 -423 0
-196 -430 0
-197 -431 0
-198 -432 0
-196 -436 0
-197 -437 0
-198 -438 0
-196 -538 0
-197 -539 0
-198 -540 0
-196 -286 0
-197 -287 0
-198 -288 0
-196 -199 0
-197 -200 0
-198 -201 0
-196 -454 0
-197 -455 0
-198 -456 0
-196 -316 0
-197 -317 0
-198 -318 0
-196 -256 0
-197 -257 0
-198 -258 0
-199 -433 0
-200 -434 0
-201 -435 0
-199 -766 0
-200 -767 0
-201 -768 0
-199 -439 0
-200 -440 0
-201 -441 0
-199 -772 0
-200 -773 0
-201 -774 0
-199 -1135 0
-200 -1136 0
-201 -1137 0
-202 -517 0
-203 -518 0
-204 -519 0
-202 -1042 0
-203 -1043 0
-204 -1044 0
-202 -1069 0
-203 -1070 0
-204 -1071 0
-205 -1018 0
-206 -1019 0
-207 -1020 0
-205 -1246 0
-206 -1247 0
-207 -1248 0
-205 -448 0
-206 -449 0
-207 -450 0
-208 -289 0
-209 -290 0
-210 -291 0
-208 -346 0
-209 -347 0
-210 -348 0
-208 -1372 0
-209 -1373 0
-210 -1374 0
-211 -427 0
-212 -428 0
-213 -429 0
-211 -214 0
-212 -215 0
-213 -216 0
-211 -1492 0
-212 -1493 0
-213 -1494 0
-214 -430 0
-215 -431 0
-216 -432 0
-214 -220 0
-215 -221 0
-216 -222 0
-214 -493 0
-215 -494 0
-216 -495 0
-214 -424 0
-215 -425 0
-216 -426 0
-217 -427 0
-218 -428 0
-219 -429 0
-217 -1333 0
-218 -1334 0
-219 -1335 0
-217 -223 0
-218 -224 0
-219 -225 0
-217 -799 0
-218 -800 0
-219 -801 0
-217 -811 0
-218 -812 0
-219 -813 0
-220 -433 0
-221 -434 0
-222 -435 0
-220 -970 0
-221 -971 0
-222 -972 0
-223 -430 0
-224 -431 0
-225 -432 0
-223 -226 0
-224 -227 0
-225 -228 0
-226 -433 0
-227 -434 0
-228 -435 0
-226 -1396 0
-227 -1397 0
-228 -1398 0
-229 -430 0
-230 -431 0
-231 -432 0
-229 -235 0
-230 -236 0
-231 -237 0
-229 -403 0
-230 -404 0
-231 -405 0
-229 -322 0
-230 -323 0
-231 -324 0
-232 -1519 0
-233 -1520 0
-234 -1521 0
-232 -1435 0
-233 -1436 0
-234 -1437 0
-232 -1471 0
-233 -1472 0
-234 -1473 0
-232 -238 0
-233 -239 0
-234 -240 0
-232 -406 0
-233 -407 0
-234 -408 0
-235 -448 0
-236 -449 0
-237 -450 0
-235 -793 0
-236 -794 0
-237 -795 0
-235 -1282 0
-236 -1283 0
-237 -1284 0
-238 -430 0
-239 -431 0
-240 -432 0
-238 -496 0
-239 -497 0
-240 -498 0
-238 -451 0
-239 -452 0
-240 -453 0
-238 -319 0
-239 -320 0
-240 -321 0
-241 -325 0
-242 -326 0
-243 -327 0
-241 -430 0
-242 -431 0
-243 -432 0
-241 -478 0
-242 -479 0
-243 -480 0
-244 -430 0
-245 -431 0
-246 -432 0
-244 -487 0
-245 -488 0
-246 -489 0
-247 -1255 0
-248 -1256 0
-249 -1257 0
-247 -1495 0
-248 -1496 0
-249 -1497 0
-250 -805 0
-251 -806 0
-252 -807 0
-250 -808 0
-251 -809 0
-252 -810 0
-253 -310 0
-254 -311 0
-255 -312 0
-253 -583 0
-254 -584 0
-255 -585 0
-253 -508 0
-254 -509 0
-255 -510 0
-256 -313 0
-257 -314 0
-258 -315 0
-256 -1399 0
-257 -1400 0
-258 -1401 0
-256 -589 0
-257 -590 0
-258 -591 0
-256 -514 0
-257 -515 0
-258 -516 0
-259 -556 0
-260 -557 0
-261 -558 0
-259 -1456 0
-260 -1457 0
-261 -1458 0
-259 -934 0
-260 -935 0
-261 -936 0
-262 -547 0
-263 -548 0
-264 -549 0
-262 -1300 0
-263 -1301 0
-264 -1302 0
-262 -1321 0
-263 -1322 0
-264 -1323 0
-265 -805 0
-266 -806 0
-267 -807 0
-265 -1315 0
-266 -1316 0
-267 -1317 0
-265 -802 0
-266 -803 0
-267 -804 0
-265 -808 0
-266 -809 0
-267 -810 0
-265 -1492 0
-266 -1493 0
-267 -1494 0
-268 -430 0
-269 -431 0
-270 -432 0
-268 -364 0
-269 -365 0
-270 -366 0
-271 -1192 0
-272 -1193 0
-273 -1194 0
-271 -274 0
-272 -275 0
-273 -276 0
-271 -1282 0
-272 -1283 0
-273 -1284 0
-271 -406 0
-272 -407 0
-273 -408 0
-274 -430 0
-275 -431 0
-276 -432 0
-274 -361 0
-275 -362 0
-276 -363 0
-274 -490 0
-275 -491 0
-276 -492 0
-277 -430 0
-278 -431 0
-279 -432 0
-277 -532 0
-278 -533 0
-279 -534 0
-277 -592 0
-278 -593 0
-279 -594 0
-277 -370 0
-278 -371 0
-279 -372 0
-280 -913 0
-281 -914 0
-282 -915 0
-280 -535 0
-281 -536 0
-282 -537 0
-280 -538 0
-281 -539 0
-282 -540 0
-280 -1213 0
-281 -1214 0
-282 -1215 0
-280 -844 0
-281 -845 0
-282 -846 0
-280 -847 0
-281 -848 0
-282 -849 0
-280 -733 0
-281 -734 0
-282 -735 0
-280 -349 0
-281 -350 0
-282 -351 0
-280 -736 0
-281 -737 0
-282 -738 0
-280 -940 0
-281 -941 0
-282 -942 0
-280 -1030 0
-281 -1031 0
-282 -1032 0
-283 -430 0
-284 -431 0
-285 -432 0
-283 -352 0
-284 -353 0
-285 -354 0
-283 -367 0
-284 -368 0
-285 -369 0
-283 -580 0
-284 -581 0
-285 -582 0
-286 -541 0
-287 -542 0
-288 -543 0
-286 -886 0
-287 -887 0
-288 -888 0
-286 -1138 0
-287 -1139 0
-288 -1140 0
-289 -430 0
-290 -431 0
-291 -432 0
-289 -499 0
-290 -500 0
-291 -501 0
-289 -295 0
-290 -296 0
-291 -297 0
-292 -1228 0
-293 -1229 0
-294 -1230 0
-292 -427 0
-293 -428 0
-294 -429 0
-292 -1393 0
-293 -1394 0
-294 -1395 0
-292 -1396 0
-293 -1397 0
-294 -1398 0
-295 -1234 0
-296 -1235 0
-297 -1236 0
-295 -433 0
-296 -434 0
-297 -435 0
-295 -1249 0
-296 -1250 0
-297 -1251 0
-295 -1378 0
-296 -1379 0
-297 -1380 0
-295 -1222 0
-296 -1223 0
-297 -1224 0
-298 -430 0
-299 -431 0
-300 -432 0
-298 -526 0
-299 -527 0
-300 -528 0
-298 -481 0
-299 -482 0
-300 -483 0
-298 -301 0
-299 -302 0
-300 -303 0
-301 -448 0
-302 -449 0
-303 -450 0
-301 -928 0
-302 -929 0
-303 -930 0
-301 -1075 0
-302 -1076 0
-303 -1077 0
-304 -430 0
-305 -431 0
-306 -432 0
-304 -529 0
-305 -530 0
-306 -531 0
-304 -484 0
-305 -485 0
-306 -486 0
-304 -565 0
-305 -566 0
-306 -567 0
-307 -1246 0
-308 -1247 0
-309 -1248 0
-307 -556 0
-308 -557 0
-309 -558 0
-307 -850 0
-308 -851 0
-309 -852 0
-307 -775 0
-308 -776 0
-309 -777 0
-310 -562 0
-311 -563 0
-312 -564 0
-310 -748 0
-311 -749 0
-312 -750 0
-310 -754 0
-311 -755 0
-312 -756 0
-310 -619 0
-311 -620 0
-312 -621 0
-310 -1072 0
-311 -1073 0
-312 -1074 0
-313 -865 0
-314 -866 0
-315 -867 0
-313 -562 0
-314 -563 0
-315 -564 0
-313 -751 0
-314 -752 0
-315 -753 0
-313 -757 0
-314 -758 0
-315 -759 0
-313 -874 0
-314 -875 0
-315 -876 0
-313 -1534 0
-314 -1535 0
-315 -1536 0
-313 -1132 0
-314 -1133 0
-315 -1134 0
-313 -985 0
-314 -986 0
-315 -987 0
-313 -622 0
-314 -623 0
-315 -624 0
-316 -916 0
-317 -917 0
-318 -918 0
-316 -979 0
-317 -980 0
-318 -981 0
-316 -781 0
-317 -782 0
-318 -783 0
-319 -1369 0
-320 -1370 0
-321 -1371 0
-319 -541 0
-320 -542 0
-321 -543 0
-319 -1174 0
-320 -1175 0
-321 -1176 0
-319 -1138 0
-320 -1139 0
-321 -1140 0
-319 -1015 0
-320 -1016 0
-321 -1017 0
-319 -1345 0
-320 -1346 0
-321 -1347 0
-322 -1261 0
-323 -1262 0
-324 -1263 0
-322 -1516 0
-323 -1517 0
-324 -1518 0
-322 -547 0
-323 -548 0
-324 -549 0
-322 -1306 0
-323 -1307 0
-324 -1308 0
-322 -1354 0
-323 -1355 0
-324 -1356 0
-325 -1144 0
-326 -1145 0
-327 -1146 0
-325 -541 0
-326 -542 0
-327 -543 0
-325 -1039 0
-326 -1040 0
-327 -1041 0
-325 -937 0
-326 -938 0
-327 -939 0
-325 -904 0
-326 -905 0
-327 -906 0
-328 -619 0
-329 -620 0
-330 -621 0
-328 -1240 0
-329 -1241 0
-330 -1242 0
-331 -1417 0
-332 -1418 0
-333 -1419 0
-331 -1174 0
-332 -1175 0
-333 -1176 0
-331 -1015 0
-332 -1016 0
-333 -1017 0
-331 -619 0
-332 -620 0
-333 -621 0
-334 -1261 0
-335 -1262 0
-336 -1263 0
-334 -1510 0
-335 -1511 0
-336 -1512 0
-334 -1417 0
-335 -1418 0
-336 -1419 0
-334 -622 0
-335 -623 0
-336 -624 0
-334 -1354 0
-335 -1355 0
-336 -1356 0
-337 -631 0
-338 -632 0
-339 -633 0
-337 -1261 0
-338 -1262 0
-339 -1263 0
-337 -1138 0
-338 -1139 0
-339 -1140 0
-337 -1015 0
-338 -1016 0
-339 -1017 0
-337 -973 0
-338 -974 0
-339 -975 0
-337 -976 0
-338 -977 0
-339 -978 0
-340 -427 0
-341 -428 0
-342 -429 0
-340 -1249 0
-341 -1250 0
-342 -1251 0
-340 -817 0
-341 -818 0
-342 -819 0
-340 -346 0
-341 -347 0
-342 -348 0
-343 -433 0
-344 -434 0
-345 -435 0
-343 -820 0
-344 -821 0
-345 -822 0
-343 -1315 0
-344 -1316 0
-345 -1317 0
-343 -1393 0
-344 -1394 0
-345 -1395 0
-343 -1396 0
-344 -1397 0
-345 -1398 0
-346 -430 0
-347 -431 0
-348 -432 0
-349 -430 0
-350 -431 0
-351 -432 0
-349 -583 0
-350 -584 0
-351 -585 0
-349 -469 0
-350 -470 0
-351 -471 0
-349 -502 0
-350 -503 0
-351 -504 0
-349 -511 0
-350 -512 0
-351 -513 0
-352 -1159 0
-353 -1160 0
-354 -1161 0
-352 -847 0
-353 -848 0
-354 -849 0
-352 -736 0
-353 -737 0
-354 -738 0
-352 -514 0
-353 -515 0
-354 -516 0
-355 -541 0
-356 -542 0
-357 -543 0
-355 -898 0
-356 -899 0
-357 -900 0
-355 -1465 0
-356 -1466 0
-357 -1467 0
-355 -1003 0
-356 -1004 0
-357 -1005 0
-358 -1120 0
-359 -1121 0
-360 -1122 0
-358 -922 0
-359 -923 0
-360 -924 0
-358 -1111 0
-359 -1112 0
-360 -1113 0
-358 -1210 0
-359 -1211 0
-360 -1212 0
-358 -595 0
-359 -596 0
-360 -597 0
-361 -925 0
-362 -926 0
-363 -927 0
-361 -1105 0
-362 -1106 0
-363 -1107 0
-361 -541 0
-362 -542 0
-363 -543 0
-361 -889 0
-362 -890 0
-363 -891 0
-361 -1039 0
-362 -1040 0
-363 -1041 0
-364 -1018 0
-365 -1019 0
-366 -1020 0
-364 -922 0
-365 -923 0
-366 -924 0
-364 -832 0
-365 -833 0
-366 -834 0
-364 -547 0
-365 -548 0
-366 -549 0
-367 -541 0
-368 -542 0
-369 -543 0
-367 -898 0
-368 -899 0
-369 -900 0
-370 -547 0
-371 -548 0
-372 -549 0
-370 -907 0
-371 -908 0
-372 -909 0
-373 -802 0
-374 -803 0
-375 -804 0
-373 -1270 0
-374 -1271 0
-375 -1272 0
-373 -1264 0
-374 -1265 0
-375 -1266 0
-376 -946 0
-377 -947 0
-378 -948 0
-376 -982 0
-377 -983 0
-378 -984 0
-376 -640 0
-377 -641 0
-378 -642 0
-376 -1264 0
-377 -1265 0
-378 -1266 0
-379 -658 0
-380 -659 0
-381 -660 0
-379 -1237 0
-380 -1238 0
-381 -1239 0
-379 -952 0
-380 -953 0
-381 -954 0
-382 -1081 0
-383 -1082 0
-384 -1083 0
-382 -997 0
-383 -998 0
-384 -999 0
-382 -661 0
-383 -662 0
-384 -663 0
-382 -946 0
-383 -947 0
-384 -948 0
-385 -1255 0
-386 -1256 0
-387 -1257 0
-385 -646 0
-386 -647 0
-387 -648 0
-388 -739 0
-389 -740 0
-390 -741 0
-388 -646 0
-389 -647 0
-390 -648 0
-391 -814 0
-392 -815 0
-393 -816 0
-391 -661 0
-392 -662 0
-393 -663 0
-394 -1390 0
-395 -1391 0
-396 -1392 0
-394 -619 0
-395 -620 0
-396 -621 0
-394 -1174 0
-395 -1175 0
-396 -1176 0
-394 -1321 0
-395 -1322 0
-396 -1323 0
-394 -1312 0
-395 -1313 0
-396 -1314 0
-397 -622 0
-398 -623 0
-399 -624 0
-397 -1423 0
-398 -1424 0
-399 -1425 0
-397 -1354 0
-398 -1355 0
-399 -1356 0
-400 -670 0
-401 -671 0
-402 -672 0
-400 -982 0
-401 -983 0
-402 -984 0
-403 -1306 0
-404 -1307 0
-405 -1308 0
-403 -598 0
-404 -599 0
-405 -600 0
-403 -1444 0
-404 -1445 0
-405 -1446 0
-403 -1342 0
-404 -1343 0
-405 -1344 0
-403 -1408 0
-404 -1409 0
-405 -1410 0
-406 -430 0
-407 -431 0
-408 -432 0
-406 -571 0
-407 -572 0
-408 -573 0
-406 -409 0
-407 -410 0
-408 -411 0
-409 -1000 0
-410 -1001 0
-411 -1002 0
-409 -1039 0
-410 -1040 0
-411 -1041 0
-409 -1093 0
-410 -1094 0
-411 -1095 0
-409 -937 0
-410 -938 0
-411 -939 0
-409 -442 0
-410 -443 0
-411 -444 0
-412 -430 0
-413 -431 0
-414 -432 0
-412 -445 0
-413 -446 0
-414 -447 0
-412 -610 0
-413 -611 0
-414 -612 0
-412 -655 0
-413 -656 0
-414 -657 0
-415 -919 0
-416 -920 0
-417 -921 0
-415 -664 0
-416 -665 0
-417 -666 0
-415 -796 0
-416 -797 0
-417 -798 0
-418 -919 0
-419 -920 0
-420 -921 0
-418 -730 0
-419 -731 0
-420 -732 0
-418 -739 0
-419 -740 0
-420 -741 0
-418 -1495 0
-419 -1496 0
-420 -1497 0
-418 -796 0
-419 -797 0
-420 -798 0
-418 -616 0
-419 -617 0
-420 -618 0
-418 -421 0
-419 -422 0
-420 -423 0
-418 -862 0
-419 -863 0
-420 -864 0
-421 -1045 0
-422 -1046 0
-423 -1047 0
-421 -1231 0
-422 -1232 0
-423 -1233 0
-421 -745 0
-422 -746 0
-423 -747 0
-421 -1183 0
-422 -1184 0
-423 -1185 0
-421 -667 0
-422 -668 0
-423 -669 0
-421 -619 0
-422 -620 0
-423 -621 0
-424 -607 0
-425 -608 0
-426 -609 0
-424 -1267 0
-425 -1268 0
-426 -1269 0
-424 -1270 0
-425 -1271 0
-426 -1272 0
-427 -430 0
-428 -431 0
-429 -432 0
-427 -637 0
-428 -638 0
-429 -639 0
-427 -550 0
-428 -551 0
-429 -552 0
-427 -616 0
-428 -617 0
-429 -618 0
-427 -652 0
-428 -653 0
-429 -654 0
-427 -664 0
-428 -665 0
-429 -666 0
-427 -604 0
-428 -605 0
-429 -606 0
-430 -433 0
-431 -434 0
-432 -435 0
-430 -670 0
-431 -671 0
-432 -672 0
-430 -442 0
-431 -443 0
-432 -444 0
-430 -640 0
-431 -641 0
-432 -642 0
-430 -448 0
-431 -449 0
-432 -450 0
-430 -673 0
-431 -674 0
-432 -675 0
-430 -541 0
-431 -542 0
-432 -543 0
-430 -547 0
-431 -548 0
-432 -549 0
-430 -505 0
-431 -506 0
-432 -507 0
-430 -508 0
-431 -509 0
-432 -510 0
-430 -619 0
-431 -620 0
-432 -621 0
-430 -622 0
-431 -623 0
-432 -624 0
-430 -514 0
-431 -515 0
-432 -516 0
-430 -517 0
-431 -518 0
-432 -519 0
-430 -646 0
-431 -647 0
-432 -648 0
-430 -556 0
-431 -557 0
-432 -558 0
-430 -595 0
-431 -596 0
-432 -597 0
-430 -631 0
-431 -632 0
-432 -633 0
-430 -658 0
-431 -659 0
-432 -660 0
-430 -661 0
-431 -662 0
-432 -663 0
-430 -598 0
-431 -599 0
-432 -600 0
-430 -568 0
-431 -569 0
-432 -570 0
-430 -601 0
-431 -602 0
-432 -603 0
-430 -577 0
-431 -578 0
-432 -579 0
-430 -634 0
-431 -635 0
-432 -636 0
-430 -607 0
-431 -608 0
-432 -609 0
-433 -676 0
-434 -677 0
-435 -678 0
-433 -553 0
-434 -554 0
-435 -555 0
-433 -625 0
-434 -626 0
-435 -627 0
-433 -649 0
-434 -650 0
-435 -651 0
-433 -667 0
-434 -668 0
-435 -669 0
-436 -994 0
-437 -995 0
-438 -996 0
-436 -439 0
-437 -440 0
-438 -441 0
-436 -985 0
-437 -986 0
-438 -987 0
-436 -886 0
-437 -887 0
-438 -888 0
-436 -622 0
-437 -623 0
-438 -624 0
-436 -829 0
-437 -830 0
-438 -831 0
-439 -730 0
-440 -731 0
-441 -732 0
-439 -739 0
-440 -740 0
-441 -741 0
-439 -1216 0
-440 -1217 0
-441 -1218 0
-439 -1201 0
-440 -1202 0
-441 -1203 0
-439 -625 0
-440 -626 0
-441 -627 0
-439 -859 0
-440 -860 0
-441 -861 0
-442 -628 0
-443 -629 0
-444 -630 0
-445 -1018 0
-446 -1019 0
-447 -1020 0
-445 -1090 0
-446 -1091 0
-447 -1092 0
-445 -1051 0
-446 -1052 0
-447 -1053 0
-445 -448 0
-446 -449 0
-447 -450 0
-445 -1033 0
-446 -1034 0
-447 -1035 0
-445 -1027 0
-446 -1028 0
-447 -1029 0
-448 -544 0
-449 -545 0
-450 -546 0
-448 -574 0
-449 -575 0
-450 -576 0
-451 -1402 0
-452 -1403 0
-453 -1404 0
-451 -601 0
-452 -602 0
-453 -603 0
-451 -1339 0
-452 -1340 0
-453 -1341 0
-451 -1345 0
-452 -1346 0
-453 -1347 0
-454 -1453 0
-455 -1454 0
-456 -1455 0
-454 -1189 0
-455 -1190 0
-456 -1191 0
-454 -634 0
-455 -635 0
-456 -636 0
-454 -1297 0
-455 -1298 0
-456 -1299 0
-457 -805 0
-458 -806 0
-459 -807 0
-457 -670 0
-458 -671 0
-459 -672 0
-460 -1480 0
-461 -1481 0
-462 -1482 0
-460 -730 0
-461 -731 0
-462 -732 0
-463 -1117 0
-464 -1118 0
-465 -1119 0
-463 -673 0
-464 -674 0
-465 -675 0
-463 -1081 0
-464 -1082 0
-465 -1083 0
-463 -1126 0
-464 -1127 0
-465 -1128 0
-463 -1147 0
-464 -1148 0
-465 -1149 0
-466 -673 0
-467 -674 0
-468 -675 0
-466 -1237 0
-467 -1238 0
-468 -1239 0
-466 -1042 0
-467 -1043 0
-468 -1044 0
-466 -1468 0
-467 -1469 0
-468 -1470 0
-469 -541 0
-470 -542 0
-471 -543 0
-469 -1030 0
-470 -1031 0
-471 -1032 0
-472 -661 0
-473 -662 0
-474 -663 0
-472 -1081 0
-473 -1082 0
-474 -1083 0
-472 -1267 0
-473 -1268 0
-474 -1269 0
-475 -658 0
-476 -659 0
-477 -660 0
-475 -1237 0
-476 -1238 0
-477 -1239 0
-475 -1468 0
-476 -1469 0
-477 -1470 0
-478 -991 0
-479 -992 0
-480 -993 0
-478 -937 0
-479 -938 0
-480 -939 0
-478 -1186 0
-479 -1187 0
-480 -1188 0
-478 -619 0
-479 -620 0
-480 -621 0
-478 -910 0
-479 -911 0
-480 -912 0
-481 -1156 0
-482 -1157 0
-483 -1158 0
-481 -928 0
-482 -929 0
-483 -930 0
-481 -1093 0
-482 -1094 0
-483 -1095 0
-481 -949 0
-482 -950 0
-483 -951 0
-481 -577 0
-482 -578 0
-483 -579 0
-484 -1051 0
-485 -1052 0
-486 -1053 0
-484 -841 0
-485 -842 0
-486 -843 0
-484 -568 0
-485 -569 0
-486 -570 0
-484 -1063 0
-485 -1064 0
-486 -1065 0
-484 -910 0
-485 -911 0
-486 -912 0
-487 -1090 0
-488 -1091 0
-489 -1092 0
-487 -1141 0
-488 -1142 0
-489 -1143 0
-487 -928 0
-488 -929 0
-489 -930 0
-487 -622 0
-488 -623 0
-489 -624 0
-490 -835 0
-491 -836 0
-492 -837 0
-490 -595 0
-491 -596 0
-492 -597 0
-493 -1315 0
-494 -1316 0
-495 -1317 0
-493 -1267 0
-494 -1268 0
-495 -1269 0
-493 -1492 0
-494 -1493 0
-495 -1494 0
-496 -988 0
-497 -989 0
-498 -990 0
-496 -634 0
-497 -635 0
-498 -636 0
-496 -1015 0
-497 -1016 0
-498 -1017 0
-499 -1249 0
-500 -1250 0
-501 -1251 0
-499 -817 0
-500 -818 0
-501 -819 0
-502 -733 0
-503 -734 0
-504 -735 0
-502 -556 0
-503 -557 0
-504 -558 0
-502 -850 0
-503 -851 0
-504 -852 0
-505 -559 0
-506 -560 0
-507 -561 0
-508 -562 0
-509 -563 0
-510 -564 0
-508 -703 0
-509 -704 0
-510 -705 0
-511 -916 0
-512 -917 0
-513 -918 0
-511 -736 0
-512 -737 0
-513 -738 0
-511 -1447 0
-512 -1448 0
-513 -1449 0
-514 -562 0
-515 -563 0
-516 -564 0
-517 -559 0
-518 -560 0
-519 -561 0
-520 -1243 0
-521 -1244 0
-522 -1245 0
-520 -1177 0
-521 -1178 0
-522 -1179 0
-523 -1360 0
-524 -1361 0
-525 -1362 0
-523 -1243 0
-524 -1244 0
-525 -1245 0
-523 -1414 0
-524 -1415 0
-525 -1416 0
-523 -1357 0
-524 -1358 0
-525 -1359 0
-526 -1360 0
-527 -1361 0
-528 -1362 0
-526 -1402 0
-527 -1403 0
-528 -1404 0
-526 -601 0
-527 -602 0
-528 -603 0
-526 -1243 0
-527 -1244 0
-528 -1245 0
-529 -1189 0
-530 -1190 0
-531 -1191 0
-529 -1318 0
-530 -1319 0
-531 -1320 0
-529 -598 0
-530 -599 0
-531 -600 0
-529 -1177 0
-530 -1178 0
-531 -1179 0
-529 -1342 0
-530 -1343 0
-531 -1344 0
-532 -751 0
-533 -752 0
-534 -753 0
-532 -622 0
-533 -623 0
-534 -624 0
-532 -1483 0
-533 -1484 0
-534 -1485 0
-535 -1045 0
-536 -1046 0
-537 -1047 0
-535 -673 0
-536 -674 0
-537 -675 0
-535 -583 0
-536 -584 0
-537 -585 0
-535 -586 0
-536 -587 0
-537 -588 0
-535 -775 0
-536 -776 0
-537 -777 0
-535 -877 0
-536 -878 0
-537 -879 0
-535 -1060 0
-536 -1061 0
-537 -1062 0
-535 -955 0
-536 -956 0
-537 -957 0
-538 -673 0
-539 -674 0
-540 -675 0
-538 -778 0
-539 -779 0
-540 -780 0
-538 -781 0
-539 -782 0
-540 -783 0
-538 -589 0
-539 -590 0
-540 -591 0
-538 -1504 0
-539 -1505 0
-540 -1506 0
-538 -1135 0
-539 -1136 0
-540 -1137 0
-538 -1153 0
-539 -1154 0
-540 -1155 0
-541 -679 0
-542 -680 0
-543 -681 0
-541 -682 0
-542 -683 0
-543 -684 0
-541 -544 0
-542 -545 0
-543 -546 0
-541 -697 0
-542 -698 0
-543 -699 0
-544 -925 0
-545 -926 0
-546 -927 0
-544 -1075 0
-545 -1076 0
-546 -1077 0
-547 -691 0
-548 -692 0
-549 -693 0
-547 -694 0
-548 -695 0
-549 -696 0
-547 -700 0
-548 -701 0
-549 -702 0
-550 -1309 0
-551 -1310 0
-552 -1311 0
-550 -1249 0
-551 -1250 0
-552 -1251 0
-550 -1288 0
-551 -1289 0
-552 -1290 0
-553 -1021 0
-554 -1022 0
-555 -1023 0
-553 -1108 0
-554 -1109 0
-555 -1110 0
-553 -1393 0
-554 -1394 0
-555 -1395 0
-553 -1222 0
-554 -1223 0
-555 -1224 0
-556 -712 0
-557 -713 0
-558 -714 0
-559 -1066 0
-560 -1067 0
-561 -1068 0
-559 -1069 0
-560 -1070 0
-561 -1071 0
-562 -733 0
-563 -734 0
-564 -735 0
-562 -736 0
-563 -737 0
-564 -738 0
-562 -715 0
-563 -716 0
-564 -717 0
-562 -787 0
-563 -788 0
-564 -789 0
-562 -790 0
-563 -791 0
-564 -792 0
-565 -631 0
-566 -632 0
-567 -633 0
-565 -1189 0
-566 -1190 0
-567 -1191 0
-565 -1180 0
-566 -1181 0
-567 -1182 0
-568 -685 0
-569 -686 0
-570 -687 0
-568 -643 0
-569 -644 0
-570 -645 0
-568 -574 0
-569 -575 0
-570 -576 0
-571 -1519 0
-572 -1520 0
-573 -1521 0
-571 -577 0
-572 -578 0
-573 -579 0
-574 -793 0
-575 -794 0
-576 -795 0
-577 -688 0
-578 -689 0
-579 -690 0
-577 -643 0
-578 -644 0
-579 -645 0
-580 -901 0
-581 -902 0
-582 -903 0
-580 -1159 0
-581 -1160 0
-582 -1161 0
-580 -646 0
-581 -647 0
-582 -648 0
-583 -703 0
-584 -704 0
-585 -705 0
-583 -1009 0
-584 -1010 0
-585 -1011 0
-583 -619 0
-584 -620 0
-585 -621 0
-586 -1057 0
-587 -1058 0
-588 -1059 0
-586 -1198 0
-587 -1199 0
-588 -1200 0
-586 -619 0
-587 -620 0
-588 -621 0
-589 -1123 0
-590 -1124 0
-591 -1125 0
-589 -1513 0
-590 -1514 0
-591 -1515 0
-589 -622 0
-590 -623 0
-591 -624 0
-592 -1507 0
-593 -1508 0
-594 -1509 0
-592 -1255 0
-593 -1256 0
-594 -1257 0
-595 -688 0
-596 -689 0
-597 -690 0
-598 -706 0
-599 -707 0
-600 -708 0
-604 -1393 0
-605 -1394 0
-606 -1395 0
-604 -607 0
-605 -608 0
-606 -609 0
-607 -709 0
-608 -710 0
-609 -711 0
-610 -1051 0
-611 -1052 0
-612 -1053 0
-610 -1231 0
-611 -1232 0
-612 -1233 0
-610 -1198 0
-611 -1199 0
-612 -1200 0
-610 -619 0
-611 -620 0
-612 -621 0
-610 -910 0
-611 -911 0
-612 -912 0
-613 -658 0
-614 -659 0
-615 -660 0
-613 -1087 0
-614 -1088 0
-615 -1089 0
-613 -931 0
-614 -932 0
-615 -933 0
-613 -952 0
-614 -953 0
-615 -954 0
-613 -823 0
-614 -824 0
-615 -825 0
-616 -718 0
-617 -719 0
-618 -720 0
-616 -760 0
-617 -761 0
-618 -762 0
-616 -1009 0
-617 -1010 0
-618 -1011 0
-616 -1204 0
-617 -1205 0
-618 -1206 0
-616 -619 0
-617 -620 0
-618 -621 0
-616 -1072 0
-617 -1073 0
-618 -1074 0
-619 -679 0
-620 -680 0
-621 -681 0
-619 -691 0
-620 -692 0
-621 -693 0
-619 -721 0
-620 -722 0
-621 -723 0
-619 -715 0
-620 -716 0
-621 -717 0
-619 -724 0
-620 -725 0
-621 -726 0
-622 -682 0
-623 -683 0
-624 -684 0
-622 -694 0
-623 -695 0
-624 -696 0
-622 -625 0
-623 -626 0
-624 -627 0
-622 -628 0
-623 -629 0
-624 -630 0
-622 -718 0
-623 -719 0
-624 -720 0
-622 -715 0
-623 -716 0
-624 -717 0
-625 -1123 0
-626 -1124 0
-627 -1125 0
-625 -721 0
-626 -722 0
-627 -723 0
-625 -769 0
-626 -770 0
-627 -771 0
-628 -928 0
-629 -929 0
-630 -930 0
-628 -1132 0
-629 -1133 0
-630 -1134 0
-628 -1093 0
-629 -1094 0
-630 -1095 0
-628 -829 0
-629 -830 0
-630 -831 0
-634 -706 0
-635 -707 0
-636 -708 0
-634 -697 0
-635 -698 0
-636 -699 0
-637 -1333 0
-638 -1334 0
-639 -1335 0
-637 -640 0
-638 -641 0
-639 -642 0
-640 -709 0
-641 -710 0
-642 -711 0
-643 -1156 0
-644 -1157 0
-645 -1158 0
-643 -1252 0
-644 -1253 0
-645 -1254 0
-643 -838 0
-644 -839 0
-645 -840 0
-643 -841 0
-644 -842 0
-645 -843 0
-646 -649 0
-647 -650 0
-648 -651 0
-649 -958 0
-650 -959 0
-651 -960 0
-649 -1378 0
-650 -1379 0
-651 -1380 0
-649 -772 0
-650 -773 0
-651 -774 0
-652 -763 0
-653 -764 0
-654 -765 0
-652 -1258 0
-653 -1259 0
-654 -1260 0
-655 -658 0
-656 -659 0
-657 -660 0
-655 -823 0
-656 -824 0
-657 -825 0
-655 -1033 0
-656 -1034 0
-657 -1035 0
-664 -1288 0
-665 -1289 0
-666 -1290 0
-667 -1150 0
-668 -1151 0
-669 -1152 0
-667 -721 0
-668 -722 0
-669 -723 0
-673 -727 0
-674 -728 0
-675 -729 0
-673 -676 0
-674 -677 0
-675 -678 0
-673 -703 0
-674 -704 0
-675 -705 0
-673 -712 0
-674 -713 0
-675 -714 0
-673 -724 0
-674 -725 0
-675 -726 0
-676 -1333 0
-677 -1334 0
-678 -1335 0
-676 -1150 0
-677 -1151 0
-678 -1152 0
-676 -1135 0
-677 -1136 0
-678 -1137 0
-679 -1390 0
-680 -1391 0
-681 -1392 0
-679 -1465 0
-680 -1466 0
-681 -1467 0
-679 -937 0
-680 -938 0
-681 -939 0
-679 -868 0
-680 -869 0
-681 -870 0
-682 -865 0
-683 -866 0
-684 -867 0
-682 -1528 0
-683 -1529 0
-684 -1530 0
-682 -1510 0
-683 -1511 0
-684 -1512 0
-682 -868 0
-683 -869 0
-684 -870 0
-682 -886 0
-683 -887 0
-684 -888 0
-682 -889 0
-683 -890 0
-684 -891 0
-682 -904 0
-683 -905 0
-684 -906 0
-685 -1051 0
-686 -1052 0
-687 -1053 0
-685 -1054 0
-686 -1055 0
-687 -1056 0
-688 -1324 0
-689 -1325 0
-690 -1326 0
-688 -1093 0
-689 -1094 0
-690 -1095 0
-691 -1321 0
-692 -1322 0
-693 -1323 0
-691 -1204 0
-692 -1205 0
-693 -1206 0
-691 -1183 0
-692 -1184 0
-693 -1185 0
-691 -1186 0
-692 -1187 0
-693 -1188 0
-694 -1090 0
-695 -1091 0
-696 -1092 0
-694 -1423 0
-695 -1424 0
-696 -1425 0
-694 -1486 0
-695 -1487 0
-696 -1488 0
-694 -1513 0
-695 -1514 0
-696 -1515 0
-694 -1534 0
-695 -1535 0
-696 -1536 0
-697 -1528 0
-698 -1529 0
-699 -1530 0
-697 -1015 0
-698 -1016 0
-699 -1017 0
-700 -1261 0
-701 -1262 0
-702 -1263 0
-700 -1300 0
-701 -1301 0
-702 -1302 0
-703 -1117 0
-704 -1118 0
-705 -1119 0
-703 -715 0
-704 -716 0
-705 -717 0
-706 -1453 0
-707 -1454 0
-708 -1455 0
-706 -1408 0
-707 -1409 0
-708 -1410 0
-709 -1270 0
-710 -1271 0
-711 -1272 0
-709 -1264 0
-710 -1265 0
-711 -1266 0
-712 -1126 0
-713 -1127 0
-714 -1128 0
-712 -775 0
-713 -776 0
-714 -777 0
-712 -778 0
-713 -779 0
-714 -780 0
-715 -931 0
-716 -932 0
-717 -933 0
-715 -868 0
-716 -869 0
-717 -870 0
-715 -1417 0
-716 -1418 0
-717 -1419 0
-718 -721 0
-719 -722 0
-720 -723 0
-718 -1483 0
-719 -1484 0
-720 -1485 0
-718 -1486 0
-719 -1487 0
-720 -1488 0
-721 -1507 0
-722 -1508 0
-723 -1509 0
-724 -1045 0
-725 -1046 0
-726 -1047 0
-724 -1057 0
-725 -1058 0
-726 -1059 0
-727 -877 0
-728 -878 0
-729 -879 0
-727 -1468 0
-728 -1469 0
-729 -1470 0
-730 -1024 0
-731 -1025 0
-732 -1026 0
-730 -1363 0
-731 -1364 0
-732 -1365 0
-730 -742 0
-731 -743 0
-732 -744 0
-730 -745 0
-731 -746 0
-732 -747 0
-730 -1114 0
-731 -1115 0
-732 -1116 0
-730 -760 0
-731 -761 0
-732 -762 0
-730 -766 0
-731 -767 0
-732 -768 0
-730 -769 0
-731 -770 0
-732 -771 0
-730 -1012 0
-731 -1013 0
-732 -1014 0
-730 -1531 0
-731 -1532 0
-732 -1533 0
-730 -1330 0
-731 -1331 0
-732 -1332 0
-730 -853 0
-731 -854 0
-732 -855 0
-733 -1375 0
-734 -1376 0
-735 -1377 0
-733 -1162 0
-734 -1163 0
-735 -1164 0
-733 -748 0
-734 -749 0
-735 -750 0
-733 -751 0
-734 -752 0
-735 -753 0
-733 -1459 0
-734 -1460 0
-735 -1461 0
-733 -775 0
-734 -776 0
-735 -777 0
-733 -778 0
-734 -779 0
-735 -780 0
-733 -1036 0
-734 -1037 0
-735 -1038 0
-736 -1048 0
-737 -1049 0
-738 -1050 0
-736 -754 0
-737 -755 0
-738 -756 0
-736 -757 0
-737 -758 0
-738 -759 0
-736 -1462 0
-737 -1463 0
-738 -1464 0
-736 -781 0
-737 -782 0
-738 -783 0
-736 -784 0
-737 -785 0
-738 -786 0
-736 -1171 0
-737 -1172 0
-738 -1173 0
-736 -1219 0
-737 -1220 0
-738 -1221 0
-736 -1225 0
-737 -1226 0
-738 -1227 0
-739 -763 0
-740 -764 0
-741 -765 0
-739 -1498 0
-740 -1499 0
-741 -1500 0
-739 -772 0
-740 -773 0
-741 -774 0
-742 -898 0
-743 -899 0
-744 -900 0
-742 -880 0
-743 -881 0
-744 -882 0
-742 -964 0
-743 -965 0
-744 -966 0
-742 -976 0
-743 -977 0
-744 -978 0
-745 -883 0
-746 -884 0
-747 -885 0
-748 -1102 0
-749 -1103 0
-750 -1104 0
-748 -850 0
-749 -851 0
-750 -852 0
-748 -844 0
-749 -845 0
-750 -846 0
-751 -913 0
-752 -914 0
-753 -915 0
-751 -1363 0
-752 -1364 0
-753 -1365 0
-754 -1114 0
-755 -1115 0
-756 -1116 0
-754 -853 0
-755 -854 0
-756 -855 0
-754 -844 0
-755 -845 0
-756 -846 0
-757 -913 0
-758 -914 0
-759 -915 0
-757 -916 0
-758 -917 0
-759 -918 0
-757 -1195 0
-758 -1196 0
-759 -1197 0
-757 -1027 0
-758 -1028 0
-759 -1029 0
-760 -784 0
-761 -785 0
-762 -786 0
-760 -1501 0
-761 -1502 0
-762 -1503 0
-766 -961 0
-767 -962 0
-768 -963 0
-766 -973 0
-767 -974 0
-768 -975 0
-766 -895 0
-767 -896 0
-768 -897 0
-766 -907 0
-767 -908 0
-768 -909 0
-766 -862 0
-767 -863 0
-768 -864 0
-769 -1375 0
-770 -1376 0
-771 -1377 0
-769 -1474 0
-770 -1475 0
-771 -1476 0
-769 -1501 0
-770 -1502 0
-771 -1503 0
-772 -862 0
-773 -863 0
-774 -864 0
-772 -1459 0
-773 -1460 0
-774 -1461 0
-775 -1000 0
-776 -1001 0
-777 -1002 0
-775 -1003 0
-776 -1004 0
-777 -1005 0
-775 -958 0
-776 -959 0
-777 -960 0
-778 -1522 0
-779 -1523 0
-780 -1524 0
-781 -823 0
-782 -824 0
-783 -825 0
-781 -1033 0
-782 -1034 0
-783 -1035 0
-781 -1258 0
-782 -1259 0
-783 -1260 0
-784 -1114 0
-785 -1115 0
-786 -1116 0
-784 -1054 0
-785 -1055 0
-786 -1056 0
-784 -1030 0
-785 -1031 0
-786 -1032 0
-787 -931 0
-788 -932 0
-789 -933 0
-787 -952 0
-788 -953 0
-789 -954 0
-787 -1036 0
-788 -1037 0
-789 -1038 0
-790 -997 0
-791 -998 0
-792 -999 0
-793 -1411 0
-794 -1412 0
-795 -1413 0
-796 -1288 0
-797 -1289 0
-798 -1290 0
-799 -1477 0
-800 -1478 0
-801 -1479 0
-802 -1477 0
-803 -1478 0
-804 -1479 0
-811 -1426 0
-812 -1427 0
-813 -1428 0
-814 -1327 0
-815 -1328 0
-816 -1329 0
-817 -1426 0
-818 -1427 0
-819 -1428 0
-820 -1327 0
-821 -1328 0
-822 -1329 0
-823 -1225 0
-824 -1226 0
-825 -1227 0
-826 -1084 0
-827 -1085 0
-828 -1086 0
-826 -910 0
-827 -911 0
-828 -912 0
-829 -1084 0
-830 -1085 0
-831 -1086 0
-829 -832 0
-830 -833 0
-831 -834 0
-829 -835 0
-830 -836 0
-831 -837 0
-829 -838 0
-830 -839 0
-831 -840 0
-829 -841 0
-830 -842 0
-831 -843 0
-832 -1285 0
-833 -1286 0
-834 -1287 0
-832 -928 0
-833 -929 0
-834 -930 0
-832 -949 0
-833 -950 0
-834 -951 0
-835 -994 0
-836 -995 0
-837 -996 0
-838 -886 0
-839 -887 0
-840 -888 0
-841 -925 0
-842 -926 0
-843 -927 0
-841 -889 0
-842 -890 0
-843 -891 0
-844 -871 0
-845 -872 0
-846 -873 0
-847 -1405 0
-848 -1406 0
-849 -1407 0
-853 -892 0
-854 -893 0
-855 -894 0
-853 -988 0
-854 -989 0
-855 -990 0
-856 -901 0
-857 -902 0
-858 -903 0
-859 -1489 0
-860 -1490 0
-861 -1491 0
-865 -934 0
-866 -935 0
-867 -936 0
-868 -1273 0
-869 -1274 0
-870 -1275 0
-868 -1408 0
-869 -1409 0
-870 -1410 0
-874 -1399 0
-875 -1400 0
-876 -1401 0
-877 -1057 0
-878 -1058 0
-879 -1059 0
-886 -1291 0
-887 -1292 0
-888 -1293 0
-886 -1294 0
-887 -1295 0
-888 -1296 0
-889 -1084 0
-890 -1085 0
-891 -1086 0
-889 -910 0
-890 -911 0
-891 -912 0
-895 -967 0
-896 -968 0
-897 -969 0
-895 -1363 0
-896 -1364 0
-897 -1365 0
-898 -955 0
-899 -956 0
-900 -957 0
-898 -1024 0
-899 -1025 0
-900 -1026 0
-901 -955 0
-902 -956 0
-903 -957 0
-904 -922 0
-905 -923 0
-906 -924 0
-904 -1273 0
-905 -1274 0
-906 -1275 0
-904 -1084 0
-905 -1085 0
-906 -1086 0
-907 -1024 0
-908 -1025 0
-909 -1026 0
-907 -1135 0
-908 -1136 0
-909 -1137 0
-907 -1474 0
-908 -1475 0
-909 -1476 0
-910 -1105 0
-911 -1106 0
-912 -1107 0
-919 -1228 0
-920 -1229 0
-921 -1230 0
-919 -1498 0
-920 -1499 0
-921 -1500 0
-922 -1144 0
-923 -1145 0
-924 -1146 0
-922 -1156 0
-923 -1157 0
-924 -1158 0
-922 -949 0
-923 -950 0
-924 -951 0
-922 -1141 0
-923 -1142 0
-924 -1143 0
-925 -1186 0
-926 -1187 0
-927 -1188 0
-925 -991 0
-926 -992 0
-927 -993 0
-925 -1063 0
-926 -1064 0
-927 -1065 0
-928 -1120 0
-929 -1121 0
-930 -1122 0
-928 -1111 0
-929 -1112 0
-930 -1113 0
-931 -1117 0
-932 -1118 0
-933 -1119 0
-937 -1273 0
-938 -1274 0
-939 -1275 0
-940 -1147 0
-941 -1148 0
-942 -1149 0
-940 -1162 0
-941 -1163 0
-942 -1164 0
-940 -1066 0
-941 -1067 0
-942 -1068 0
-943 -1489 0
-944 -1490 0
-945 -1491 0
-946 -1477 0
-947 -1478 0
-948 -1479 0
-949 -1192 0
-950 -1193 0
-951 -1194 0
-949 -1084 0
-950 -1085 0
-951 -1086 0
-952 -1039 0
-953 -1040 0
-954 -1041 0
-955 -1003 0
-956 -1004 0
-957 -1005 0
-955 -1009 0
-956 -1010 0
-957 -1011 0
-958 -1459 0
-959 -1460 0
-960 -1461 0
-961 -1330 0
-962 -1331 0
-963 -1332 0
-964 -1330 0
-965 -1331 0
-966 -1332 0
-967 -1006 0
-968 -1007 0
-969 -1008 0
-970 -1327 0
-971 -1328 0
-972 -1329 0
-973 -1108 0
-974 -1109 0
-975 -1110 0
-976 -1309 0
-977 -1310 0
-978 -1311 0
-976 -1012 0
-977 -1013 0
-978 -1014 0
-979 -1006 0
-980 -1007 0
-981 -1008 0
-985 -1096 0
-986 -1097 0
-987 -1098 0
-988 -1012 0
-989 -1013 0
-990 -1014 0
-991 -1075 0
-992 -1076 0
-993 -1077 0
-994 -1216 0
-995 -1217 0
-996 -1218 0
-994 -1366 0
-995 -1367 0
-996 -1368 0
-997 -1018 0
-998 -1019 0
-999 -1020 0
-997 -1246 0
-998 -1247 0
-999 -1248 0
-1000 -1126 0
-1001 -1127 0
-1002 -1128 0
-1000 -1036 0
-1001 -1037 0
-1002 -1038 0
-1012 -1015 0
-1013 -1016 0
-1014 -1017 0
-1015 -1108 0
-1016 -1109 0
-1017 -1110 0
-1015 -1021 0
-1016 -1022 0
-1017 -1023 0
-1018 -1285 0
-1019 -1286 0
-1020 -1287 0
-1018 -1462 0
-1019 -1463 0
-1020 -1464 0
-1018 -1099 0
-1019 -1100 0
-1020 -1101 0
-1021 -1201 0
-1022 -1202 0
-1023 -1203 0
-1024 -1537 0
-1025 -1538 0
-1026 -1539 0
-1024 -1465 0
-1025 -1466 0
-1026 -1467 0
-1027 -1219 0
-1028 -1220 0
-1029 -1221 0
-1027 -1099 0
-1028 -1100 0
-1029 -1101 0
-1033 -1462 0
-1034 -1463 0
-1035 -1464 0
-1036 -1039 0
-1037 -1040 0
-1038 -1041 0
-1039 -1078 0
-1040 -1079 0
-1041 -1080 0
-1039 -1084 0
-1040 -1085 0
-1041 -1086 0
-1042 -1051 0
-1043 -1052 0
-1044 -1053 0
-1045 -1150 0
-1046 -1151 0
-1047 -1152 0
-1048 -1051 0
-1049 -1052 0
-1050 -1053 0
-1048 -1054 0
-1049 -1055 0
-1050 -1056 0
-1051 -1219 0
-1052 -1220 0
-1053 -1221 0
-1060 -1198 0
-1061 -1199 0
-1062 -1200 0
-1063 -1105 0
-1064 -1106 0
-1065 -1107 0
-1072 -1102 0
-1073 -1103 0
-1074 -1104 0
-1075 -1120 0
-1076 -1121 0
-1077 -1122 0
-1084 -1093 0
-1085 -1094 0
-1086 -1095 0
-1087 -1171 0
-1088 -1172 0
-1089 -1173 0
-1087 -1225 0
-1088 -1226 0
-1089 -1227 0
-1093 -1129 0
-1094 -1130 0
-1095 -1131 0
-1093 -1273 0
-1094 -1274 0
-1095 -1275 0
-1093 -1162 0
-1094 -1163 0
-1095 -1164 0
-1093 -1147 0
-1094 -1148 0
-1095 -1149 0
-1093 -1126 0
-1094 -1127 0
-1095 -1128 0
-1105 -1168 0
-1106 -1169 0
-1107 -1170 0
-1105 -1231 0
-1106 -1232 0
-1107 -1233 0
-1111 -1141 0
-1112 -1142 0
-1113 -1143 0
-1123 -1135 0
-1124 -1136 0
-1125 -1137 0
-1123 -1474 0
-1124 -1475 0
-1125 -1476 0
-1129 -1132 0
-1130 -1133 0
-1131 -1134 0
-1132 -1195 0
-1133 -1196 0
-1134 -1197 0
-1138 -1291 0
-1139 -1292 0
-1140 -1293 0
-1138 -1441 0
-1139 -1442 0
-1140 -1443 0
-1144 -1210 0
-1145 -1211 0
-1146 -1212 0
-1153 -1258 0
-1154 -1259 0
-1155 -1260 0
-1156 -1273 0
-1157 -1274 0
-1158 -1275 0
-1156 -1231 0
-1157 -1232 0
-1158 -1233 0
-1159 -1405 0
-1160 -1406 0
-1161 -1407 0
-1162 -1324 0
-1163 -1325 0
-1164 -1326 0
-1165 -1279 0
-1166 -1280 0
-1167 -1281 0
-1165 -1168 0
-1166 -1169 0
-1167 -1170 0
-1165 -1438 0
-1166 -1439 0
-1167 -1440 0
-1165 -1411 0
-1166 -1412 0
-1167 -1413 0
-1171 -1195 0
-1172 -1196 0
-1173 -1197 0
-1174 -1348 0
-1175 -1349 0
-1176 -1350 0
-1174 -1318 0
-1175 -1319 0
-1176 -1320 0
-1174 -1297 0
-1175 -1298 0
-1176 -1299 0
-1174 -1342 0
-1175 -1343 0
-1176 -1344 0
-1177 -1228 0
-1178 -1229 0
-1179 -1230 0
-1177 -1366 0
-1178 -1367 0
-1179 -1368 0
-1177 -1498 0
-1178 -1499 0
-1179 -1500 0
-1180 -1516 0
-1181 -1517 0
-1182 -1518 0
-1180 -1423 0
-1181 -1424 0
-1182 -1425 0
-1183 -1384 0
-1184 -1385 0
-1185 -1386 0
-1183 -1252 0
-1184 -1253 0
-1185 -1254 0
-1189 -1312 0
-1190 -1313 0
-1191 -1314 0
-1189 -1300 0
-1190 -1301 0
-1191 -1302 0
-1189 -1321 0
-1190 -1322 0
-1191 -1323 0
-1189 -1345 0
-1190 -1346 0
-1191 -1347 0
-1192 -1432 0
-1193 -1433 0
-1194 -1434 0
-1201 -1222 0
-1202 -1223 0
-1203 -1224 0
-1204 -1486 0
-1205 -1487 0
-1206 -1488 0
-1207 -1432 0
-1208 -1433 0
-1209 -1434 0
-1207 -1450 0
-1208 -1451 0
-1209 -1452 0
-1213 -1459 0
-1214 -1460 0
-1215 -1461 0
-1213 -1387 0
-1214 -1388 0
-1215 -1389 0
-1216 -1363 0
-1217 -1364 0
-1218 -1365 0
-1228 -1276 0
-1229 -1277 0
-1230 -1278 0
-1231 -1252 0
-1232 -1253 0
-1233 -1254 0
-1234 -1243 0
-1235 -1244 0
-1236 -1245 0
-1240 -1330 0
-1241 -1331 0
-1242 -1332 0
-1243 -1378 0
-1244 -1379 0
-1245 -1380 0
-1261 -1309 0
-1262 -1310 0
-1263 -1311 0
-1261 -1288 0
-1262 -1289 0
-1263 -1290 0
-1261 -1291 0
-1262 -1292 0
-1263 -1293 0
-1261 -1294 0
-1262 -1295 0
-1263 -1296 0
-1264 -1477 0
-1265 -1478 0
-1266 -1479 0
-1279 -1339 0
-1280 -1340 0
-1281 -1341 0
-1282 -1450 0
-1283 -1451 0
-1284 -1452 0
-1285 -1387 0
-1286 -1388 0
-1287 -1389 0
-1291 -1300 0
-1292 -1301 0
-1293 -1302 0
-1294 -1306 0
-1295 -1307 0
-1296 -1308 0
-1294 -1528 0
-1295 -1529 0
-1296 -1530 0
-1297 -1312 0
-1298 -1313 0
-1299 -1314 0
-1300 -1441 0
-1301 -1442 0
-1302 -1443 0
-1303 -1381 0
-1304 -1382 0
-1305 -1383 0
-1303 -1354 0
-1304 -1355 0
-1305 -1356 0
-1306 -1360 0
-1307 -1361 0
-1308 -1362 0
-1306 -1414 0
-1307 -1415 0
-1308 -1416 0
-1312 -1420 0
-1313 -1421 0
-1314 -1422 0
-1315 -1327 0
-1316 -1328 0
-1317 -1329 0
-1318 -1336 0
-1319 -1337 0
-1320 -1338 0
-1318 -1339 0
-1319 -1340 0
-1320 -1341 0
-1318 -1345 0
-1319 -1346 0
-1320 -1347 0
-1321 -1384 0
-1322 -1385 0
-1323 -1386 0
-1324 -1375 0
-1325 -1376 0
-1326 -1377 0
-1336 -1441 0
-1337 -1442 0
-1338 -1443 0
-1336 -1387 0
-1337 -1388 0
-1338 -1389 0
-1339 -1411 0
-1340 -1412 0
-1341 -1413 0
-1342 -1417 0
-1343 -1418 0
-1344 -1419 0
-1342 -1366 0
-1343 -1367 0
-1344 -1368 0
-1345 -1414 0
-1346 -1415 0
-1347 -1416 0
-1345 -1384 0
-1346 -1385 0
-1347 -1386 0
-1345 -1441 0
-1346 -1442 0
-1347 -1443 0
-1345 -1420 0
-1346 -1421 0
-1347 -1422 0
-1348 -1366 0
-1349 -1367 0
-1350 -1368 0
-1348 -1369 0
-1349 -1370 0
-1350 -1371 0
-1351 -1438 0
-1352 -1439 0
-1353 -1440 0
-1354 -1402 0
-1355 -1403 0
-1356 -1404 0
-1354 -1429 0
-1355 -1430 0
-1356 -1431 0
-1354 -1525 0
-1355 -1526 0
-1356 -1527 0
-1357 -1390 0
-1358 -1391 0
-1359 -1392 0
-1357 -1369 0
-1358 -1370 0
-1359 -1371 0
-1360 -1528 0
-1361 -1529 0
-1362 -1530 0
-1363 -1480 0
-1364 -1481 0
-1365 -1482 0
-1369 -1414 0
-1370 -1415 0
-1371 -1416 0
-1372 -1426 0
-1373 -1427 0
-1374 -1428 0
-1375 -1522 0
-1376 -1523 0
-1377 -1524 0
-1381 -1432 0
-1382 -1433 0
-1383 -1434 0
-1381 -1450 0
-1382 -1451 0
-1383 -1452 0
-1402 -1417 0
-1403 -1418 0
-1404 -1419 0
-1402 -1420 0
-1403 -1421 0
-1404 -1422 0
-1405 -1447 0
-1406 -1448 0
-1407 -1449 0
-1408 -1417 0
-1409 -1418 0
-1410 -1419 0
-1408 -1510 0
-1409 -1511 0
-1410 -1512 0
-1408 -1420 0
-1409 -1421 0
-1410 -1422 0
-1411 -1435 0
-1412 -1436 0
-1413 -1437 0
-1414 -1516 0
-1415 -1517 0
-1416 -1518 0
-1420 -1429 0
-1421 -1430 0
-1422 -1431 0
-1429 -1441 0
-1430 -1442 0
-1431 -1443 0
-1429 -1510 0
-1430 -1511 0
-1431 -1512 0
-1432 -1444 0
-1433 -1445 0
-1434 -1446 0
-1435 -1438 0
-1436 -1439 0
-1437 -1440 0
-1438 -1471 0
-1439 -1472 0
-1440 -1473 0
-1453 -1510 0
-1454 -1511 0
-1455 -1512 0
-1456 -1489 0
-1457 -1490 0
-1458 -1491 0
-1474 -1537 0
-1475 -1538 0
-1476 -1539 0
-1477 -1492 0
-1478 -1493 0
-1479 -1494 0
-1483 -1507 0
-1484 -1508 0
-1485 -1509 0
-1495 -1531 0
-1496 -1532 0
-1497 -1533 0
-1501 -1537 0
-1502 -1538 0
-1503 -1539 0
-1501 -1522 0
-1502 -1523 0
-1503 -1524 0
-1504 -1522 0
-1505 -1523 0
-1506 -1524 0
-1504 -1513 0
-1505 -1514 0
-1506 -1515 0
-1516 -1525 0
-1517 -1526 0
-1518 -1527 0
-1531 -1534 0
-1532 -1535 0
-1533 -1536 0
1 0
947 0
